B2 C140 Ca1 F48 H298 O66 
1.0
1.7823938662924022e+01 1.2130478505259957e-15 -3.0159466408323524e-17 
-3.0815295519403323e+00 1.9396682282559894e+01 -7.5750386674734374e-17 
-1.8423810359881934e-01 1.2444103145552896e+00 1.9578004070388427e+01 
B C Ca F H O 
2 140 1 48 298 66 
Cartesian
  10.5012347202    3.5814816368   16.7982616931
  -0.8725143328    6.3259633864   12.0672687541
   0.3605987899    1.6465930877    1.6418604913
   7.0600857747   13.7680174058    7.6113086442
   4.5486623131    6.6249448334    0.9344240688
  12.5913185976   12.5897816957   12.6435555948
   4.3562688684    2.8625414191   16.6696420119
   2.2221099955    1.8298651706   18.4024394570
   1.7938681980    2.4577887703    5.7723860508
   2.7457479657    1.1500550888   16.9874559562
  -0.1717203524    3.7809135861    6.0918274833
   2.9587625474    6.4330918945   19.2419886135
   2.2527444250   17.7222167866   18.3338206104
   0.9632843294    3.5025721628   17.3799221913
  12.0225350049   16.0853733134   14.8728936219
   5.4840357020    9.9424646678    0.9206367853
   5.8578968533   17.2278716574    9.5501372976
  12.0525999452   11.7169769433   16.2515542612
   9.6301642036   11.8612658169    6.9251392680
   9.3386320432   13.3664936401    6.7789326994
  12.7845781299   11.7361734577   14.9170944370
   3.9434000658    8.0438704575    0.8395210320
  12.1731878246    9.5029703448   17.0675923932
  12.0263388038   11.9168029918    6.5858309283
   0.0670424573    5.0719724029    6.9815878564
   0.5216113910    7.5330930624    6.8657774578
   4.7994812817   19.2674001043    9.6948564214
   2.0534075853   16.6195389093    1.1770145594
  15.9810525516    1.8056831909    2.6749284825
   7.1854876388    0.8473818829   10.5508726361
   1.4404243896   15.2743521595    1.4830641439
  13.1584741196   16.9378528601   16.8088419225
   5.5245013453    2.3688402026   10.6026132411
   6.8630712934   14.1079612040    2.9327472931
  14.8076171413    0.8556498632    3.1717524935
   5.8257952591   14.0572686019    0.8529815529
   5.7051532775   15.0793056161   18.9696932076
  14.8131261488   15.2686958165   12.1769046708
   1.8717844830   13.0340214070    1.9791019870
  12.9715281633   15.8988788346   17.9035721975
   5.9264858022   13.2825635058   17.4088384757
   4.8247069970   17.8787541195    3.9114242947
   7.2373676045    0.3124512707    2.5185808920
   6.4468051296    1.6904185170    2.5539738499
   4.2910512859    2.6392298963    2.1662872056
  14.8773269725   17.0456128167   10.5361997478
   6.8581948243    1.3463597366    7.0327282437
  12.2972572177   14.9830760745    8.7134674207
  13.4931328465   17.6713803920   10.3801665696
   3.6401337724   16.3651962419   12.1586985889
  12.9430262111   18.5024895026    4.3843935077
   7.9249273344    2.4147295905   18.3267209018
   8.1834237263    4.9864035975   19.2152635828
   8.4302207220    3.8580513631   18.0965613821
   4.0798610390   15.3644589648   14.3442935691
  11.9594732133   18.9442737167   11.6535236256
  10.1843513233   15.0937498064    9.8905571783
   9.7609909767    3.3816083329   13.2702376271
  12.1023639652   15.9870829610    0.0248714549
  11.8379477992   13.3089958827    3.3296326621
   9.5379306758   14.7302419775   11.3501780151
   5.4102786384    2.9261649154    6.0472342432
   1.3309290757   12.8483384638   10.9773387096
   3.9817260366   16.5969768588   15.1454510620
   0.3119194753   18.6472396607    8.7918923367
  10.6604734618    3.7296732056   14.3650197123
  11.6742395036    4.8975560273   14.0289085919
   5.3177881203    4.3985262935    5.6499850073
   4.6903160866   18.8570142628   15.1542875988
   8.5833193745   12.7033823944   10.9169169574
  -1.8326012832   13.4203933663    8.8550161256
  15.2729429806   11.1873138825    8.8749631376
  -0.5420096726   17.1095201645    6.9620862049
  -1.3889123944   10.4819471551    8.1006184706
   6.1193527610    6.7071883874   15.6623270878
  13.2506939752   15.0536159021    4.4944743603
  -1.4770052798   17.7335566178    6.0301445195
   2.9079104884   13.6298416572    9.4718687046
  16.0164462917   10.1378140519    5.7771209082
   3.8716925642    6.1604961257    5.3418572322
  12.0823136309    2.5753962844   18.3738791479
   2.2029769495    5.4600283589   13.5139351530
   9.0215738459   20.4062748095   18.7506731374
  14.4240362547   14.2795301568    5.0606093243
   7.2903799888    7.5330824661   16.3496917202
   2.9879905264   14.5466414143    8.1833656841
   7.5413631377    7.4447197906    4.1408083740
  -0.6277068180   17.8987246830    3.7976793121
   7.1642893080    9.0736804137   16.2210814842
   9.6877694939    7.6541660295    9.5363037940
   0.5817180833    7.6932776353    2.7646313284
  13.2749570602    3.4575256959   18.7694191649
   2.2411574952    6.1982526453   11.0336231602
   1.4319913889    5.7083683082   12.2158810082
  10.8325357714    5.9313892563    3.1910233253
   9.3200736796    6.0400605170    3.5618596986
   9.0560751573   15.7098254536   16.8885347150
   8.7959408281    8.3955490679   10.5397269846
  11.9358127864    9.5080210576    3.8089872621
   8.4206246838   18.0456844887   12.1155089716
  -1.4346423631   13.3927438530    3.9530191636
  13.5586807440    7.0599081375    6.0556772257
   7.3843920743    8.7208439082   10.0002771041
  12.3751470474   10.0739816947    1.4416218106
  12.2143430446    6.3080704642    1.2087173176
   2.8840575677   14.5009769924    5.7820744348
  12.7262835317    9.0304728140    4.9756629000
  16.2057188772    7.1017571520    3.0045021351
   7.9688358001   18.7000202504   14.2848755546
   9.7761218520   13.7313938162   18.2140782408
  15.0341725721    7.9925193549   14.6482605020
  16.1278428645    8.1127179575   13.5782549495
  15.5729157780    6.2824693188    1.9552081458
  15.0894223612    3.3586698726   11.0828308793
   9.1449255745   12.7253061728   19.2381751465
  15.2414198878    4.8568613184   11.1312463873
   8.6789468331   19.5459269945   15.3149375117
  14.6288182134    5.7119439104   10.0405301324
  16.0778780621    9.4442389481   12.6669708437
  11.5713561366    0.9954751635    7.2393020267
   2.5093052817   10.1010184781   15.7686200073
  -1.3474600258   10.3115072035    0.0102493283
   1.1565974099   13.5858419809   15.2377087000
  15.0884884897   12.1765369175    0.7900052124
   4.6319161525   10.7244374849    7.3525097228
   4.3692613172   11.1295079509    4.3545494902
   9.5247967084   17.8053740351    6.2551110481
   7.9887011863   18.2797414895    6.3276351464
   1.6845098731   12.3071290485   15.8153850510
  -0.7432839676   19.9545221253   13.1812939536
   0.9560089111    1.2004370321   12.6184714202
   1.0067180052   18.4411726481   12.8577155241
   2.0553060291    2.4504107215   10.8417617572
   8.9472757932   11.2512975164    2.0871606835
   2.8103373392   10.0081370354    8.5229974476
   5.5747533502   10.2602573332    6.0990076946
  13.9230269385    1.5823634433   14.7896882948
  -0.5522615511    8.8222160917   19.0940275751
  16.3285578592    4.5823465818    0.3815862443
  -1.2091683105   13.3329109922   15.4900044016
  -0.0626673132   11.2513544154   19.1894394541
   9.7824274579   16.8114609501    3.9776683691
   8.7928222482    6.8645511786   13.6836602484
   7.9720717496    1.9146011410   17.0155889666
   8.7817881567    6.1603189880   18.8202976139
   9.1045730997    4.5375749916   12.7031822267
   8.6994387603    1.6307819356   19.0868050934
   8.8208179775    3.4232660028    0.8076886853
   6.7093490465    2.3686762318   18.8156025849
   6.8369858710    5.2020852546   19.3768607419
   8.7802220992    2.6660891081   13.8638447350
  12.3552789223    4.5815458871   12.7943684686
  10.3701304676    2.7958801432   12.3030709701
  12.6082909516    5.0283531690   15.0076880663
   4.8801217598    7.1242465736   15.9641461228
   6.2775318319    5.3303502407   16.1223833455
  11.1145946866    6.1640740137   13.7123250911
   6.2032567123    6.5937718364   14.3066893110
   3.0101085247    4.3732568989   13.4238043541
   7.9226557908   20.0152991745   18.1593961877
   2.9124959719    6.5289008735   13.7765492734
  10.9662243867    7.8663806421    9.9586480998
   1.6002956568    5.8022348018    9.9145615382
   6.8573431870    9.4475049622   14.9680382149
   8.3442340027    9.7341896939   16.6255982725
   1.1971297786    5.4240258958   14.4452393883
   9.7407766150    8.1615024237    8.2583007454
   9.0061259045   18.9067810565    0.5045926998
  14.3429248204    3.3057256142   17.9481772875
  10.1302574234   19.7552876655   18.3690321611
   3.5360207833    5.8901754711   10.9121850304
   9.5264344926    6.2896183150    9.4098829307
   6.6197889296    8.8615987969   11.0927466873
  13.7515354064    1.7931431290    0.4509394372
  12.9259160979    4.7419070917   18.8182624042
   6.2394805930    9.5686748807   17.0916401631
   2.2582817230    7.5362616995   11.0001941326
   6.6911930174    7.7793050083    9.1877576894
  14.8706237871    9.1897751401   15.2045865422
   7.2676832288    9.9239782835    9.3520812928
  13.8275445935    2.9341812788   11.1697249565
  13.7427931399    7.8717395870   14.0665270160
  14.5811889120    5.1024439816    8.8466770476
  15.5677191934    2.9121633818    9.8387746910
  15.2527154423    6.9319545150   10.0563855360
  15.2930730055    6.9942813725   15.5157461843
  -0.9217892453    9.3378261855   11.5520507073
  15.8025784931    2.8154698235   12.0170363858
  -1.3480039246   10.5782980951   13.3280187533
  13.3250921548    6.0404331325   10.3529533153
  14.8377591843    9.6359304184   12.2807407715
   1.2970518478    1.1953615603   18.5868287108
  11.3738742407   12.5657739804   16.0721411435
   2.6046148403    2.5165602296    5.0891759160
   5.2914813875    6.5879287899    1.7160464542
   5.3174417315   16.5860942801    8.8922464066
   9.6706197384   11.6932439796    7.9879441568
   5.2202721812    6.3987275483    0.0914155072
   5.4374232877    3.0729732158   16.7879308041
  16.8252898181    3.9369303933    5.4227849336
   0.5060957180    2.7084273403    1.8890525301
   1.3428044972   18.4595558325   18.3041742246
   0.7522941877    1.4805336205    0.5357559257
   6.6464987893   14.1928863069    8.5510788143
   0.8319873910    4.5796499051   17.5331545600
   0.9454700073    1.1369143498    2.3603710871
  12.0699645434   11.8449877501   12.0461429733
  -0.4061114646   19.4602336537   17.1900032337
   6.7015458229   14.3845876814    6.8329301215
  12.9905767101   16.1282328939   14.3962049753
   6.0446706295   10.3013537228    1.7911285546
  13.6782547596   12.5163152200   12.5647309421
   2.0392392139    5.8711815525   19.3030012899
   2.8385940250    7.3506850709   18.7137192348
  11.5415964574    8.8316763870   17.6488580169
  11.9761644988   11.9146348069    7.7006615321
   1.1639200102    1.4792161292    5.8241082790
  -0.3386131412    2.9064982913    6.7951625080
  10.2506313162   13.9959905000    6.9145870246
   3.7680798412    3.1459190002   17.5658377173
   5.6681262832   19.7199477533    9.2549130894
  11.9076897168   15.1044023180   15.3761245438
  12.7657380567   10.6329616923   14.4871503612
   1.8380115520   16.7199780210   18.0562774973
   2.9779588203   18.0727566462   17.5710062957
  11.2487181297   16.3716457112   14.2602673770
   6.5191800262   18.0102688012    9.0075527471
   0.0374924259    2.9209718510   17.6613986539
   2.6980009672   16.9013004270    2.0580387309
   0.8528060650    8.2324418343    6.1163652014
  12.7893651862   12.0121481837   17.0062534671
   2.1663200746    2.7230725518    6.7621635205
   6.5617649271   16.6298935836   10.0605480470
   8.8342388456   11.2508401948    6.5664062146
   4.7883094277   10.6881880177    0.5020698983
   6.6151569010   12.6940322348    7.5118393599
   6.1862034182    9.5394308882    0.1905131269
   3.7498084966    5.7150751433   18.7419126827
  12.2985615001   13.5663766307   12.1396430134
   2.8536437261    1.6473414368   19.1733143090
   3.9294866849    3.4752942791   15.9414179770
   1.3886437129    3.0115648096   16.3361537718
   2.0892849486    1.5344304577   16.2905756477
  16.4549716042    2.2163063150    3.6121617094
  15.5835321978    2.7065301945    2.1701249812
  13.1475761788    9.9884455924   17.4818614084
   2.9419011218    7.8456106102    1.2200046638
   3.7839967746    9.5809859989   19.3320903044
   1.4386214790    7.2446029063    7.4808541613
   1.1694654912    4.8270274662    7.1087796381
   1.2856199233   17.4708432430    1.0043098177
  12.7796039572   11.2904272668    6.2120271883
   7.8846293923    1.5485289629   10.9529815115
  12.2411031704   12.8812714753    6.1742437227
  12.5448632822    8.8438125607   16.1976133970
   8.8529931346   13.4908239323    5.8124165993
  13.8136096332   12.0664914150   15.1133697494
   4.2003908680   18.8322697321    8.9104767786
   6.0420156235   14.7461495359    3.1041085054
  -0.4476896930    5.1561033367    8.0177197679
  -0.1984233189    7.9730935438    7.5140500509
   5.4081571343   15.0649810248    1.0826721117
   6.0413162841    3.0906819708   11.2234172497
   1.2544634589   14.7051474773    0.4719921660
  13.3276435695   17.8577797448   17.3857661492
  14.1722119163   16.7115771494   16.3946925947
   4.7297447091   15.6042821627   18.6194625862
  13.7953748490   15.2653688209   12.6518453071
   7.7782811805   14.4865126656    3.4177784487
   4.8113469397    2.8825429318    9.9239947762
   3.5223732264   19.6767023064   11.3003245627
   5.3302417202   12.3583268087   17.3015333772
  15.1733585636   14.2290844544   12.2569858810
  11.5195994166   19.3734728548    2.4579442192
  13.9644766279    1.6127739517    3.2839904364
   5.0356671781   17.6675711226    4.9606101308
   6.5459497549    1.4566081662    8.0791061620
   3.8601248487   19.2330328906    1.6477742811
   0.3852804903   15.2761408911    1.9479985354
   6.7849736214    2.3732037164    3.4225474609
   3.1889567074    2.5843180673    2.3285142867
  -2.1125308929   17.5396999730   11.2137603502
   0.7971321485   12.8631487841    2.3297901157
   2.2471929810   12.8494121101    1.0119370317
   6.6248110478   13.1465163907    3.5204144162
  12.7383369717   14.8886792822   17.5878303084
   4.8623740212    1.7734289177   11.3434371594
  13.9737395692   15.7375121829   18.3888182985
   7.0182940812   13.0790935423   17.2476463007
  12.2451997904   14.0438923431    8.1808155930
  12.6426371915   16.8463938066   10.3318095633
   5.0982546272   13.2605662814    1.2611045475
   2.9522609888   16.4960333424   11.2538975648
   5.8170431885   17.9750734768    3.3485454259
   4.6059043337   16.2528182612   11.6967858718
  13.2966749697   15.1252873565    8.9081030188
   4.5821902016    2.9590734308    1.1452320928
  -2.3817092830   15.8601343919   12.8335822497
   6.5895751892   15.7126418403   18.7027064016
   2.5055822347   12.3197268264    2.5003650873
   7.9765479523    1.0952662921    7.0098107140
   6.3709828163    0.5786205632    6.3307965938
   5.6815240385   14.0168579837   16.6782976786
   7.8547667326    4.2547938165   17.2318820607
  11.8624244852   20.0332248108   11.6844527920
   3.5126577443   14.5487091155   14.9185924899
   5.1109641962   14.9966382915   14.0210226612
   9.7965585626   14.2813654802    9.1488191445
   3.6815381751   17.2651466662   12.7696601324
   4.2250861382   16.9985505261    3.5005697378
   8.3456162259    0.3558578228    2.3896799772
  -2.5293783698   17.0448313607    9.5349507236
  13.9351812956   18.9311310014    4.0171961660
   6.7471335161    2.1586449380    1.5875554238
  12.6564244895   17.6438245438    3.8285339172
  13.0942306022   18.3534436693    5.4979893110
   4.5764114118    3.4735822227    2.7797358223
  12.0186415598   15.7582646194    7.9965747184
  13.4699179100   18.1670508866    9.3991188092
   9.9350807995   15.2011843344   12.2227310888
   0.4592400791   18.5687270158    9.9217711968
   1.8270233037   11.9237743627   10.7188114268
  12.5488849890   13.4454519104    2.4484501918
  10.8244516146   13.3903681964    3.0856111214
  11.1593512071   18.4267735836   11.0229874614
  11.6001589203   18.1862609977   19.1102863043
  11.3363076672   15.8025904047    0.7979608438
   1.7895924712   13.3141957508   11.9287142234
  11.6207074210   18.6481592678   12.6689046367
   0.2696574235   12.7034562410   11.2586210709
  11.9963435925   12.2948282994    3.6975969334
   4.9409982049    2.2292354665    5.4036295035
   9.8846488899   16.0186858743    9.4239829788
  15.3450689280   13.5459561095    7.9563994470
   8.7810756185   11.6165430892   10.6378288940
   4.7115971147    2.8447200684    6.8624165769
  13.0688938253   16.1510386267    0.5305189820
   5.8916169427    4.7105176712    4.7416246523
   5.8122099431    4.9152631429    6.5256431758
  14.3294437629   11.3394401969    8.2942280193
   5.4857486861   19.4762469189   14.7989879434
   0.0084158729   19.7464174950    8.5530788575
   1.2616524971   18.4728210897    8.2664435427
   8.4395990215   15.0770254487   11.3103046484
   4.2512341407   16.3249532867   16.0868240231
   2.8610719660   16.8213842732   15.3163642685
  -0.8059113917   13.2973353168    8.4948323068
  -0.7257894979   11.2526369000    7.6611760688
  11.3104994683    2.8002046809   14.4241428183
  13.6072210126   15.4276686004    3.4641557167
   4.8510920756   18.8781102983   16.2656765054
   8.2499034846   13.0286705325    9.9328974510
  15.6465694758   11.1788069994    5.5966348633
   3.6727476633   19.2227029032   14.9216969141
  -1.4023709841   18.8314626359    6.1812653079
  -2.4924728525   17.5029982410    6.4941475724
   7.6652968408   12.7806319904   11.6364765284
   3.1822980166   12.6023423776    9.1672337307
  -1.8965897439   14.2848937488    9.5107085947
  13.0137100649   15.9746723961    5.0926965391
   3.5927359637   14.0911414519   10.1961097829
   0.4352967628   17.3814000071    6.5347692195
  11.4162896824    3.0317963937   19.1324757604
  15.0210255375   10.3973104746    9.6118444064
  -0.8680149881   16.0719179628    7.0527672607
  15.4828585436    9.5008241732    5.1390816882
   4.4820023386    6.4438429858    4.3962998697
   7.4464262577    8.4934382553    4.1763688938
   4.2865158735    6.8184026143    6.1690135591
  -0.8550059930    9.8615191864    8.8334849119
  14.3253482836   13.6540965418    6.0224938302
   0.6728311880    7.1969184608    3.8769505608
  -0.7666409582   10.0780249325    5.6678368680
  -0.6267160199   17.1724140054    2.8249673255
   0.4099842843   17.8416706427    4.2196216932
   1.9730456425   15.0443189287    8.0542403977
   0.8819632210    6.8812380013    2.0523434687
  15.2786961713   14.9217238539    5.2743104152
   3.6210251995   15.4435995372    8.4451144270
  11.4610683647    6.5777101230    3.8038905065
   7.2793623479    7.3688083404   17.4160127348
   2.8127391255    6.6234441665    5.4004178253
   1.3201526440    8.6095405960    2.7956906224
   6.7931231271    6.8791843169    3.5729954423
   8.1667058720   16.3389330764   16.6589151862
  11.1406280964    4.9009469453    3.1155030621
   7.6065614498    7.0281572576    5.2036007457
   0.8847618619    4.7503827060   12.0823930488
   8.2996819799   19.0986598723   11.8921524098
  11.2627932429   10.3854518481    4.1423266875
   9.4565451151   15.0847051467   16.1192543374
  12.6637216327    6.9613807025    6.9492311452
  11.1637714924    8.8560694724    3.3217781360
   9.2335237702   17.6769224759   11.4989951185
  -0.7910362998   18.8919138779    3.3058344449
  11.7915753265   11.0480119176    1.4899673622
  13.0872641995    6.9313634717    1.5837107199
   8.6257946151    5.2700545906    3.1279788790
  -0.8739135898   13.3428007769    4.9066454694
  11.9243225770    9.2380012970    1.0485561090
  12.4277216886    5.2024621628    1.1564733328
   9.7813991549   16.4474659172   17.1489731135
   9.2939596049    5.6440014435    4.6623816405
   7.5156681241   17.4797978119   11.6941279261
   1.8530593475   14.5788638312    5.5938243924
  -1.0983708466   14.3037072563    3.4488864621
   9.3517981887    9.3208070378   10.5789078310
  14.3516331870    7.7582479466    6.5289115267
  -1.0479275540   12.4404007036    3.5424738911
  15.3718850363    7.6130036677    3.5481515238
   3.2733897574   15.5235678966    5.9229467926
  13.9537717290    6.0340846876    5.8119748868
   7.2633203420   19.3027094949   13.7188059578
  16.6624648132    6.5099237035    3.8135870341
  12.1140540239    9.1334643735    5.8637682275
  12.9814330376   10.4634711829    0.5843656631
   3.3439516688   13.8406596499    5.0505924802
  13.6212556056    9.7293198476    5.0889623757
  12.1989691849    6.6829856371    0.1647934099
   9.8214345238   13.2153928282   17.2571849175
  -0.7494189448    7.9137244217   14.1914331521
   9.4053374911   11.6868780248   19.1732153933
   7.3663942704   18.0931644736   14.9238964163
  10.7536595128   14.2107157484   18.5176493306
  14.6904734345    5.6788352221    2.2595263371
   9.3811290269   18.8976733820   15.8352317887
  15.0895908507    6.9867533294    1.2843252193
   7.9994108872   12.6126435725   19.1596421733
   1.8324353632   10.0686588294   16.6912748332
   1.2353005513   14.2834959385   16.1081864272
  10.1252163161   18.5850637511    5.8089751429
  11.1774495277    1.6605038324    6.4234705390
   5.3255647413   10.5835396041    8.1626383207
   3.7515696208   11.5997940665    5.2344187675
  11.2653366017    1.5718774680    8.1656628854
  16.0755556281    9.6073728733    0.7260575065
  15.6539457519   11.4553720067   18.7165314746
  14.6712039636    5.2500822104   12.0643092965
  15.2046959848   12.8093884520    1.6490721364
  14.5185471449   12.6746364784    0.0098825068
  -2.8244930502   19.9855055747   12.0324595653
   2.8518956411    1.5163705571   13.3765961296
   0.7411410806   17.4856691139   13.3479687804
   1.4818665078    2.2865030518    9.9518419223
   7.9561850975   19.9796180512   15.9290343752
   4.3924125050   11.8404325907    7.2696715290
  -2.0063500467   14.0649920161   15.3522379541
   9.2021870445   17.7405076070    3.7492389619
   3.5397621829   10.1432541067    9.3039641478
   2.3963891925    9.1273672732   15.2023036710
   7.6929464261   18.6710997115    5.3158312591
   0.4672973950    7.3108420749    0.1753964879
   1.8134287918   13.8876446811   14.3821928580
   9.7188308936   10.9318907303    2.8727133040
   1.9873941124   10.7962806180    8.5382077944
  11.3508540343   20.0405498264   14.3429950993
   4.3452626858   11.9499719875    3.6481676895
   2.6941462406   12.7318376645   16.0044360752
   1.4897814204   19.0580621304   13.5659797700
   2.8530572719    1.7433053904   11.0696147172
  10.0041167625   17.3839843783    7.1633806660
  -1.4971216752   12.2535850067   15.4100381984
  15.4529316447    3.8949540469    0.4501260952
   3.5775548430   10.3826541445   15.9707836973
  14.4013714583   11.5251365047    1.3173565718
  12.6398572577    0.9308680197    7.0770205439
   4.0046637866   10.1647066317    3.9420247286
   8.5742098531   10.3031550839    1.7045011681
  15.8519470199    6.3374057537   19.0316964519
   6.6081854636   10.1638586741    6.4481158524
  14.0035425134    2.4928508730   14.1340822310
  -0.8319276493    8.0539514780   18.2931547222
  10.8402568713   16.9411285317    3.7747400075
  -1.2343386472    7.8663653602    0.1202254056
  -0.9425873015   19.4858935115   14.1781392443
   0.4009956860    1.4782305854   13.5422797077
   1.5916452358   18.1740735028   11.9949654614
   2.5510954692    3.4836470487   10.8338223701
   0.7545807945   10.1165559678    0.5066172215
  -0.6291293316    4.1166426915    0.1605801182
   0.2781591229   12.0953827387   18.5620516242
   1.0392359889   11.9967153523   16.5873536975
  14.1679899648    1.7128704973   15.7700280839
   9.4949524426   16.0076538804    3.2963126302
   2.1851034849    9.0789246057    8.6492664019
   7.4416571708   17.3122134186    6.4091566949
   5.2858660025    9.2893496821    5.7370753813
   8.1469923055   11.8240813927    2.5867511088
  -0.8616470207   13.3629480181   16.5353239495
   4.5778956096    9.0475257404    1.6221675846
   8.3679257084   13.9624132107    7.7910699462
  12.1843935465   12.6941360650   14.0108987598
   4.1210954988    1.4715964707   16.4466533925
   1.9694651177    3.1480787233   18.3341008046
  -0.0565513572    6.2572838537    6.2949087142
   3.4747962137    5.6487961603    0.9725156148
   0.9498634765    3.5392835615    5.2964503374
  10.7960613638   11.2887157078    6.1190467624
   5.1122421334   18.0401780341   10.4672568861
  16.8213186535    1.0440225879    1.7959734352
  11.3049640507   10.5489277561   16.5991187590
   2.9967224648   16.6263838933    0.0504006232
  12.2268648694   17.1834284069   15.8525379983
   6.2224919653    1.4427890169    9.7585012099
   2.3068528171   14.3379856748    2.3224327559
   7.0381295000   13.8664686164    1.4739372028
  11.9288000473   19.4780630700    4.4500624965
   5.7326237847   13.7339854787   18.7457851901
  14.8635159103   15.6350460464   10.8166706869
   3.9469874937   18.9410529956    3.7167083118
   5.0106283792    1.4345455017    2.5463912110
  11.8607598483   16.0911822865   18.7610375136
   6.7249744347    2.7191894207    6.4115690939
  13.2974360864   18.5560284387   11.4397253063
  11.5969392234   15.1763913625   10.0352586940
   3.2523953291   15.3850345733   13.0210845313
   4.8061648481   17.5535009326   14.6110004426
  10.0666767714    4.0593401678   15.5773471643
   9.8052705332    3.8166207763   17.9905844914
  -0.7319472952   17.7617780232    8.2654113919
   9.6124148945   13.3863035868   11.5949082968
  12.0730140898   14.2207543793    4.4205816977
   1.5861256156   13.7801103816    9.9343056934
  15.5587806479   12.3545163066    9.7331769900
  15.7999246088    9.6712503748    7.0963670038
  11.7335809614    2.8963762188   16.9730212405
   3.9117494339    4.7703540883    5.5419029811
  -1.7323003797   17.4421923287    4.6185936005
   8.7784217228    7.2918159464    3.4864278500
   8.3769482930    7.0106786912   15.7670532624
  14.8948810699   13.2870175779    4.0393753389
   3.0970542196   13.7738725279    6.9675953020
   8.7517655954    7.8360734740   11.8203756526
  13.0815791060    7.5505644962    4.8660557876
  -0.7339719764    8.1188507717    2.5715437252
   0.4438679434    6.6646112251   12.4088131910
   8.7398597304   14.7569760567   18.0049226199
  10.9924049849    6.5338655004    1.8483058487
  12.9376990557    9.6977191870    2.7056427331
   8.6244861877   17.8118359090   13.4783813918
  16.6694751872    5.1350481342   11.3600426202
  15.9938730144    6.9815895342   12.7006692318
  16.5907627896    5.3238989038    1.5564190920
   1.8115798500   11.1122489265   15.0318982591
  12.4721845043    1.2702541682   14.6236790084
   5.6696009004   11.0989114460    4.9923343981
   7.7662475709   19.2022678064    7.3838029778
   9.6391315023   11.8948292687    1.0375381332
  -0.0546034386   10.0666474640   18.4119621385
  -0.0701781793   19.1501573577   12.2431159709
   1.1685540234    2.5259738959   12.0747485716
  -1.4760701360   11.6814326865    0.4458123715
   9.6090533943   16.5806278600    5.3994180245
  -0.1259409909   13.6905533102   14.6137682899
   3.4785957913    9.8816736589    7.2699661312
