B2 C140 Ca1 F48 H298 O66 
1.0
1.7935724684558480e+01 -8.0654584005845027e-16 -7.7957625338593273e-17 
-2.3049980811041659e+00 1.9558942713281287e+01 -1.0975944385024909e-16 
-8.3291548755918821e-01 2.5148171205472547e-01 1.9518343420768986e+01 
B C Ca F H O 
2 140 1 48 298 66 
Cartesian
  10.0721791059    2.5577002583   16.8814738433
  -1.0935053479    5.7960266542   12.0318845954
   0.1144378843    0.7506207300    1.5682627067
   7.4515859354   13.9736894194    6.7554375580
   5.2711859568    6.4504292397    1.2612505480
  12.6523709529   12.7346908104   12.5842332217
   3.8893720359    1.8875533337   16.0342290997
   1.7036339757    1.0298935804   18.7956474795
   1.5465311941    2.5598104163    5.3144336604
   2.2845439508    0.6366645690   17.4943729043
  -0.5392443429    3.2560815174    6.2498305033
   3.5008968200    5.5074077226   19.0219585967
   2.0831736233   15.5364486724   18.7642740455
   0.4479979705    2.9112671864   18.3484183375
  12.0787683857   15.2675375396   15.4695504556
   4.3466309633    9.8651301674    0.7483842820
   6.1340989682   16.7071980846    8.8772518897
  13.0788304285   11.8033055423   16.1277874303
   9.4385662573   11.7353720830    6.3382616538
   9.5897355045   13.2120685210    6.1085308291
  13.2237519541   11.4607555538   14.6272962206
   4.4359280920    7.6190337205    1.6086553881
  11.1210841257   10.6596595700   16.7602544567
  11.6355213805   11.0445911160    6.9943827028
  -0.0747232898    4.5011461543    7.0046864414
   0.0627841227    6.8337767205    6.7382895847
   5.0280685822   18.7614959876    9.5565323342
   2.6021543692   16.2236203358    1.3951429506
  16.3047025632    1.4424833475    3.0953116388
   3.7952300597   18.9400647665   10.5030054965
   2.1394886906   14.7745581896    2.1203902014
  13.2597356136   16.2744328825   17.3006826358
   5.2610934551    1.5808134304   11.1236939400
   7.8387463490   13.1018942641    2.9893479382
  15.1401180624    0.9588004985    3.7838428950
   6.5288087979   14.2692841344    1.3223639264
   5.5728935018   14.3474038098   19.3324533380
  -1.8193270768   15.1706207441   12.3018638298
   3.1811373234   12.6667125102    2.6688322823
  12.9021131252   15.4355681189   18.4715558612
   5.7469858482   12.5977008308   17.6262239185
   5.5543262775   17.8580243778    3.9088236787
   7.0848665385    0.1866883296    2.6272893216
   6.0176401702    1.2424896072    2.7656596674
   3.9568000867    2.0537984321    2.3438424099
  -2.0306361806   17.0998022913   10.9795920926
   5.8559530756    0.8695935298    6.4450366121
  12.5909318194   14.8649189029    8.9233027836
  14.3588095125   17.1873367558   10.7228614287
   3.3871102535   15.3481404939   12.3615844639
  12.8064308966   18.2238853364    4.1950939324
   6.9265589683    2.1185075223   18.2477209559
   7.9115190149    4.2537370858   19.2974484813
   7.8818775590    3.3552421151   18.1138557276
   4.1813587771   15.0427636313   14.6035890242
  12.4355877775   17.8817119980   12.0086601400
  10.4365692988   14.5115104508   10.0083051509
   9.3040456821    2.4162794808   13.2602453555
  12.7672460414   16.3605040006    0.7130337931
  13.2369165048   12.8319875999    3.6731505661
   9.8920405164   13.8115470529   11.2441569270
   4.9558441889    3.1302581586    6.4989590766
   1.9229242823   12.4670614952   10.9375959832
   4.6631075686   16.2873833721   15.2866238777
   1.3609064394   18.5590556564    8.3060922827
  10.4128417542    2.5089801461   14.4351869759
  11.3820737857    3.6371853644   14.0876798988
   5.2416051450    4.6268079264    6.3966368999
   5.1226576434   18.5295279645   14.1298574848
   9.5710450361   11.8059561846   10.0891018211
  -1.1950209872   13.3599936465    8.2056607806
  15.6683975274   11.2773246085    8.4588359466
   0.2594946917   17.2040687228    6.5945407660
  -1.3225109547   10.2221368288    7.7923949882
   5.3553689784    6.3998315435   15.5695049720
  14.3466002373   14.7699847417    4.3259801625
  -0.8150005982   17.8643467748    5.8081848811
   3.5928180930   12.8046223814    9.1929397449
  16.3203119593   10.2742576619    5.4889626464
   3.7446659446    6.3580057708    5.4882362299
  11.7327425912    1.7336725657   18.5411385576
   1.9781659249    4.7028032676   13.3504330192
   9.6371683147   19.7753089631   18.6531583117
  15.8023685954   14.2566016597    4.6349658103
   6.7099119371    6.9562305376   15.9035703431
   3.8116100062   13.6547973887    7.9757564919
   8.0372088837    7.4155178829    4.6152242931
   0.3962575663   18.2071529602    3.8933501441
   7.0146888383    8.4843536809   15.7248066051
  10.0494910615    7.3869395457    9.6188017616
   0.9211348696    7.6242635217    2.8352953087
  12.9324393189    2.6050352836   18.8698532636
   1.9731482719    5.4555087997   10.7826532541
   1.1437661268    5.0822680753   12.1008376419
  10.5907552924    5.3462034909    3.2563722301
   9.3575096742    5.8353326994    3.7490204173
   8.7405749308   15.1162478128   17.4732545587
   9.0904282257    7.9743632811   10.8263226466
  12.3372131135    8.4154473814    4.1482043793
   8.7902762801   18.6497234504   11.7764304464
  -0.4266417157   12.9918176044    3.5924001470
  14.0431638491    6.0241369100    6.6808834981
   7.5758551589    8.3460538171   10.3934710165
  13.4573491428    9.4596306024    2.2527263627
  12.2376792152    5.3976289515    1.7179944150
   2.6400176107   14.0233061399    5.9701772674
  12.8393477194    7.8343591888    5.4985500761
  16.5313366848    7.0906868419    3.1911369779
   8.8215713325   17.5186543396   13.9318815443
   9.1111027769   12.8949885265   18.3401517300
  15.1538074982    7.7742177996   14.5123642941
  16.2076467858    7.7597779590   13.3674807586
  16.0957946875    6.2252847059    2.0407171732
  14.8873198950    2.8443448311   11.2977399280
   8.6012547654   11.8007118430   19.1841587032
  15.1548580191    4.3572703418   11.3109347065
   9.8476201021   18.3392253830   14.6810443106
  14.5816879563    5.0080427802   10.0631755096
  -1.5341668919    9.0020679489   12.6516366411
  11.7003763913    0.2644656276    6.9164076125
   2.9174312942    9.6926330558   16.0236998803
  -0.5958673410   10.3936074128    0.1282424017
   1.1017313672   12.9948155491   15.7503189615
  15.9601258565   12.1584628070    0.3526093172
   4.8042003673   10.1612021846    7.2509208309
   5.4573256688    9.9201527705    4.2599198101
   9.6148992794   16.5705053183    5.8183672943
   8.5589498312   17.5865658160    6.2159871007
   1.7999859750   11.7746355076   16.3098971379
   2.3493747652    0.1989823083   12.4491253074
   1.1840962826    1.0247371097   11.8584934473
   1.2175244982   17.6409093842   12.6267339962
   0.5054560800    1.2544794339    9.5931477833
   9.7808363081   10.4247511149    1.7411222623
   2.4722521630   10.0383161902    7.1693780692
   6.1263480678    9.8298414796    6.6221969159
  13.4928506067    0.7595679942   15.0238329459
  -0.1104464591    8.0133618589   18.4779175820
  16.4069161191    4.3746881029    0.6639549655
  -1.2143416292   12.8055109859   15.5863561271
   0.0559080724   10.2034742303   19.4417754069
   9.5597249146   16.6454265681    3.2655583086
   8.7287067314    6.0694982698   13.6032154838
   6.5853585545    1.6982372367   16.9626398938
   8.8507968440    5.2595770487   19.1052635441
   8.8800907644    3.6687652415   12.7277219003
   7.5163723350    1.1342561576   19.0332235057
   8.9307593716    3.2596036490    0.9259907571
   5.8231542332    2.4152762784   18.8482073735
   6.6512943567    4.7893930526   19.2974289026
   8.1826130189    1.7799627662   13.6884726337
  11.7951723330    3.5318920742   12.8451133797
   9.6646240180    1.7621598446   12.2149498113
  12.3893080647    3.6324063774   14.9359424649
   4.3323615853    7.2162300451   16.0748759975
   5.4052063511    5.1394305052   16.0180879804
  10.8153414329    4.9330066698   14.3407011716
   5.0736731943    6.2848032777   14.3002974552
   2.7271786512    3.5172959818   13.1209960453
   8.5828203143   19.0173296600   18.3690448080
   2.8638102091    5.6768024533   13.6069465906
  11.4134636640    7.5872540916    9.9698593613
   1.0918927703    5.0602839142    9.7019694243
   7.4043391097    8.7083835409   14.4897389839
   8.1410403590    8.8014591838   16.5593204684
   1.1630082641    4.3942580045   14.4254498476
   9.9282806792    8.2405051816    8.5648821446
  10.7485516993   19.1018129276    0.3928919407
  14.0122732178    2.2644772661   18.0585364804
  10.6367782578   19.2935324787   17.7941018373
   3.0229124082    4.5641601601   10.6111388253
   9.9568780421    6.1464585114    9.2119068788
   7.0557347055    9.0111449203   11.5328071701
  13.8965664756    2.2363970573    0.6713364433
  12.6743256491    3.9230645649   18.6076943719
   6.0633046677    9.4332099486   16.0577550175
   2.3349616854    6.7811545975   10.5737873918
   6.7994866740    7.3197662057    9.9920052343
  15.3053515738    8.8667021201   15.4011544874
   7.4749369564    9.4338864117    9.4651356729
  13.6806988055    2.5316340946   10.9852253571
  13.8874102546    7.9414926863   14.0170718940
  15.0545758290    4.4791685613    8.8902791555
  15.6980513158    2.1482491907   10.3156779507
  14.9106799314    6.3244688768    9.9546286244
  15.1359207955    6.5751087690   15.1919804158
  -0.8679760650    8.6983075172   11.4865912267
  15.1489971614    2.3668942493   12.6105234100
  -0.8475313613    9.8932687718   13.3677379182
  13.2194479211    4.9521003144   10.0487574314
  15.2256824591    9.6104255422   12.2382674906
   0.8161638991    0.3363500211   19.1242466151
  13.6884941521   12.7108308594   16.3637008247
   2.0461734305    2.4566217268    4.2365829120
   5.8801621821    6.0378253271    2.0613364844
   5.5307495129   16.2126930778    8.1208751296
   9.3153204261   11.5363531972    7.3916942797
   6.0631631589    6.8325360773    0.5199797441
   4.4111609564    2.8803795504   16.1191285209
  16.3543844741    3.4665067804    5.9604995986
   0.5400917028    1.7882012601    1.4546007392
   0.9941093878   15.3104885843   18.8558853460
  -0.0213006854    0.2533229868    0.5412281753
   6.9062383012   14.0810830340    7.6621659493
  -0.1593668325    2.1239663880   17.8203656539
   0.8974698722    0.1188142274    2.1136476527
  11.6367716932   12.3017385819   12.7761602540
   0.2382254062   19.2194830172   17.6489288070
   7.0549986739   14.8354669668    6.0479062410
  12.9009381455   15.1940840003   14.6568697427
   5.0668469681   10.5661924738    0.3954640091
  13.1979497380   12.0294998988   11.8716318714
   3.5506105721    4.4446496317   18.6289274416
   2.6301035596    6.1549313447   18.6998314636
  11.4078267178    9.8371047656   17.4849751636
  11.7728337532   10.0632941403    7.4138234451
   1.5687602190    1.6313172769    5.9028862651
  17.2565099082    2.4240321974    6.8968854752
  10.6279297829   13.3907931607    6.2488589728
   2.9374659654    1.9628155478   15.4860657163
   5.6729548804   19.5732369644    9.6817604004
  11.8362488523   14.3055898078   16.1023711566
  12.3719959966   11.0262223294   14.2636973266
   2.4739222701   14.4955108310   18.6148824345
   2.2755338246   16.0754698768   17.8557452216
  11.1282378300   15.4946402815   14.9921214532
   6.8936966739   17.3591051898    8.3472875750
   0.7275885902    3.5968748272   17.6281782337
   3.0386528873   16.9370478317    2.1198073235
  -0.9457136677    6.9815794362    7.0668296430
  13.6326070852   10.9397239495   16.6206201419
   2.0618981662    3.2863495202    5.8717454979
   6.6738386420   15.8730592374    9.3633705530
   8.7837641358   11.1769473693    5.6617433793
   3.8251515703   10.4683568647    1.5826861905
   7.1600688612   13.1847655654    6.1510950316
   3.5269845457    9.4829104522    0.0556844151
   4.3564880945    5.8919386456   18.5407965691
  12.4960025209   13.7748737369   12.2280448905
   3.3810357102    0.5381721566    0.0834430460
   4.5590077122    1.2129363719   15.4767067446
  -0.3182726958    3.2818527901   18.9542923684
   1.7909403425    0.7893334445   16.5530711211
  17.0085675224    1.6082554728    3.9063190018
  16.1377261970    2.2588123033    2.5090441900
  11.1665963218   10.2378538944   15.8215427680
   4.1407860897    7.5092600664    2.6568459556
   3.5369710529    7.6423268964    1.0488866938
   0.4940285766    7.7470863908    6.1494541264
   0.8487778838    4.3013359737    7.5697688071
   1.6112904521   16.7083323094    1.0596794843
  12.5822878567   11.3621646780    6.5449809334
   4.0433106437   19.0574151877   11.5230528928
  11.2794206189   11.8324751806    7.7493693719
  10.0712594598   10.8649437997   16.9214668289
   9.4296404367   13.6240695495    5.0948270506
  14.1611403017   10.9624665036   14.3932297257
   4.7924401535   18.7316999090    8.4704933571
   7.9949279068   14.0658177993    3.6445889254
  -0.8545041538    4.8340119397    7.7290075354
   0.6000870593    6.7041400564    7.7460437819
   6.7428640316   15.3583793184    1.4855228113
   6.1087831629    2.2781344302   11.2736250205
   1.5494068672   14.3077525468    1.3259447550
  13.6764266751   17.3063455493   17.6715321841
  14.2265698349   15.8144764854   16.8927155336
   4.6284914025   14.8866503109   19.1367773200
  15.2147683610   15.6073592676   12.7657453797
   8.7870403477   12.5431246264    3.0706977503
   4.3515615740    2.1579644201   10.8799188718
   3.0750141634   18.0834321036   10.5501448664
   5.9898138000   11.5491325624   17.7271828529
  -1.8250905273   14.0252812813   12.1754250422
  14.3000756216    0.6146604371    3.2604913765
  14.7655565428    1.9063545718    4.3641540684
   5.2756930124   16.8188685313    3.9513730302
   5.5761345564    0.8242123911    7.4984768105
   7.1748408520    0.0348531348    1.5345453467
   1.5640309673   14.9706366915    3.1409163410
   5.8541522869    1.4792629779    3.7642429743
   2.9016957842    1.7991755261    2.2212779267
  -1.9781741844   17.5807205011   12.1254051124
   2.6939007907   12.5074670058    3.6411251294
   2.6532859668   12.1864868588    1.9225803382
   7.0971608340   12.6443398259    3.5366657193
  12.9024914897   14.3659403454   18.1475483802
   4.9190694365    1.0442431992   12.0125013127
  13.8043760480   15.5295294588   19.1470910811
   6.5523793852   13.1725532242   17.1618287965
  12.3253768663   14.7079636379    7.7823202403
  13.9561321444   16.2291709061   10.9852482555
   5.5666933389   13.9342531933    1.8308346542
   2.6245399423   14.8280113083   11.6689029496
   5.7981700912   18.2531651031    4.9234594836
   4.3735395744   14.8920901965   12.1901370819
  13.6155372749   14.4302258867    9.0829264264
   4.3345386844    2.7660050178    1.5931739092
  -1.0840733669   15.5084958435   13.0569686335
   6.3171117677   14.9884916732   18.8376575298
   4.1822856209   12.2953413324    2.7817245073
   6.8764986792    0.3600228723    6.2957545274
   5.0385871010    0.3782022711    5.8408269608
   4.7256974067   12.6945359349   17.0387660264
   7.5641082159    3.9936324132   17.2423171572
  12.1987450827   18.5253941918   12.8131961794
   3.8735482502   14.3114316437   15.3669173717
   5.0039482127   14.6532072960   14.0524043641
   9.7189418401   14.2323297682    9.2817446005
   3.5826147775   16.3671792074   11.8775622211
   6.4802996851   17.8143160371    3.3431504060
   8.0426182610    0.6593570234    2.9578532996
  -1.4908828337   17.9045348454   10.4018710787
  13.6476929887   17.7468914571    3.7096860227
   6.4064138199    2.1666582087    2.3211470324
  11.8889970641   18.1557323810    3.5400300725
  12.8286633792   17.6850312988    5.1548097145
   4.1828777314    2.4865693560    3.3244126678
  12.4498460992   15.9397810706    9.1528306474
  14.1065010058   17.3951977635    9.7075825316
  10.3733980115   14.1480775813   12.2590228457
   1.0111031572   18.8558491736    9.3588339239
   2.3928361010   12.6032092493   12.0127129771
  12.4955018733   12.2196393173    4.1546527844
  14.1782055646   12.2283296480    3.4058136234
  11.6255538763   17.9717641363   11.3544893954
  11.8681056567   16.7019694556    1.1446053447
  13.3543367346   15.6725004513    1.3564661510
   0.8527063933   12.7856924555   11.0459475759
  12.4287672879   16.8352040841   12.3585266828
   1.9644186277   11.3854681706   10.6865577273
  12.8983951754   13.2344065149    2.7706839614
   4.2062554367    2.7620778673    5.7445539240
  10.3141726902   15.6481410406   10.0517701131
  16.0100678064   13.6461159336    7.3863476653
  10.0416868877   10.8833535771    9.8514053833
   4.6707274085    2.9653333038    7.5621217676
  13.3078444582   17.3179181947    0.4153613680
   5.7694236645    4.8857753524    5.5144298973
   5.7387413082    4.9382602463    7.3163839162
  15.1688354871   11.6797161021    7.6127803079
   5.4468601478   18.7318716799   13.1141865359
   1.2252094179   19.5481439959    7.8128469003
   2.2585990136   17.9518008045    8.2030961022
   8.7991481539   14.1494701440   11.3775784309
   5.6496064904   15.9510689363   15.8397170430
   3.9314803172   16.8965266824   15.7839264714
  -0.2870283294   12.8608727750    7.6693419750
  -0.3518250913   10.6845858357    7.4290134867
  10.9147997896    1.4778003998   14.3971111750
  14.2303089843   15.1067938227    3.2962757576
   5.8312027402   18.9941845901   14.8459530908
   9.7130104473   12.4631182539    9.1558694415
  15.8385866203   11.2875162272    5.4572224042
   4.0391629715   18.9480061161   14.2048648017
  -0.6237073952   18.9632392380    5.7267446364
  -1.9193779559   17.6962561820    6.0540114804
   8.5137714011   11.6240868305   10.3072664187
   3.4767264154   11.7858749168    8.9512837985
  -0.8248876643   14.1400970918    8.8729507862
  14.0290696987   15.7328054221    4.7535646152
   4.5784341113   12.8269406118    9.7192725489
   1.2628472190   17.3972920547    6.1689255075
  10.9153951263    2.2198897686   19.1232932327
  14.9014279002   10.7970509856    9.0670143824
   0.1178862156   16.1070681439    6.5380379309
  16.0377681682    9.6064748824    4.6473279795
   2.8660920701    6.0432935369    4.8266161218
   7.8769782382    8.4620695554    4.8358915982
   4.5915869991    6.6921227191    4.8755530153
  -0.9714013969    9.3396781774    8.4234278484
  15.8476534692   13.9535378289    5.6995233529
   1.2330629738    7.1892440257    3.7365566397
  -0.4269667901   10.4034879005    5.4052906796
   0.6565609312   17.8485188081    2.8720101587
   1.2629702582   18.1696190121    4.5217155772
   3.9865376083   14.7270640535    8.1720768286
   0.9566677736    6.9076249992    1.9943000992
  -1.3396359341   15.0769099212    4.4648652164
   4.7224019160   13.2897156179    7.3590619887
  11.3642622491    5.5993892857    4.0030295195
   6.7006604532    6.9420848675   16.9627387545
   3.5562138677    7.3015390166    6.0833378880
   1.6665107852    8.3613755941    2.5878682668
   7.4419052241    7.0057747815    3.7252469766
   8.2414703493   16.1104995555   17.5590046226
  10.6009374227    4.2388411363    3.2047686341
   7.6877106841    7.0430987427    5.5603660323
   0.6858698332    4.2302878167   11.7556108692
   7.6698922236   18.7224956872   11.8781914543
  11.5704226284    9.2173569089    4.2314359412
   8.1882819175   14.7741089270   16.6132704153
  13.3492664748    5.3399010456    6.9847405084
  11.8838278108    7.7166847149    3.4419496068
   9.3462027771   19.5052746906   12.1360346570
   0.0554071257   19.2177929358    3.9357127775
  14.4085930953    9.8190516828    1.7828365039
  12.9899864145    5.9616278587    2.4156686808
   8.5174817848    5.6786396903    3.0299025688
  -0.0525039054   12.4181181037    4.4637088675
  12.7405680642   10.3478727104    2.1567108245
  12.3022633243    4.2451795050    1.7474307749
   9.7864557620   15.2175378671   17.2565128687
   9.0128027879    5.2390830045    4.6185124247
   9.0349049255   18.6565855471   10.7269898329
   2.1139686051   15.0765014779    5.8789844276
   0.2649761208   13.8770260895    3.4418311866
   9.4880061955    9.0095849359   10.8704907095
  14.3957407385    6.8218438370    7.4170467930
  -0.3322612819   12.4315918453    2.6310409872
  15.5948883635    7.6780560173    3.2045780750
   3.6150586248   14.1953341262    5.5808538776
  14.9195920098    5.2811338656    6.4088103567
   7.7910932718   17.8953433512   14.1192483775
  16.7956919610    6.7113302225    4.2106010166
  12.0303723558    7.4292707837    6.1449279010
  13.0245779886    8.7208304215    1.6536420587
   2.0580216190   13.4540913697    5.2957737843
  13.3709050881    8.5209429552    6.1476074327
  12.4476102737    5.6491681643    0.6574742275
   8.9040438734   12.6714417734   17.2885887862
  -0.7019254807    7.4976364677   13.6538346930
   8.3564706798   10.8138697859   18.6041000711
   8.9994722006   16.4285099577   14.2943371288
  10.1337061693   12.9356921174   18.5537244290
  14.9155545780    6.0014067636    2.1318442614
  10.8965860333   17.8591635853   14.7760863695
  16.0262723111    7.0146279695    1.2076768397
   8.4658322193   11.7768239175    0.2115213835
   2.2113800277    8.8816503518   16.2333367204
   0.7351988739   13.6522299199   16.5728572811
  10.6856445353   17.0860509906    5.7574480539
  11.2947404762    0.6554647600    6.0446272694
   5.0082831117   10.1417879672    8.3364078471
   5.4000029089   10.7961863903    3.4752817338
  11.5132499245    0.9008827301    7.8354502195
  -1.0133557992    9.6369638122    0.8847941323
  -1.8382866871   10.7054229729   18.6667339755
  14.6623450388    4.8309777391   12.2185213076
  15.9055571021   13.1806010291    0.7482789581
  15.0900966424   12.6990645599   18.7907819426
   0.3663039767    0.3106923389   11.8490815891
   3.2796787108    0.8939815287   12.6179970017
   0.7261145237   17.5266669288   13.5909116131
  -0.3578325736    0.6273740698    9.9135545076
   9.4033092801   18.3136539701   15.7126653866
   4.5213718413   11.1634086963    6.9563713271
  -2.1241669259   12.9540960199   14.9047104938
   8.6238411569   17.2399560548    3.0483925383
   2.2976543325   10.0635603246    8.2350770465
   3.4509288049    9.1655682964   15.2471372716
   8.2006476057   18.1360859715    5.3315516738
   0.5857891664    7.6660586275   19.1461721803
   1.7948243766   13.5906148821   15.1660878378
  10.6562478802   10.1218914631    2.4362299147
   2.5177277149   11.0407559426    6.8798965675
  11.7678022334   19.4569991815   15.4629520105
   5.9379229446    9.0239752759    3.7448124477
   2.6445861825   12.0101798951   16.9778842429
   2.1916257919   18.0268339176   12.8157711108
   1.0031736484    0.7466809561    8.8342493707
   9.6251446096   15.7193756136    6.4659418808
  -1.3183248507   11.8425278590   16.1217594743
  15.2673713123    4.4308114840    0.5007705903
   3.4496154674    9.9862172982   16.8291276147
  15.1453898586   11.6293825011    0.7843846395
  12.7868210137    0.2079256253    6.7012683175
   4.4681380405    9.6231048576    4.7451744870
   9.2780856479    9.5108503650    1.3861005955
  15.9777773308    4.9959886959   19.1231353694
   7.0097089068   10.2042233309    7.1851852081
  14.0823702486    1.3057277810   14.2346620037
   0.0020433241    7.3998772030   17.4937433379
  10.4666338911   17.3553197821    3.4570333627
  -1.0976029719    7.8208336443   18.9005313702
  -0.3086596577   19.4017834950   13.5288807315
   0.9195615363    1.8033330362   12.7000491129
   1.4791362070   16.7787808723   12.0395712834
   0.1161084192    2.2180325924    9.1732003783
   1.3145507766    9.5106476486    0.7607082329
  16.4108343031    3.3152264776    0.8154492524
   0.6074023993   11.1506549734   19.1993139791
   1.0204006949   11.1959345731   16.9503667047
  13.1188338522    1.5331047060   15.7307227954
   9.6602301920   15.8821905925    2.5461933909
   1.6009808170    9.4778520469    6.7766792756
   7.7529768864   17.1090653750    6.6867607746
   6.4118510178    8.7882929473    6.6042167868
   8.9592017422   10.9430321757    2.3204486546
  -1.1567001662   13.5921892280   16.4007255291
   5.1939359431    8.7501385588    1.1651209983
   8.8039154026   13.9017442416    7.0786255670
  13.2873896867   12.6602338638   13.8286276597
   3.6021530415    1.3635142672   17.3684934871
   1.5963586464    2.4616037489   19.0222305941
   0.2118957490    5.6411710256    6.0397141084
   4.5723195931    5.2461879660    0.8856149416
   0.1713456119    2.9660343362    5.0867232857
  10.5953267245   10.9559958054    5.9866086331
   5.5703803377   17.4438115362    9.9200730500
  16.8063362767    0.4924057206    2.1430812218
  11.8172756075   11.9515370731   16.7354307407
   3.4572365445   15.9118364786    0.2945373906
  12.2102676518   16.4501230887   16.2663651260
   5.4565733061    0.6350622719   10.0448705617
   3.2699347918   14.0510277063    2.4083610761
   7.7607728540   13.4904604421    1.5993134053
  13.1481084697   19.5169098350    4.7361534990
   5.5627018056   12.9478014411   19.0166807123
  -1.4689403861   15.8288597834   11.0713078680
   4.4480403319   18.5531216607    3.2680187348
   4.7231394155    0.8366523272    2.2543902011
  11.6612996385   15.8092613556   19.0839160256
   6.1492048197    2.2742424464    6.2039690462
  13.6939014934   18.2672689857   11.4718882544
  11.7671960706   14.2080520448    9.8471173748
   3.0990003562   15.2692180058   13.7453506180
   5.2605874989   17.1048618752   14.1752703694
   9.6407008819    2.7918642887   15.6104044213
   9.2799548941    2.8284856682   17.9987433566
   0.2498139752   17.6601139651    7.9750075115
  10.1728015432   12.4602726532   11.2040193295
  13.3874430867   13.8324257617    4.6785878818
   2.5187331539   13.3041937495   10.0003409729
  -1.7569719483   12.3951179826    9.0638550224
  16.0097269880    9.6347499276    6.7100749305
  11.3988091122    2.0299769399   17.1481167523
   3.8974918169    5.2419877848    6.4055062704
  -0.5865499372   17.2541003624    4.5148257767
   9.3886173172    7.1849416923    4.1791816861
   7.6500435956    6.1280499963   15.3040544890
  16.1501896311   13.3209080775    3.6209317265
   2.4759734004   13.5223158001    7.2145368733
   9.0035876471    7.2939915305   12.0287608686
  13.7016805429    6.6096244923    5.4209295941
  -0.4669663145    8.1444659328    2.9043015963
   0.1567320305    6.1020452783   12.3366169963
   8.6359127964   14.2469681986   18.6535425995
  10.9248593431    5.8303104692    1.9335119089
  13.5805620392    8.9471018313    3.5716345391
   9.1686016155   17.5205332818   12.5339848888
  16.5155210641    4.6379942391   11.3593559925
  15.8313608149    6.6074870770   12.5167671417
  16.9459588243    5.0867968628    1.7588551761
   2.3066892381   10.7818587826   15.4116059570
  10.0319104367   19.7187248365   14.3626786267
   6.3633091715   10.3116847650    5.2542697096
   8.8450127867   18.5600117643    7.3527702193
  10.4129568321   11.1173235450    0.6856687173
   0.0587416213    9.4135321090   18.2988501949
   0.5014397936   18.5863237055   11.7932506514
   1.3646010043    1.5513817342   10.5883297615
  -0.7293610550   11.7310141557    0.7856590356
   9.4187392964   15.9103996918    4.4466806185
   0.0212542483   12.7845313999   14.9042243262
   3.7193762872    9.2919272584    7.0350383373
