B2 C140 Ca1 F48 H298 O66 
1.0
1.8066204018965205e+01 1.2698864249006421e-17 1.7796254229394985e-17 
-2.2777478636943678e+00 1.9578515776902766e+01 -3.0516815175632893e-17 
-8.6295656840643753e-01 1.1190290940101950e-01 1.9471575749293834e+01 
B C Ca F H O 
2 140 1 48 298 66 
Cartesian
  10.1206153088    2.3446305961   16.9310369110
  -1.1559181983    5.7417285996   12.0030456606
   0.0882432738    0.6890409861    1.5317182465
   7.5265200887   13.8942258824    6.6674614062
   5.4115483055    6.3822968941    1.3407485531
  12.8517212428   12.6718725359   12.5270929989
   3.8905743473    1.6448529595   16.1069903236
   1.7532894940    0.8543181090   18.8851516671
   1.5386240340    2.5266346229    5.3141946675
   2.3996110536    0.4798900041   17.4769128280
  -0.5567320494    3.1750631595    6.2847785991
   3.5396711833    5.3649361574   19.0101610183
   2.0582846751   15.3307725337   18.5494274018
   0.4231639174    2.7767888741   18.3323122620
  12.0953291675   15.1830649420   15.4764874796
   4.3907986625    9.9304973136    0.7524175206
   6.1734020348   16.6518691684    8.8873237333
  13.2245501024   11.7626828116   16.0479603875
   9.4569981483   11.6343408286    6.3094401389
   9.7792586869   13.2210169073    6.0403802985
  13.2702347938   11.4641478218   14.5213148097
   4.4515820190    7.6463943909    1.6278952393
  11.2401553741   10.6686363427   16.7118853168
  11.6105898753   11.0244108138    6.9558658539
  -0.0327136096    4.4620296408    6.9408446590
   0.0633940559    6.7557477155    6.7837042763
   5.0167865120   18.6820189755    9.5546147919
   2.5754806168   16.1587147335    1.3609139810
  16.4514666628    1.3996830395    2.9764839170
   3.8061641638   18.9862682194   10.3990201603
   2.2014566572   14.8616859033    1.9568249802
  13.3819632237   16.2350721651   17.2148261299
   5.2604674693    1.4508550869   11.1560289840
   7.9732271443   13.1136347776    3.0613150733
  15.1507421363    0.9504959357    3.7481632050
   6.7223379303   14.2048332953    1.3447260016
   5.5481462567   14.2576563230   19.3236025724
  -1.7584530704   15.1527917458   12.3000935221
   3.3019923306   12.6602658337    2.7394300041
  13.0201549279   15.3747415124   18.4338220526
   5.7309669209   12.4906392656   17.6978907892
   5.5732136091   17.7501512597    4.0010229934
   7.1413800973    0.1524140342    2.5783174933
   6.1209850948    1.2410741655    2.8528133396
   3.9819786383    2.1106273109    2.2743105441
  -1.9901414114   17.1683005377   11.0374751054
   5.9113392908    0.7952582111    6.4951626800
  12.7037014991   14.8272970533    8.8228611555
  14.5709856046   17.1544399540   10.7584736702
   3.4428145131   15.2743730848   12.2774869633
  12.9808096354   18.2036636807    4.1870630705
   7.0044038374    2.0498698079   18.1857312633
   7.9265583771    4.1371703042   19.1950719632
   8.0491620608    3.2034512868   17.9757150946
   4.2286327805   14.9469818967   14.5492635692
  12.5322962408   17.8027269483   11.9878953971
  10.5505506745   14.5234115037    9.9776574065
   9.3142001796    2.3067072757   13.2590195749
  12.9352958534   16.3582014754    0.7340902880
  13.3599353906   12.7691432785    3.7177317215
   9.9921317808   13.8314008735   11.2076730940
   5.0544949627    3.0134368859    6.4758518552
   1.8982311400   12.4513270304   11.0267018403
   4.8186111775   16.2503273080   15.2125431364
   1.2624665478   18.4276245311    8.2442277585
  10.3796416933    2.4407699280   14.3937232882
  11.4087470176    3.5763704221   14.1264402266
   5.2222361223    4.6192893502    6.3530664854
   5.2616892570   18.4076728715   14.1070921192
   9.6356787478   11.7976649237   10.0799430250
  -1.2042751909   13.2868555012    8.1556799570
  15.7597192401   11.2726479213    8.3806323117
   0.3273414581   17.1485632584    6.6598090741
  -1.3367845317   10.2197841306    7.7901275148
   5.4139176981    6.3864500801   15.5106684108
  14.5579870704   14.7758379276    4.3044790673
  -0.7040204025   17.8171467112    5.7724426451
   3.6592116457   12.6957514793    9.2142480400
  16.4893130166   10.2408912547    5.4407269873
   3.6755554068    6.3899430496    5.5072687020
  11.7037428739    1.6296327289   18.4628115580
   1.9993922343    4.6038306471   13.2263985176
   9.7073859013   19.5713815540   18.6083305588
  15.9778355123   14.3213819781    4.5536899173
   6.8029857541    6.8656586063   16.0085740365
   3.6823797279   13.6100179183    7.9820661523
   8.1610750021    7.4767671751    4.6608996121
   0.4165794213   18.1292802841    3.9132709321
   7.1226042175    8.3660671924   15.7658687812
  10.1436489033    7.4378245285    9.6779233111
   0.9762653547    7.5476130515    2.7793622585
  12.9607902932    2.5138030971   18.7785654101
   1.9393344540    5.3151694633   10.7009373722
   1.1729556950    5.0308355572   12.0065805520
  10.7323697703    5.2569907617    3.2426328019
   9.3635375939    5.7822459252    3.8087871989
   8.7522655577   15.0420931400   17.3737858424
   9.1386638123    7.9450960381   10.8031175565
  12.5394562524    8.3941224399    4.1390235311
   8.8124735926   18.6566643106   11.9090704881
  -0.3555730307   12.9080190636    3.7110591760
  14.1516708971    5.8521263204    6.6414130623
   7.7183827927    8.3868751859   10.4426994506
  13.5450624124    9.4703982777    2.1322161755
  12.3761824914    5.4042610974    1.5950135885
   2.6222377712   14.0626573751    5.9628467180
  12.9715675549    7.7008369871    5.5176300198
  16.6412397020    7.1056000915    3.1113013281
   8.9877508480   17.5042746543   13.9178699531
   9.2688274255   12.7944466313   18.3776416696
  15.2536587314    7.7576311472   14.4604895179
  16.3537642464    7.5932735874   13.3767492671
  16.2551598324    6.1376082233    1.9937109420
  15.0665725566    2.7297583202   11.2846660591
   8.6382266102   11.6165637648   19.2072518058
  15.2555607662    4.2719151730   11.3400747636
   9.9914025636   18.2468720053   14.7506631594
  14.6863853943    4.9512778982   10.0303884731
  -1.5625626621    8.9171359442   12.5313876192
  11.8138924039    0.1318966495    6.9684162340
   2.9158653584    9.6267054183   16.0073802870
  -0.5446218500   10.5109264043    0.1374882423
   1.1473684323   12.9246936134   15.6948746047
  16.0689195865   12.2642208999    0.3281700620
   4.8771833400   10.1450408038    7.2154144966
   5.5493236857    9.7790395337    4.1991570411
   9.8015648272   16.5441506533    5.7138133078
   8.6096725626   17.5840543127    6.2008680479
   1.8339260699   11.6559219324   16.2647041864
   2.3305082835    0.1130125531   12.4537610944
   1.1819396346    0.8713849505   11.8343270358
   1.2881636592   17.6555936398   12.6005015476
   0.4383741751    1.1691393125    9.5004794176
   9.7587252571   10.3304756515    1.7160647648
   2.4813382162    9.9907777459    7.0833734319
   6.1946369847    9.7400458725    6.5731289809
  13.5415075240    0.6235395480   14.9562376846
  -0.1363011063    7.9173142932   18.4649413389
  16.4587294348    4.2957418309    0.6515102273
  -1.1952939370   12.5552764215   15.6005310282
  -0.0436577213   10.1947611647   19.4195194861
   9.5803400423   16.5761558172    3.2233717061
   8.8832481111    5.9752444491   13.5775048912
   6.6614945208    1.6654283596   16.8997840544
   8.8579526015    5.0209462612   19.0923626680
   8.9359785389    3.5769946491   12.7197131769
   7.5614375443    1.0349506165   18.8580109458
   9.1187100748    3.2801539640    0.8443368667
   5.7911276806    2.3977185158   18.7768863041
   6.7590466661    4.7998701203   19.2980788335
   8.2070126903    1.6851928762   13.7664935735
  11.8214920859    3.3955933989   12.8157753732
   9.7656593776    1.6727622800   12.1078795899
  12.5215295881    3.4887759828   14.8809434393
   4.4006199408    7.1024055336   15.8894222337
   5.3716438589    5.0130819078   15.9430227137
  10.9599139293    4.8600526935   14.3237050655
   5.1542158073    6.2340144021   14.1585171602
   2.6828161867    3.5103162615   13.1007997493
   8.5449262031   18.8687653685   18.2723420143
   2.8769118289    5.5938589483   13.4318011407
  11.4594051880    7.5623202946    9.9919362262
   1.0474701492    4.9497248757    9.6969174473
   7.5060734066    8.6427697625   14.4193254677
   8.1406775036    8.7137124925   16.5150046035
   1.1241644131    4.2461664767   14.2922843957
   9.8883144145    8.2057586372    8.5485034305
  10.9303056268   19.1515570662    0.4037834370
  14.0683809455    2.1222468490   18.0753303679
  10.7199162705   19.2366955947   17.8041896411
   3.0236139443    4.5297290541   10.6331952769
   9.9803933529    6.0849786316    9.2016073409
   7.1227926999    8.9057775744   11.5666614889
  13.9595153289    2.3036658444    0.7047986919
  12.7153544611    3.7756447652   18.4482449184
   6.1214649335    9.2375074062   16.0292732230
   2.3566593690    6.6415393809   10.5741728356
   6.8973314559    7.2871320915   10.0135837737
  15.3992919917    8.7723248627   15.3940826373
   7.5854787901    9.2924735971    9.5021280642
  13.6795695301    2.5353866498   10.9930522331
  14.0627146900    7.7657784129   13.8790644403
  15.1194698994    4.4455811518    8.8184880656
  15.7578590578    2.0105363522   10.4308303692
  15.1281149340    6.2252391679    9.9807822672
  15.2190903848    6.5264224822   15.0389945306
  -0.8107453066    8.5433738014   11.5108122787
  15.2430088789    2.2794310170   12.6137283560
  -0.8040808490    9.8155599195   13.3186660040
  13.3689506443    4.8206802243    9.9811703036
  15.4145058447    9.5184197927   12.1155737067
   0.6495536844    0.3515372577   18.9633888164
  13.8493554745   12.7253281625   16.2232814092
   2.0223946019    2.3004679264    4.3125731796
   6.1241076820    6.2912991900    2.2284944412
   5.3841635896   16.5057648190    8.1107950689
   9.0595640807   11.5862947646    7.3600172800
   5.9379580422    6.6852430188    0.2733215095
   4.3929321410    2.6764075470   16.2757878983
  16.4607645242    3.3606481679    6.0341059188
   0.1362213021    1.7950149969    1.6305713389
   0.9381801790   15.4359858515   18.6362077014
   0.0304400940    0.5120461576    0.4219086182
   6.9468423375   13.7163398465    7.5398875929
  -0.0901275675    1.8817494788   17.7414960398
   1.0262119714    0.1325520053    1.8419206788
  11.7520247760   12.3861856724   12.5113188575
   0.2422375592   18.9873223016   17.3645380078
   7.3321031332   14.9533225951    6.1847217887
  12.9553770737   14.7498906815   14.8750229976
   5.0127267142   10.6628276518    0.3772745815
  13.4100211261   12.0556133560   11.7202250760
   3.0202686681    4.3614865787   18.8032694539
   2.6470116959    6.0202874505   18.7309579483
  11.6644398166    9.9846949159   17.4699128499
  11.7286273866   10.0096673345    7.3272381150
   1.6020476703    1.5887994966    5.8732044638
  -0.4970007111    2.3557571710    6.9880682752
  10.6765168856   13.6093123872    6.3206461894
   2.8631204576    1.9603935603   15.6529659128
   5.7190615997   19.4635213284    9.7637494580
  11.9855320992   14.2821811660   16.1085086517
  12.4229993643   10.7893439758   14.3127700880
   2.5470837626   14.2819948934   18.5677583634
   2.3574048792   15.8806977979   17.6551618946
  11.2454634354   15.2946776517   14.7394543275
   7.0943826192   17.0731851730    8.4310759676
   0.7731418049    3.5137241226   17.6446608001
   3.1964393435   16.7940086602    1.8790659389
  -0.9545501459    6.9817316991    6.8874812533
  13.5597397002   10.8503054616   16.5810905473
   2.1291128641    3.2789456978    5.8304438602
   6.5024331967   15.6163659567    9.2158341021
   8.6108124933   11.2982325920    5.7053329423
   3.8327236033   10.3281461662    1.6674583547
   7.1868113491   13.0102329614    6.0243949704
   2.8317531602    9.7373942158   19.3737473584
   4.3591848567    5.6831185730   18.4073067817
  13.0588776774   13.7148424826   12.3168371612
   3.2097453650    0.3134532070    0.2470669081
   4.4482223001    0.9777698744   15.3909558998
  -0.0817271099    3.1885348077   19.0902402056
   1.6516304551    0.8707315605   16.7363039088
  17.2498372253    1.5660323200    3.7204682209
  16.1928114027    2.3196757827    2.5142392418
  11.3637146978   10.3159129718   15.7516634962
   4.3111794482    7.8048873767    2.6935916271
   3.5110174176    7.4697077462    1.0760362693
   0.6739287835    7.5275938496    6.2320540369
   0.8959032156    4.2969261561    7.5219461089
   1.6370930954   16.7694655131    1.0013322385
  12.5368997933   11.2742783864    6.4401791054
   4.1155328998   19.0258749809   11.4163943647
  11.4721708144   11.5278926696    7.9020302057
  10.2440061688   10.9306049792   17.0187431528
   9.4103716407   13.5419373172    5.0221001624
  14.1867510915   10.8292044995   14.5160833538
   4.6598371581   18.8129209292    8.4809589222
   8.3392565170   14.0415057398    3.6493100176
  -0.7609604778    4.6371441416    7.6932466654
   0.6675704272    6.6867260808    7.6661100560
   6.7913778211   15.2695541281    1.7395735800
   6.1999999557    1.9934579910   11.3398744926
   1.5012041112   14.1944811875    1.5301567469
  13.6407195032   17.3179837793   17.3862360972
  14.3222799614   15.7215678694   16.8095423247
   4.5833152834   14.7532141031   19.0974744758
  15.2737136524   15.4020502106   12.6358094780
   8.7601974675   12.3711938036    3.1765453057
   4.5271630526    2.2107981354   10.9065104053
   3.1109416260   18.2195647279   10.1989518189
   6.0211333200   11.4377583456   17.6305855394
  -1.9558288897   14.0083871837   11.9663323165
  14.4098304706    0.7398340203    2.9932263599
  14.8791310389    1.7746833756    4.4690046110
   5.2295947289   16.7097337819    4.0188905272
   5.4468645882    0.5381173875    7.4164431696
   4.9791254166   19.4226367216    1.5221761567
   1.5488497249   15.1647790713    2.8300115897
   6.0859632971    1.3534119583    3.8857777703
   2.9067485161    1.9829375163    2.1440183526
  -1.6792969098   17.6726365072   12.0006424692
   2.8021303548   12.5148402975    3.7022537730
   2.8113905390   11.9764599597    1.9188264923
   7.0408560208   12.5934367576    3.3040133048
  12.8553980772   14.2866998717   18.2056267041
   5.2159236212    0.8258362239   12.0652117618
  13.8961206326   15.4743558089   19.0928903231
   6.4445425893   13.0911065639   17.1001005696
  12.3531431831   14.4330767199    7.8049286703
  14.2571375094   16.1864779456   11.1124984897
   5.9568251118   13.9235233467    1.9772289725
   2.6758489416   14.6979285445   11.6916552588
   5.8320811110   18.0359442514    5.0348642768
   4.4446603658   14.8095350242   12.0793244495
  13.7457942161   14.6257303278    8.9563297154
   4.2825690421    2.9073716421    1.5544669933
  -1.0375415976   15.1337901690   13.1936015931
   6.4587230647   14.6103450212   18.7091604555
   4.2957980028   12.2023501079    2.8448344577
   6.8293838744    0.1276350041    6.4051219488
   5.3111238718    0.4734914913    5.6696926570
   4.7482664748   12.6012831544   17.1047454666
   7.9075881722    3.7464477391   17.0412977801
  12.4747380969   18.5851786951   12.7336483654
   3.8963520749   14.1954865396   15.3082232614
   4.9583832926   14.4736239063   13.9146078333
  10.0501561359   14.1848920019    9.0227940767
   3.3906621185   16.3340010651   12.1708079706
   6.4660360536   17.8641574902    3.4079364403
   8.0545624031    0.5409484200    2.9977858444
  -1.2430802255   17.4486113203   10.3042304832
  13.6062770128   17.8873522190    3.3577044587
   6.3986361836    2.1226687441    2.2839075125
  11.9741437730   18.1739360426    3.9434010670
  13.0637094194   17.4826408379    5.0113549024
   4.1030813105    2.6430371295    3.2663948191
  12.5600007356   15.9282867494    8.9919263717
  14.3781622917   17.1440128429    9.7495303456
  10.5549884071   14.1437901057   12.1159354622
   1.2302733903   18.8422649887    9.2661508193
   2.2977996966   12.6116483964   12.0907530931
  12.5828352386   12.0531079588    3.9692876967
  14.3166272149   12.2166269087    3.7366198359
  11.7342314500   17.8726311798   11.2730172605
  12.0752095685   16.5853931364    1.3182183838
  13.6802941931   15.9236977179    1.4195328385
   0.8419072182   12.7584918320   10.8810247607
  12.5405058802   16.8041566225   12.5354679084
   2.0067962167   11.3328531003   10.8517755433
  13.0499553950   13.2448460780    2.8387198897
   4.1489414162    2.8825431372    5.8367130501
  10.4019778531   15.6661240768   10.0517927181
  15.9889531756   13.5925668318    7.5901340951
  10.0770193613   10.8485763385    9.9301427982
   4.6070826868    2.6674397886    7.4411418053
  13.4515344028   17.3476345435    0.3453283164
   5.7213643522    4.7956111607    5.4729152793
   5.8969091880    4.9982756303    7.1430892339
  15.2031505134   11.6301795883    7.4849947374
   5.5547058721   18.7901913550   13.1247396721
   1.3631660806   19.3437457517    7.4847492271
   2.2523272130   17.9980720219    8.1264021258
   8.8985964139   13.9135561969   11.3008184594
   5.5961781516   15.9388003152   16.0889520209
   4.0287289451   16.7304532270   15.8419224473
  -0.3116459021   13.1011977738    7.5632459507
  -0.3530759522   10.8113386985    7.5039391881
  11.0259448759    1.5286902699   14.3680990337
  14.4056630617   14.8977323116    3.1598638631
   5.9103124451   18.9730736525   14.8687029367
   9.7945907158   12.4467004760    9.1525678238
  15.9875588391   11.2410812423    5.2946340073
   4.1897091329   18.6827870927   14.3634967931
  -0.5940554700   18.9117874812    5.7398141495
  -1.6569580157   17.5076121629    6.3258306185
   8.5723677911   11.7317933443   10.1533767702
   3.3744873881   11.7500816024    8.8421102655
  -1.0076900649   14.1668098914    8.7552895084
  14.4490246236   15.6300380156    4.9894836331
   4.6371262515   12.7262418836    9.6740782549
   1.3007104329   17.3728187207    6.1731418273
  10.8853225368    1.8951033521   19.2215287097
  15.1836757735   10.9567807732    9.2683768639
   0.2089045126   16.1046811130    6.6141129591
  16.1844607637    9.5734565696    4.6445478233
   2.8083782037    6.2006677329    4.9193052043
   8.0271479593    8.5557445737    4.5894641313
   4.4984693591    6.4529460956    4.8664722298
  -0.9738436445    9.3228116855    8.3323069311
  16.1456678834   13.9262302837    5.5668995643
   1.4172496208    7.1255579564    3.6251731413
  -0.4156012320   10.3235758972    5.4050184490
   0.7345661769   17.7653921629    2.9487871573
   1.2687085840   18.4118546202    4.5008121091
   3.8300149530   14.5514227865    8.3783329109
   1.1369459375    6.7672371896    2.0265660534
  -1.3994929738   15.2478374381    4.3952687682
   4.5383674798   13.1707164375    7.2826394086
  11.7377925559    5.4107844402    3.8598199147
   6.7665013766    6.7460172092   17.1270408185
   3.4087206436    7.2030223641    6.1787661522
   1.5169021339    8.4392548558    2.5475384363
   7.3674461155    7.1432416772    3.9204986186
   8.5060176323   16.0291677651   17.7205219957
  10.5192679737    4.1519013385    3.1698998874
   8.0094371903    6.8686069351    5.5349990769
   0.6737256966    4.1523936659   11.8827772635
   7.7146279032   18.9473344028   12.1486739118
  11.6780436295    9.1908138138    4.4488197235
   8.1511646996   14.5724761516   16.6373842733
  13.2946071864    5.3657738269    7.0443209278
  12.0265115649    7.7446843270    3.4358005224
   9.3572473708   19.5678294458   12.1117309647
  -0.1825524186   19.0453731489    3.7591814456
  14.6235677251    9.5224262702    1.7840607095
  13.0950689983    5.7900821199    2.4202397303
   8.6319265826    5.7759124738    2.8917974515
  -0.1212638270   12.3614995494    4.7396464325
  13.0488685872   10.4674148083    2.3180585696
  12.4292283719    4.2498869278    1.7938479901
   9.7704492287   15.0430955110   17.1180247375
   9.0303912738    5.0519403272    4.6082072533
   8.8862743698   18.3451158405   10.8651657923
   2.2823119181   15.1970728670    6.0009816915
   0.3267186499   13.7417846378    3.6262459334
   9.7393477589    8.8383142895   11.0436041872
  14.3325224001    6.6068149566    7.4486922639
  -0.1694559727   12.1288707594    2.9371610721
  15.6923502162    7.7536982395    3.2129701065
   3.6084316407   13.9534362318    5.6226178766
  15.0215024212    5.2100758095    6.7086477170
   7.9439639691   17.6917706689   14.0479399422
  16.8405423147    6.5391075852    4.0963799697
  12.0110307578    7.4176867880    6.0323515088
  13.0026199745    8.7618221012    1.5208783113
   1.9992465692   13.3566900714    5.4339898533
  13.4424781727    8.6069567227    5.9098682295
  12.4938455788    5.6893211972    0.5299444922
   8.9402420154   12.7295439390   17.3542759110
  -0.7566651644    7.4881956936   13.8441712919
   8.5286279738   10.8104725534   18.3834759627
   8.9812590942   16.4415409288   14.2469821185
  10.3607747706   12.7101687671   18.4468100238
  15.2077328474    5.8139580984    2.2208511770
  10.9215745274   17.6408833209   14.7444090468
  16.3436979985    6.5945115040    1.0584551924
   8.5111723566   11.8037549203    0.1887184767
   2.1289977078    9.0661008981   16.4599718941
   0.7828257919   13.3909086943   16.6685187850
  10.8403948272   17.0789246430    5.7927154826
  11.2591329761    0.6142079127    6.1824016787
   5.0613757790   10.2048746716    8.2917892716
   5.6471525095   10.5001826157    3.3433948257
  11.7547383359    0.7259856247    7.9134086439
  -1.0548880517    9.5749100356    0.7863372903
  -1.9200043054   10.6714731602   18.6581489150
  14.7010485369    4.5654896383   12.2174833354
  15.8918654392   13.3105098259    0.6974822877
  15.2285723644   12.2785432127   18.7276278636
   0.1843389514    0.3260630981   11.7755809279
   3.0943216900    0.8791368585   12.6104163068
   0.7427854306   17.1560851804   13.4670169553
  -0.4674720101    0.5961550184    9.8935049807
   9.6490080652   18.2814290648   15.8470385746
   4.6009842239   11.1112110945    6.8814959108
  -2.0031026948   12.8232014207   14.8712902723
   8.6291065360   16.9928009179    2.8891308908
   2.2504477794   10.1971934665    8.1801093188
   3.6607422110    9.2249993483   15.2960063959
   8.3450222936   17.9538944926    5.1692187615
   0.6810302189    7.4805244105   18.9611508444
   1.8244046503   13.5826669124   15.0781876170
  10.6263370010   10.0307866758    2.3848353441
   2.5178730400   10.8935222664    6.4383849909
  11.7995278340   19.5954816960   15.7134544538
   5.7813154588    8.8448453389    3.7984522903
   2.5211124031   11.9973056164   17.0065588126
   2.2116918550   18.1437962469   13.0023381574
   0.9325904280    0.5772080518    8.7630037360
   9.8398127215   15.7799603781    6.4345627888
  -1.3289277533   11.5600322060   16.0748513424
  15.3606002789    4.5551214486    0.7210611884
   3.5367225118   10.0074859905   16.8571496295
  15.2956496505   11.5656052253    0.5752911858
  12.9160825249    0.1563116904    6.7263136814
   4.4673293019    9.6308610888    4.4312643431
   9.2273856186    9.4958698508    1.3829594661
  16.1831222349    4.5340071793   19.1256604253
   6.9201043789   10.3841211623    7.1611172352
  14.2717534911    1.1381876001   14.2953052871
  -0.2076696574    7.4810856694   17.3556099140
  10.3130071943   17.4546115734    3.2295029196
  -1.1203638695    7.6599597154   18.9463799397
  -0.3248956684   19.4591147335   13.5038402385
   1.0871815509    1.6412340463   12.6876826373
   1.3186001841   16.8027298398   11.9603373167
   0.1052936062    2.1178297758    9.0512578163
   1.1907112614    9.6166471182    0.8128871383
  16.6610226783    3.2022170280    0.8091720904
   0.5243585813   11.1974014051   19.2028056767
   1.0905974198   11.0578634697   16.8659066775
  13.0272340481    1.3965841394   15.6204024243
   9.8488061109   15.9205686199    2.3537647439
   1.6240480363    9.5229382752    6.5911924913
   7.7137178733   17.0566726744    6.5299259544
   6.2468236912    8.6005740173    6.7341520833
   9.1990837011   11.0735907874    2.2241070145
  -1.3281853203   13.3612787699   16.4547716106
   5.1012980206    8.8128855805    1.1290065844
   8.9439622286   13.9128677448    6.9752679674
  13.3733059669   12.6522643725   13.8598173832
   3.5717875539    1.2434106339   17.3723326217
   1.5443088225    2.2040629547   18.9367713698
   0.0831720220    5.4937800640    5.9941479540
   4.6712761292    5.2119240545    0.9539170058
   0.1440342321    2.8577745558    5.0209161828
  10.5842237177   10.8792305817    6.0302344807
   5.6003551160   17.4593716381    9.9558716808
  16.9227087984    0.3624567664    2.1468657439
  11.8861429434   11.9268184773   16.7380587041
   3.5385184499   15.9617039167    0.2753607773
  12.3501445170   16.3059924835   16.3391024211
   5.5244557184    0.5911124985   10.0355657487
   3.4099799447   14.0840997867    2.4647826641
   7.8207930722   13.4023808846    1.6989098994
  13.2366808747   19.4983166503    4.6206610694
   5.5891774844   12.8611872260   19.0340179579
  -1.4670207961   15.7604225820   11.0721736462
   4.4998770432   18.5595634124    3.4074325409
   4.7723867731    0.8890921456    2.3092134932
  11.7791264539   15.6817362470   19.0475354170
   6.1228428384    2.2037563328    6.1005769227
  13.8335549045   18.1604553225   11.4311191252
  11.9577094990   14.1063651829    9.8160320065
   3.0842028214   15.2357258006   13.6683182552
   5.3463936480   17.0242177860   14.1321100890
   9.7425890881    2.6027496434   15.5946355024
   9.3594880828    2.7987384431   17.9339011157
   0.1960471658   17.6475217475    7.9008188317
  10.2702435927   12.3826253751   11.1733599613
  13.5374563548   13.8236710840    4.7500564033
   2.6185978588   13.2416333640    9.9852900427
  -1.6783471633   12.3610114685    9.0884261612
  16.0200473136    9.6316127118    6.6380923543
  11.3453893420    1.8539418817   17.1285073521
   3.9617136139    5.2034405499    6.3360165998
  -0.4656801245   17.2696492575    4.5043039296
   9.4390760781    7.1587798370    4.2281467414
   7.6229772539    5.9129386250   15.4669686046
  16.3486170666   13.2784181096    3.6725054171
   2.5724481753   13.4612488702    7.3240423904
   9.0632297216    7.1874066514   11.9078693784
  13.8478437247    6.5223309521    5.3812268911
  -0.3558426174    8.0067772068    2.7807589315
   0.2038863178    6.0577964229   12.2780600433
   8.7138444317   14.2070604167   18.6918231128
  10.9713668903    5.7440101287    1.9288282069
  13.6903326133    8.9436396240    3.4740301318
   9.2049945460   17.4147183984   12.5044231503
  16.6387278155    4.5702610021   11.3623432472
  15.8884451206    6.5875550249   12.4752426505
  17.0655484158    5.0049326719    1.7237243467
   2.3496664045   10.7521225909   15.2103960768
  10.2407465043   19.5220911170   14.2052275471
   6.3748816012   10.2795267196    5.2770396116
   9.0068957634   18.4304334163    7.2203922291
  10.4261769031   11.0999439256    0.6877428624
   0.0678195972    9.2929075949   18.2392360145
   0.4846481342   18.5299022744   11.7856541100
   1.4384199724    1.5589167839   10.5923369156
  -0.6285480075   11.7461473214    0.7508222784
   9.5193216732   15.9293754013    4.5007971938
  -0.0372494483   12.7174356322   14.8461397783
   3.7059275298    9.2300658344    6.9753713813
