B2 C140 Ca1 F48 H298 O66 
1.0
1.7970552475750175e+01 -1.8977344656873838e-16 4.1250037195257003e-17 
-2.4361060031475290e+00 1.9503443201987402e+01 -1.7971818437441020e-16 
-9.7134607411634855e-01 7.1726849751759891e-01 1.9411251318781616e+01 
B C Ca F H O 
2 140 1 48 298 66 
Cartesian
   9.8875442799    2.8133310748   16.8739783681
  -1.2343204952    6.0355285159   11.9926388856
   0.1359489649    0.6864054510    1.8012200189
   7.2651819228   13.9718105144    6.6571345740
   5.1550732088    6.2097618905    1.2957584370
  12.4157895326   12.6120694496   12.5869019592
   3.6633395093    2.2660563244   15.6076683159
   1.7053030129    1.7698326839   18.4389389995
   1.4160248365    2.6953330515    5.3369938038
   2.1425031668    1.3536821902   17.0146944996
  -0.6496981832    3.8314504160    5.9926686753
   3.2891949220    5.8264529052   18.7694845833
   1.8941648159   16.1062851770   18.7975765520
   0.3734025539    3.6008170342   17.8526913488
  12.0512849818   15.6810813130   15.2711606366
   4.5109973377    9.7910370502    0.7140516087
   6.5487501393   17.2006379861    9.0653802142
  12.7307418148   11.7598739699   16.0557826340
   9.6838853553   11.7722736999    6.2545559401
   9.5765876806   13.3803864816    6.1768201002
  13.1491661849   11.5241787655   14.6474960131
   4.3004629458    7.5565052727    1.4534323517
  10.9536256556   10.4788550668   16.6846536481
  12.0611293662   11.5114767545    6.8670543542
   0.0215732524    4.7974703226    6.9573788732
   0.3526029543    7.2254283894    6.6731606490
   4.8436736593   18.7446127969    9.6630334872
   2.6508727028   16.2976409053    1.6629375415
  16.4271230669    1.6459194478    3.1135885894
   3.8203944793   19.1402932165   10.7109559207
   2.1000152815   14.9199015560    2.1691430166
  13.2647226368   16.6639441796   16.9848223404
   5.3161966876    1.7856558694   10.8630124534
   7.7340891928   13.7616781194    3.0352061349
  15.0618328439    1.1923139032    3.8498500235
   6.4864262648   14.3006761972    1.0084951178
   5.5063939219   14.6816171997   18.9125785578
  -1.9646792196   15.4715592698   12.2374845385
   2.7114504599   12.5723690031    2.4554194328
  12.8284996513   15.6511516423   18.0532885669
   5.5978340471   13.0782125938   17.1991634343
   5.5121507475   17.9443795508    3.5008447241
   7.1815468349    0.4965864311    2.4253286434
   6.0874976591    1.4176190326    2.8162341594
   3.7268206619    1.7213405623    2.3863423811
  -2.3120591085   17.2904125078   10.7521205092
   6.3455913935    1.0205485967    6.1703086647
  12.3017327286   15.1771770468    8.7650718839
  14.1479876191   17.4586633543   10.6354481358
   3.5853744252   15.5048098791   12.3032260179
  13.1506355963   18.2476522729    4.2046329374
   6.7745325735    2.2305746013   18.2562111239
   7.5925101448    4.5675233467   19.1833361779
   7.7068584331    3.4820760331   18.0453129664
   3.9532805153   15.3021336746   14.6114281249
  12.2029490559   18.2098772022   11.8189038013
  10.3524857509   14.7978686679   10.0906650998
   9.1577511499    2.7970137068   13.1861672680
  12.5321672295   15.9257681860    0.5005093994
  12.7946984805   13.0760876170    3.4279144265
   9.4849112858   14.0009926419   11.1199794758
   5.0825838660    3.2132853893    6.6226439488
   1.8899800267   12.6967230023   10.7639039297
   4.0310691058   16.7530085926   15.0503818715
   1.1269422497   18.6294879905    8.1628073644
  10.1872896386    2.9731931233   14.3356964620
  11.1819179746    4.1257806286   14.0192642760
   5.3813470264    4.8146710140    6.4787688485
   4.8383770674   18.9504427781   14.3836646177
   9.3180528977   11.8611512061   10.0394285353
  -1.0653528161   13.3400505782    8.5425622111
  15.4501504454   11.3803233861    8.4449459056
  -0.0084427012   17.0704723966    6.6353716121
  -1.4505045304   10.4317851585    7.9409221325
   5.3554908932    6.6429675564   15.7889004524
  14.1616089960   14.7493466691    4.4036458640
  -0.9876233623   17.7895138826    5.8348851773
   3.3143320027   13.5329441273    9.1399590002
  15.7802456389   10.0450502931    5.6110499311
   3.9199694607    6.3565434196    5.4153966027
  11.6693240051    2.1606640866   18.3051484525
   1.8529047015    4.9982998891   13.3127662929
   9.4952600836   20.1565203341   18.4581172796
  15.5120183955   14.0458813939    4.5536335467
   6.8519759569    7.1913485678   16.0925020999
   3.4438218037   14.1983285837    7.7193764417
   7.6755142025    7.5126142064    4.3561036276
   0.2879341329   18.2388283086    3.7153318713
   6.9018408095    8.7853459601   15.7450558295
   9.8150102390    7.7139464005    9.4878228311
   0.6113971724    8.0433089942    3.0036034722
  12.8855341494    3.0045338249   18.7452177675
   1.9606359621    5.6412481148   10.7823835409
   1.1189899192    5.2355899822   12.0084142979
  10.7830440179    5.4873873357    3.2743088025
   9.3238820233    5.7247732375    3.7837506711
   8.6357415950   15.4556725583   17.4368562487
   8.9694285377    8.3051103632   10.5823205950
  12.3343590871    8.5212353655    4.0636722128
   8.9908767564   18.3098868787   11.3587345427
  -0.6542371857   13.0574945128    3.3226657460
  14.3156080222    6.4674782275    6.4728633202
   7.5263391181    8.5437578611   10.1470662326
  13.5552606118    9.5564451754    2.3362078067
  12.1758722331    5.9106025395    1.3782361020
   2.8631524092   14.1452290423    5.5601484902
  12.5789547613    7.9443670469    5.4794943839
  16.2518775301    7.2637796403    3.3422812682
   8.6526890189   17.9458783896   13.7190019766
   9.0853795324   13.2190637534   17.9428248475
  15.0265053188    7.9759967223   14.6087092567
  16.0599332182    7.9669259726   13.4550916690
  15.9885827327    6.5297756693    2.0147403212
  14.9959363515    2.9372831355   11.0590820796
   8.6980776007   12.0814699564   19.0059166676
  14.9392893349    4.4894113722   11.2145905869
   9.6254830208   18.6452493479   14.7961222020
  14.3980666894    5.3214236510    9.9693230676
  15.9930159562    9.4042737847   12.5955321454
  11.5304470759    0.4668212923    6.7901974547
   2.6293684485    9.9800501618   16.1339819217
  -0.6770179367   10.1802009774    0.1234305567
   1.0001591794   13.1610310953   15.3743733722
  16.0123245825   12.1032074085    0.4698682949
   4.9381247991   10.5558510278    7.4439104197
   5.1583872608   10.2927050325    4.4982434298
   9.4309537654   16.9179834056    5.8061152683
   8.2545190907   17.8391681645    6.0803955416
   1.4622683473   11.9976482918   16.2572815362
   2.3337028536    0.5541859381   12.7225390078
   1.1414601009    1.1161133835   12.0661437532
   0.7532069628   17.8524378487   12.3361199241
   0.6633931251    1.5133432965    9.6869076376
   9.7872469348   10.6814670738    1.8100931526
   2.6214943747   10.0161530205    7.6957488525
   6.0727758487    9.8692605210    6.7279694869
  13.4046338009    1.0956043110   14.6097569141
  -0.2513842781    8.3353362852   18.4297317334
  16.8068990511    4.7811986938    0.6250065387
  -1.5680020721   13.2713734334   15.2382776057
  -0.2580564862   10.6195941228   19.1446645101
   9.5771090265   16.9574324545    3.4641620435
   8.6418898678    6.3738017929   13.2122619705
   6.4161610291    1.5415820261   17.1206520202
   8.5420664394    5.4829632170   19.0144134631
   8.8687170887    4.0158295207   12.4618246660
   7.4385739526    1.3063337843   19.0688995638
   8.7633080049    3.3797424156    0.9925133119
   5.6107931115    2.6927594339   18.8535665612
   6.3881418958    5.1801836865   19.2013553304
   7.9616797686    2.2389551577   13.4929137699
  11.7027697996    4.0956022314   12.6731337437
   9.7337486638    1.9732187868   12.1844538331
  12.1120736887    4.1330351480   14.9085678394
   4.2677083000    7.3806030141   16.3853591481
   5.2139322242    5.3398696495   16.1080542621
  10.5380702316    5.3315486828   14.1374073731
   5.1241945172    6.6966738197   14.4222314803
   2.7296153670    3.9607801352   13.3812783628
   8.3688083433   19.5149320924   18.0901798746
   2.7311350878    6.0335552945   13.6299502620
  11.0828712173    7.7673700075    9.9976379003
   1.1539109285    5.3729128828    9.7150096878
   7.1983494294    9.1884688502   14.4670420399
   7.9869605347    9.2538558850   16.5243255727
   0.9449328500    4.8018374522   14.2093538363
   9.9624299886    8.2886709991    8.2411648092
  10.6118569919   19.2688196481    0.3983933895
  13.9918451983    2.9989225838   17.9585605666
  10.4406654702   19.6049910853   17.6858349602
   3.0454812236    4.9023341325   10.4482012574
   9.4166548938    6.4406436520    9.3063866926
   6.8144587490    9.0893046953   11.1618902078
  14.1799249680    2.0276951153    0.6418067091
  12.3939945598    4.3194013329   18.7650044003
   5.8520938472    9.5816782573   16.1886846105
   2.3325623161    6.9711654533   10.7217247451
   6.8109398297    7.5813234648    9.5469933156
  15.3676101153    9.0130834578   15.4223873728
   7.5755001543    9.5751819850    9.1379159465
  13.7689147156    2.4673373623   10.8335163251
  13.7511552777    8.1657840015   14.1926113558
  14.8905713778    4.7130364315    8.8766399780
  15.7309059886    2.5504157040    9.9699658737
  14.6488732804    6.6132659023    9.9426047672
  15.0275905434    6.8295401291   15.3026132714
  -1.5169602966    9.1136626420   11.3901091748
  15.4061014397    2.3878605628   12.2762680327
  -1.1892884610   10.2936167717   13.1346632322
  12.9659374987    5.2260623262   10.0402207360
  14.7051877911    9.9263817957   12.5228175138
   0.8392520755    1.0754540469   18.7624578118
  13.1784822922   12.8368002226   16.1637158028
   1.7470442998    2.1276724176    4.5249048303
   5.6125874992    6.0080589640    2.2972993240
   6.1173403403   16.5714321508    8.2877889337
   9.6263632360   11.4976360405    7.2904600519
   6.0782565976    6.4813703356    0.6025215266
   4.5248372481    2.8969896064   15.6461202410
  16.4128742489    4.2064356977    5.5550753060
   0.4600580384    1.6385493603    1.2958574016
   0.8130405542   15.9285916717   18.6301614192
  -2.1165200149   19.3668710106    1.0944060598
   6.7036025765   14.8576066039    7.0452578240
  -0.3850019426    2.8935965801   17.4547181991
   0.8594139047    0.5585601995    2.7364216608
  11.3736814498   12.2429301203   12.6059957422
  -0.4735060465   19.8481983598   16.7950114744
   7.3178899887   13.9460709911    5.6155469431
  12.9421666849   15.4938933593   14.6087302462
   5.3442971275   10.5004073832    0.5875041674
  13.2000963423   11.9558951190   12.0806963521
   3.4016300359    4.8865981811   18.3678669946
   2.2949667912    6.2447467762   18.6104556055
  11.0265676920   10.1754733969   17.6948441107
  11.7409911782   10.6589358864    7.5110193237
   1.1997638420    2.0902630588    6.2453902188
  17.0478017101    2.9251726926    6.4842613616
  10.5725493440   13.8588074052    6.5606485793
   2.7378813246    2.8700814752   15.4102802243
   5.5315438099   19.6170118518    9.7302740913
  11.8372811252   14.9028852516   15.9385697593
  12.4490998031   10.8895921194   14.0677971953
   2.2194805708   15.0594849774   18.8420457286
   2.3441373647   16.5428997128   17.8808190762
  11.0185534997   15.7961514980   14.6793466170
   7.0030856994   18.0931701379    8.5988750420
   0.6769393043    4.2062720078   16.9513432182
   3.1944592203   16.9581395826    2.2272558518
  -0.6781641967    7.1976964361    7.0299412126
  13.2977647057   11.0906975959   16.7137102989
   2.1897226402    3.4987451835    5.7431790635
   7.2123875854   16.4728424023    9.4664896175
   8.9811027495   11.1562791883    5.6893036569
   3.7607043882   10.3109072950    1.3112985073
   6.6747230168   13.0161428664    6.8763325706
   3.0404296649   10.1334439507   19.1282610618
   4.0889583103    6.4274333806   18.2219775313
  12.5134641301   13.6476837899   12.2337856577
   2.5288895477    1.6690977190   19.0408984097
   3.8344427287    1.5744580196   14.6907110172
  -0.3978616519    4.2884212354   18.3646603417
   1.5186466898    2.0271165318   16.3303603732
  17.1600870618    1.3800077649    3.9159602807
  16.4077379245    2.7101346262    2.9813972705
  11.5248141799    9.7511331146   16.1191383506
   3.7201824149    7.3884633893    2.4092321352
   3.4311506994    7.4865363766    0.6685518877
   0.4862360653    7.7744831368    5.7670577415
   0.8214303227    4.2134262503    7.4939313519
   1.6623942015   16.7689384108    1.5997959319
  13.0407544940   11.2749774554    6.3328921917
   4.2912128415   19.5668804932   11.6931426543
  12.2480326255   12.4051364096    7.3664042539
   9.8541028471   10.3875764062   16.3837351078
   9.5537520483   13.8304510604    5.0895337668
  14.2413956740   11.2683441515   14.5826161283
   4.3552002468   18.7707998604    8.6359801722
   7.2566126481   14.7351137470    3.4703884469
  -0.7652543802    5.0134863978    7.7173811721
   0.9508754205    7.6583380088    7.4995391892
   6.6088460812   15.5048584173    1.0273354704
   6.3323784723    2.2535431106   10.8055780361
   1.4076813179   14.5989779071    1.4041851424
  13.4605692642   17.6056930764   17.3680313308
  14.3343441399   16.4923763518   16.4914890397
   4.6829531969   15.1930170326   18.3116832076
  14.9974138216   15.4951112424   12.5848779965
   8.7773752315   13.7983193395    3.2595432838
   4.5986388183    2.4314798991   10.4796674290
   3.2081666491   18.3163209924   11.0163861332
   5.5138824111   11.9603263721   17.2019133934
  -1.5722069193   14.4518070374   12.1447054763
  14.1874674684    1.1751190943    3.1816660054
  14.9426410938    1.9664291490    4.5208322495
   5.0512239044   16.9792711934    3.8512032443
   6.8411484058    0.4515671386    7.0113851881
   7.2895419383    0.4695687212    1.3405059929
   1.5903535613   15.0924706043    3.1190166482
   6.0934728502    1.5276412968    3.9324983786
   2.9305485311    1.3205544672    1.7402079793
  -1.9439744716   17.9594234097   11.5833345266
   1.9591149737   12.5019567251    3.1832958731
   2.1240277477   12.1904958690    1.6245017945
   7.1540886823   12.9576779710    3.5702823493
  12.6229961442   14.6039771354   17.7317342990
   4.9222235623    1.6247496923   11.8850617813
  13.6168637887   15.5696436306   18.7666145871
   6.6209776041   13.4189579255   16.7553403052
  12.0666521790   14.5891638167    7.7865392199
  13.6124410185   16.5516040386   10.9472045493
   5.5844835035   14.1255166343    1.6411589899
   2.8309006703   15.8839518614   11.6270475673
   5.9266579377   18.4264634005    4.4139390674
   4.0629137685   14.5696543692   11.8095923163
  13.3713279085   15.2337596248    8.8863888390
   3.9500666193    2.8073403840    2.2216528805
  -1.4310322952   16.1945814054   13.0030387770
   6.4131220382   15.1254025511   18.4743619068
   3.5474587707   11.9895101867    2.7773797575
   6.7788880590    0.7968790646    5.2241327834
   5.3324720457    0.6064359750    6.1601424202
   4.6843281588   13.5920997101   16.7535477068
   7.2902463749    3.9614300315   17.1131990855
  11.8659938196   18.9353083230   12.6123217428
   3.5747584015   14.7687309310   15.4952400917
   4.8374329858   14.7269526862   14.2734767490
   9.8324805171   14.3682364245    9.1949809570
   4.4813828843   16.1365290724   12.2371408920
   6.3067307389   17.5811051101    2.8798286005
   8.1407858584    0.8703335046    2.8320976683
  -1.6617154173   17.7024474164    9.9628126949
  14.2168097462   18.0667596970    4.2965203174
   6.4850526985    2.4370131807    2.5493295470
  12.8521153125   18.2517162364    3.1856180136
  12.6578813644   17.5222125811    4.8411349262
   3.5300491253    1.5939329484    3.4190458414
  11.6799886311   16.1064636125    8.6827287671
  13.8580807759   17.7818885310    9.6547166231
   9.5209636939   14.2722476163   12.1343430436
   1.4476197669   18.5520831908    9.1968527026
   2.8088351590   12.2627937649   11.2014624380
  11.9732343595   12.4235462940    3.5331660568
  13.6125574096   12.4069225278    3.2459190780
  11.4437091462   18.4340130283   11.0085250325
  12.0282186847   16.9623891323    0.5572192130
  12.1367399714   15.2230377829    1.1398903078
   1.4554756700   13.3614170936   11.5328727041
  12.0389929247   17.2592649505   12.1406844314
   1.1958843969   11.8354311358   10.4704964671
  12.7920417090   13.6348266689    2.5145435034
   4.1633697758    2.8925758411    6.0556888867
  10.0428645039   15.8763579933   10.0630435767
  -1.6792137965   13.6839097269    7.6792066415
  10.0816829994   11.0546276071    9.7215985171
   4.9013204819    3.1437373401    7.7380275910
  13.6286876280   16.3226179478    0.6111314552
   5.8931685630    4.9486546146    5.5866889495
   5.9910676484    5.0765003098    7.3474401646
  14.7973411043   11.7292462036    7.5825201518
   4.8398051877   19.5282664419   13.3614238486
   0.6077969052   19.5887123653    8.0544541427
   1.8820271958   18.3952342665    7.4373188979
   8.4193826948   14.3418638552   10.7887325905
   4.6012266183   16.8574716108   16.0270492424
   2.9434906814   16.9364054431   15.1967327120
  -0.2054020428   12.8426770168    8.0475295523
  -0.5722043316   11.0620287084    7.5647387941
  10.6694649917    1.9992390747   14.3261590647
  14.0788942294   15.4563019668    3.5268809565
   5.7070336863   19.1132027451   15.0930545827
   9.0737401974   12.4612503036    9.1884233465
  15.3296368602   11.0834345019    5.7427533794
   3.8779048966   19.3445972542   14.8324042567
  -0.8733818537   18.8108862983    6.2703928793
  -2.0405546060   17.3698500551    6.1365668932
   8.4653628009   11.2983714160   10.2423887166
   3.7008605861   12.5137780111    9.0049700422
  -0.7782270145   14.1528000177    9.2082324195
  14.1176268321   15.5141901865    5.1391206989
   4.0872021807   13.8871942585    9.8222906888
   0.9842336359   17.2007747720    6.1228854874
  10.8354216197    2.3226725801   18.9545881634
  14.7177921125   10.8217429260    9.0562487859
  -0.0459960897   16.0494968229    6.7497601873
  14.9791951416    9.2953090320    5.2061717187
   3.4112223288    5.7457432346    4.7313945458
   7.7159301059    8.5879808587    4.7453436388
   4.9284748234    6.6920883289    5.0269710455
  -1.1244595892    9.8467446688    8.8391350519
  15.4862114684   13.5210547072    5.5493209976
   1.1487096837    7.3561155963    3.6160540221
  -1.3396323636   10.1162834401    4.8988566816
  -0.0485604478   18.2387301118    2.6596431176
   1.2474414979   17.8204794846    3.7196803911
   3.2242163118   15.2317698928    7.6312753438
   0.8410486920    7.7829047654    2.0211916405
  -1.7495788483   14.9373192802    4.5538275137
   4.5980319016   14.0744569737    7.3789036740
  11.5101425059    5.6424555303    4.1828266249
   7.1880021656    7.0282748676   17.1417027064
   3.5179591787    7.3248565855    5.7307858097
   0.8876179440    9.0674708723    3.1721130934
   6.9986329050    7.3609333108    3.5064625008
   7.9150101848   16.1983776928   17.4708047692
  10.8772216919    4.3596392671    3.0981638160
   7.3009830698    6.9421781870    5.2174673972
   0.7246555874    4.2081222951   11.7835688727
   7.9916526481   18.0204447658   11.1464645633
  11.2821908001    8.9828547826    4.3787963371
   8.5876766181   15.4061621203   16.3268202499
  13.6165043915    6.1047208386    7.2771273792
  12.2764832764    7.6958933549    3.3693006713
   9.1872546216   19.4441001361   11.3336042666
   0.3901729964   19.2830954943    4.0183301324
  13.9013917270   10.5620669790    2.0773182711
  13.1852543767    6.0659039205    1.8898579928
   8.5827653721    5.3848849209    2.9636193816
  -0.2258945008   12.2733476988    4.0837863586
  12.5741835916    9.6777729485    1.8421313768
  12.1615109600    4.8198876882    0.9841740965
   9.6694046983   15.8110190305   17.6700260161
   9.0862001223    5.0486444863    4.5933773448
   9.7296992187   17.9047822391   10.5682895195
   2.6179902630   15.1925401830    5.4664186187
  -0.0655568145   13.9711451224    3.5379767249
   9.3611126582    9.3259024737   10.8640996848
  14.9653709214    7.3797102895    6.6747514160
  -0.4625857122   12.8071148421    2.2764632822
  15.2688280325    7.7382006613    3.8066131670
   3.9228830021   14.1056588783    5.1427897041
  14.8124607287    5.6157738907    6.1214108160
   8.0331094993   18.8051842507   13.4036784012
  16.6350734827    6.4645956353    3.9687118172
  11.6327143456    7.6655900041    5.9283025835
  14.0013793077    8.6244049774    1.8430408457
   2.0661144994   13.7176854685    4.7837012667
  12.9831601490    8.7701738699    6.1803483139
  12.0398371775    6.4447939812    0.4061257545
   8.9111014243   12.7336068704   16.9185283397
  -0.9883654120    7.7608910386   14.0577254388
   9.1400010296   11.0887875499   18.5957467678
   8.2092198739   17.0849960932   14.1635101812
  10.1756185932   13.3459925487   18.1455555329
  14.8194169785    6.3096994983    1.9546281270
  10.6301532824   18.1934240141   14.7470779389
  16.0897562227    7.1220169125    1.0506617008
   7.5819844453   12.0186322083   19.1430366706
   1.9535307006    9.5467677146   16.7325821748
   0.8605177626   14.0441551816   16.1309491495
  10.3761829152   17.4528521796    5.5781379359
  11.0548815568    0.8443849902    5.9030098953
   5.2090026082   10.6425516000    8.5369501890
   4.5349887641   11.1714344848    4.5740172528
  11.2415628892    1.1208080622    7.5750445741
  -1.0887748823    9.5756040743    0.9441766199
  15.6249271979   10.8145275561   18.7023992406
  14.4397843819    4.6859055092   12.1264758478
  16.0701600765   13.1604544693    0.7879492817
  14.6666637630   12.8742942006   18.9343533952
  -2.0119454884   19.7517917312   11.7965688020
   3.0780659868    1.3556050234   12.7550919045
   0.1660962865   17.4754119617   13.1941272378
  -0.1641839754    0.7920621958    9.8137206721
   9.2932117784   18.4417512496   15.8519190465
   4.7802558222   11.5699240744    7.0158010635
  15.6939359234   12.8465293049   14.4936666635
   9.1773924133   17.9207483880    3.6177680037
   2.5727377734    9.8646290840    8.7771180347
   2.8148415221    9.1968820521   15.4740452156
   7.8844977071   18.4407782587    5.1862129601
   0.9304491146    7.3993143691    0.0923023584
   1.7862288982   13.4264027345   14.6673819587
  10.2153377666   11.0255075681    2.7710893469
   2.5699771845   11.1301813859    7.5858586527
  11.7449871133   19.9566800575   14.0962127270
   5.4838692699   10.0155553751    3.4138585914
   2.0157337846   12.2308117353   17.1833411551
   1.7952790242   17.7969016842   12.7062872576
   1.3326835761    1.2226415116    8.7956562876
   9.5932168516   16.0936450458    6.4541208944
  -1.6772323081   12.8028766953   16.2964015821
  16.0472567468    3.9759314810    0.4330549615
   3.4936275274   10.4493336701   16.7451281788
  15.3422856286   11.5923206714    1.1653070123
  12.5757217359    0.4541257326    6.5698756588
   4.6409771866    9.4498873090    5.0353511571
  10.1868910890    9.7207066692    1.7187895144
  15.8482839906    6.1657973116   19.2041871994
   7.0075764635    9.9236214135    7.1920574661
  13.3066053185    2.0963071830   14.2255439933
   0.1778431681    7.6438393974   17.7151628377
  10.6723865442   16.9899856627    3.5880728773
  -1.3630733812    8.0270192887   18.3953841582
  -0.0826065090   19.5278693180   13.7130026386
   0.5873873840    1.8944264925   12.7142574254
   0.7866436947   17.1592461812   11.4758752020
   0.2646591678    2.4471581796    9.5091414151
   1.4076537910    9.7354276140    0.6380229482
  -0.4423515592    3.8587503728    0.6261348692
   0.0532197120   11.6200739099   18.8102180654
   0.5801645235   11.5231764809   16.5911183711
  13.5821587139    1.3249322150   15.8147100960
   9.1880160947   16.4971330517    2.5102047482
   1.8914276713    9.3870479403    7.1977772055
   7.4000611368   17.3464181707    6.4683816748
   5.7262121622    8.7789956157    6.7070192028
   8.7312177637   10.6211156519    1.8637502759
  -1.5821665278   14.3727567171   15.4046221829
   5.0985671054    8.7105803317    1.3521251361
   8.6320396613   13.9493836677    7.1022765149
  12.8370590047   12.7710946125   13.9516396783
   3.4479426556    1.7178379464   16.8328423092
   1.3374478107    3.1309643173   18.6767072003
   0.6178049695    5.9059900711    6.2503108660
   4.5874375223    4.9923316112    0.8100001464
   0.2268571280    3.3775316557    4.9437642190
  11.0253510584   11.4726833978    5.8439907039
   5.4589930425   17.4796773304   10.0080511534
  16.6199673615    0.8242439315    1.9919695399
  11.4215240947   11.8067375076   16.3463174404
   3.3581268962   16.1444449162    0.4596991882
  12.1567373746   16.8396221850   16.0688493084
   5.4153430404    0.6042799336   10.0522691973
   3.1273344718   13.9457776415    2.3785608452
   7.5810332860   13.6038443869    1.5504786144
  12.8931774574   19.5779762775    4.7173313448
   5.5618154701   13.2883881898   18.6229399072
  -1.9788231988   15.9172566746   10.9468811381
   4.4975053012   18.6368639337    2.9254106174
   4.8991879313    0.9463785136    2.1968298153
  11.5463835381   16.0139099333   18.6578726055
   6.3264504950    2.4506339420    6.2710055616
  13.5065035349   18.5755571098   11.4571642320
  11.7930707797   14.6436599463   10.0059772613
   3.0599869628   15.1979187181   13.5763202155
   4.8022840518   17.5041079751   14.0965187239
   9.5138167999    3.1719042830   15.4962410297
   8.9978277489    3.1256759497   17.9048018516
   0.0001547259   17.6303915423    7.9478531748
   9.7532002198   12.6573597714   11.0967771244
  12.9718065186   13.9437020889    4.5996026781
   2.0098690418   13.4908513964    9.5710932075
  -1.9479686440   12.3899064232    9.1596426280
  16.0798578646    9.4685979454    6.9553966139
  11.1684967151    2.4110182287   17.0007258026
   4.1016325026    5.5069353401    6.5537089404
  -0.8314130129   17.6898462450    4.4875735301
   9.1078987792    7.0928632302    3.9717813663
   7.7045158494    6.4769331418   15.2647920197
  15.9468085503   13.2769011889    3.4199916093
   2.5358800618   13.5376041886    6.6999512059
   9.0754913372    7.4191637134   11.5796253094
  13.3976407093    6.7812739503    5.4184697167
  -0.7756228549    8.2270135004    3.1677921171
   0.1376789301    6.1571061558   12.1369263690
   8.2656173503   14.3239529557   18.1955821913
  11.0812791232    6.1989819511    2.0830021052
  13.4049117089    9.4459883502    3.6987709859
   9.4126563063   17.6535501647   12.5491519085
  16.3278643950    4.8615920284   11.2835884670
  15.8257206190    6.8990790372   12.5945161208
  16.9481971943    5.4791941180    1.8890700414
   2.0563447882   11.0318701329   15.3763503614
   9.7070675527   20.0292139041   14.5284600345
   6.3243312649   10.3434146811    5.3361714337
   8.5372860751   18.7157994562    7.2197859600
  10.3555842993   11.6274959574    0.8662979653
   0.0658649894    9.7012167526   18.1371684674
   0.3063755723   19.0426746987   11.7523615115
   1.6003082831    1.5621352166   10.7866628847
  -0.6470774704   11.6390954098    0.5283631953
   9.0727777198   16.1855388594    4.5472205034
  -0.2431909936   12.9435486099   14.7283401591
   3.8954567044    9.6081341522    7.2503238242
