B2 C140 Ca1 F48 H298 O66 
1.0
1.7940532339265502e+01 -9.8098161992034003e-17 1.3472861225861820e-17 
-2.2199673980658341e+00 1.9415797835864431e+01 1.1367692916751192e-16 
-6.5080641412668938e-01 4.9703118442065564e-01 1.9643763933314872e+01 
B C Ca F H O 
2 140 1 48 298 66 
Cartesian
  10.2630152760    2.7723110429   17.0080575935
  -0.9494134941    5.8881004542   12.1475113925
   0.2229239796    0.7054350158    1.6271075408
   7.5100415924   13.9600101383    6.8263358244
   5.3260379345    6.3175426592    1.2644088022
  12.6830864326   12.6527956424   12.7057911613
   4.0003201356    2.1621428829   16.0373747214
   1.9726939199    1.3720031572   18.8927096471
   1.5742583312    2.6091462634    5.3652064885
   2.5485578727    0.9347426626   17.5157108446
  -0.5302152137    3.4290870445    6.2419273422
   3.7328145446    5.6701122760   19.0407336500
   2.3007272781   15.6302268859   18.9463527540
   0.5425237580    3.2154389592   18.3687113152
  12.2456348032   15.4292357640   15.5154197394
   4.4959288727    9.7304199013    0.7669506136
   6.4414326742   16.7083657756    8.9119036894
  13.3304360227   11.7829320173   16.2604946324
   9.6316486221   11.6371192244    6.2739886055
   9.7228932739   13.1998000618    6.1880493700
  13.3438082325   11.5711550619   14.6998567601
   4.4358343244    7.5704194232    1.5691929743
  11.2274476692   10.6510501323   16.8257870210
  11.8794953414   11.0395465537    7.0533792633
   0.0466462866    4.6575842401    6.9705479598
   0.1992529428    6.9144171006    6.8411138077
   5.2267986474   18.6553993429    9.6647890446
   2.6479812973   15.9909751065    1.5532541855
  16.4260502371    1.5503201741    3.1158913047
   4.0554725761   18.9635833998   10.5994362717
   2.2451085237   14.7901007397    2.1476927037
  13.5217114868   16.3610515675   17.3114220018
   5.3177220775    1.7287528369   11.1078714236
   7.9483785777   13.1753533036    2.9420511434
  15.1425239504    1.0613065787    3.8741348162
   6.6190244523   14.1527348710    1.2111667705
   5.7960626453   14.5126676191   19.3763495951
  -1.6105797618   15.2807819334   12.3883150158
   3.1323576073   12.6131170608    2.6362808895
  13.1615485924   15.4673033844   18.5709872387
   5.9894089937   12.7329715693   17.7292515761
   5.6976447214   17.8435613278    3.7897800992
   7.1291132935    0.2805703951    2.5849459265
   6.0162527600    1.2573778211    2.7752595544
   4.0006027738    1.9558778530    2.4118244867
  -1.9976943429   17.1381924940   11.1325652920
   5.9458108129    1.0981426448    6.4696292306
  12.6921762050   14.9539603232    9.0686417002
  14.4245530643   17.1731008217   10.7026737817
   3.6801471202   15.3753470375   12.4214150735
  13.0261225770   18.0805558396    4.3214251181
   7.1433456683    2.2668048278   18.3716539233
   8.0688239863    4.4011058192   19.4317930564
   8.1401618222    3.4188396672   18.1826023959
   4.4026643911   15.1475058490   14.7047429350
  12.6466351963   17.9195364467   12.1172491503
  10.4854037713   14.5808351331   10.0982099697
   9.4190180558    2.5758698441   13.3225477285
  12.7909956462   16.2424803900    0.6517746221
  13.2097879124   12.7784684351    3.6510913039
  10.1000995766   13.8741545668   11.3539905811
   5.0758957297    3.1206291833    6.5910899508
   2.1466895620   12.4664012939   10.9513182864
   4.8768845456   16.4491678859   15.3119209377
   1.4568359596   18.5423616955    8.4460969957
  10.4233424635    2.6646191260   14.4471448572
  11.5078692945    3.7829300012   14.2020005759
   5.3216761881    4.6197221622    6.4919621848
   5.3390413982   18.5414795678   14.2551278129
   9.7446989743   11.7873045964   10.1330028232
  -0.9474907132   13.3664082092    8.2752210097
  15.7677800881   11.2133583027    8.4337919237
   0.3770883113   17.1459342060    6.7158661441
  -1.1191837872   10.2423378574    7.9196565027
   5.5015494914    6.6100017928   15.7030446918
  14.5103139323   14.7565715491    4.3377097384
  -0.7589054745   17.7756702575    5.8069441857
   3.8048081085   12.8909176908    9.3390037678
  16.3652634505   10.2488708495    5.5700270144
   3.9252772233    6.2850581049    5.5398726604
  11.9197195716    1.9874146663   18.5584250788
   2.1600146885    4.7866172842   13.4590426290
   9.9815749725   19.8385160477   18.7873470284
  15.8833337571   14.2563860261    4.6743159378
   6.9125321891    7.1041430521   16.0215749799
   3.8824609106   13.6762086327    7.9805229635
   8.0488741380    7.4456493464    4.5648544828
   0.5144881033   18.1413018634    3.8931916641
   7.2056009715    8.6117270657   15.8969657689
  10.2227943224    7.4979046981    9.7264330035
   0.8488804951    7.6785593591    2.8679319806
  13.1294861939    2.8135369912   18.8992015064
   2.0849670247    5.4913973020   10.8052885040
   1.3572364295    5.1330762135   12.1203890766
  10.7078566529    5.3333342265    3.2513413546
   9.3227786165    5.8146545375    3.7694946722
   9.0266011770   15.1950680817   17.6288681479
   9.2083225919    8.0310676798   10.8327738359
  12.5206114872    8.3610285241    4.2006694404
   9.0750533819   18.6114415183   11.7668581617
  -0.3517868925   12.9750270426    3.4074298457
  14.1520210134    6.1427656922    6.6346723371
   7.7083470983    8.4723786038   10.4449491099
  13.4346344069    9.4257333957    2.2881094114
  12.2765563058    5.4088262227    1.6467070198
   2.7503805764   14.0545926356    5.8265643750
  12.8482030218    7.8551527023    5.5782574027
  16.4939786946    7.2052618962    3.3010820416
   9.0832603061   17.6468562731   13.9373383175
   9.4110336875   13.0583823781   18.3359431138
  15.2512711675    7.8400828705   14.6249445395
  16.3422245866    7.7155333368   13.5359505704
  16.2073627575    6.3199214813    2.0565762643
  15.1113462158    2.9399487169   11.3354049473
   8.8476210889   11.9440152367   19.3641770071
  15.2369923655    4.4834706547   11.3074791447
   9.9885483839   18.4144330882   14.8668569404
  14.6303232311    5.1493248493   10.0584705249
  16.4835761189    9.1388717381   12.6724678334
  11.7503569596    0.4123696967    6.9357204786
   3.0922878359    9.7046355565   16.1056902737
  -0.5009719713   10.2398783347    0.2364051328
   1.3787871761   13.0743696698   15.7952633092
  16.0090920643   12.2147945639    0.4492242900
   4.9806145441   10.2164585802    7.3641222480
   5.5189900028    9.9382434320    4.3549854596
   9.7142916003   16.5522918117    5.7726822584
   8.6643837708   17.6132390704    6.3449440966
   1.9795324578   11.7998775154   16.5118303340
   2.5625433709    0.3607949474   12.5497439632
   1.2928286874    1.0255921254   11.9949665836
   1.3954332531   17.6885149536   12.6461346718
   0.5803309999    1.3980150101    9.6188247789
   9.9555634285   10.3185528382    1.7580956418
   2.6216942048    9.9990687023    7.4043385899
   6.3018391965    9.7755643329    6.6088975670
  13.6468124152    0.9707853463   15.0865425916
   0.1282804579    8.2090532675   18.6726629568
  16.4511955488    4.4117516179    0.6256348628
  -1.0021244203   12.9967562407   15.7085279490
   0.2985510939   10.3745121224   19.5633887507
   9.6474001211   16.6414382557    3.3221878920
   8.8548026178    6.1744877710   13.6325461875
   6.7581059510    1.7585391252   17.1503110786
   8.9830502910    5.4751469344   19.2525378704
   9.0574126524    3.8362409987   12.8140741992
   7.7084514400    1.3520013066   19.1641941189
   8.8709721477    3.3001060263    1.0053689472
   5.9748157843    2.5390536958   19.0656433217
   6.8350129949    4.9175461482   19.4231786035
   8.3053731670    2.0069019805   13.7099040168
  11.9986729861    3.7592324589   12.8783774665
   9.8470380198    1.8048549445   12.2681624048
  12.5611579620    3.8348754426   15.0563043594
   4.5227108913    7.2663104327   16.3941315334
   5.5415632442    5.2884661650   16.2288643038
  10.8545456513    5.0711033138   14.3509883695
   5.2227445132    6.3978844284   14.3713125089
   2.8630699076    3.6599445707   13.1853300196
   8.8224055125   19.2036768585   18.4643351765
   2.9824373288    5.7930578960   13.8813595812
  11.5118893789    7.6110383862   10.0378444062
   1.2928654593    5.2706571853    9.7950222885
   7.5582132806    8.8422927650   14.5771437444
   8.3450067523    8.9186376352   16.6642991122
   1.3740747760    4.6340187466   14.5695781331
  10.1268237336    8.2970152544    8.5751754338
  10.8564462701   18.9988260268    0.4285028377
  14.2305578639    2.4998011799   18.2099420336
  10.9121538771   19.4081156121   17.9259038544
   3.1609611056    4.7160657906   10.6251099618
  10.0515741139    6.1490130236    9.2771057679
   7.1786501044    9.0515753580   11.5350889966
  14.0478727592    2.1184103597    0.6459647857
  12.8917882294    4.1318577755   18.8090075151
   6.2797445812    9.5637786355   16.1579166816
   2.4721943308    6.7892243662   10.6497219489
   6.8848649597    7.4441974431   10.0263198938
  15.5753019774    8.8759196246   15.3947522873
   7.5952889939    9.4278240441    9.4644619166
  13.7839834291    2.5792698503   11.0609869321
  13.9859114505    8.1322112203   14.1990643442
  15.1985361056    4.5065089135    9.0044452292
  15.7862332849    2.3623260130   10.3690186955
  14.9230899729    6.4551805971   10.0199657831
  15.3950850221    6.7264228877   15.3976892325
  -0.7638623272    8.8683711474   11.4988784954
  15.3354260655    2.5084718353   12.5747056690
  -0.7277820633   10.0257971799   13.4529584762
  13.2354864987    5.0988678747   10.1644366031
  15.2780861717    9.7336338900   12.4174770558
   0.9824235223    0.8428373318   19.0749256146
  13.6949255200   12.7806847125   16.5153075024
   1.9792266516    2.4388155276    4.2271100091
   5.7531829187    6.0320285510    2.1928916191
   5.6917100551   16.1644773230    8.4143845225
   9.3732058805   11.5290029344    7.3466577705
   6.0007508507    6.6401610412    0.5165981144
   4.5141839964    3.1283860393   16.0996115900
  16.4941791513    3.6002850354    5.6973229230
   0.5400045816    1.7196623964    1.4479980613
   1.2230365559   15.4709313933   19.1947619771
   0.3164600331    0.0871433210    0.6745477136
   7.0123409052   14.2787467216    7.6906734014
   0.1661011400    2.3346888299   17.8839560409
   0.8673979192    0.2396744357    2.3881356791
  11.6875198819   12.1760348623   12.8819817742
   0.4124170554   19.2240395854   17.5964424825
   7.4818648040   14.8126421444    6.0699819973
  13.1127293428   15.3145774871   14.7749780787
   5.0605281028   10.4080037411    0.1412373051
  13.1869896763   12.1650332710   11.8242269697
   3.6524679008    4.5896407296   18.7458327548
   2.7379550370    6.0997853682   18.7571938179
  11.7914689064   10.2010642748   17.7078582892
  12.0064874239   10.1560179860    7.6800826082
   1.6492981181    1.6187554490    5.8449340895
  -0.4935914711    2.5779180991    6.9245297909
  10.7870382664   13.4233186270    6.4344976123
   3.2106513551    2.3540472297   15.3541210433
   6.0483163209   19.3343127113    9.7693502784
  12.2288716775   14.3364230924   16.0539988330
  12.5939899952   10.9164420811   14.3827926992
   2.8231751279   14.6618152208   18.9030007560
   2.4551132196   16.2252219816   18.0829222747
  11.3391615238   15.5188066374   15.0055270946
   7.0203052088   17.4261704872    8.2854754360
   0.8380816184    3.9584550106   17.6773811986
   3.2277836680   16.7329645462    2.2192968995
  -0.8803971753    7.0722667982    7.0483949618
  13.9897078736   11.0893740254   16.8743336607
   2.2012492415    3.3210242976    5.7750601308
   7.1824884579   16.1501436902    9.4606420806
   8.6661861284   11.3025745595    5.7870049584
   4.0312716582   10.2635899863    1.6681530367
   7.1955003491   13.0375674516    6.5853844964
   3.6647785123    9.3763368765    0.1229806292
   4.4869462209    6.2729986186   18.6208611835
  12.4385229441   13.6102380782   12.2284470531
   2.8975562612    0.9925252238   19.5893019476
   4.6375232851    1.4291575648   15.6252696750
  -0.1289369607    3.6981531369   19.0295151198
   1.8049198222    0.9346719499   16.7164333610
  17.1853595667    1.7996080568    3.8895049833
  16.1857778275    2.5250595612    2.6803282236
  11.2852574971   10.0182518738   15.9490271035
   4.2035125731    7.7098683713    2.6578321278
   3.5437547876    7.5786925384    1.0119108930
   0.3650738127    7.7435127245    6.0723558719
   0.9215703702    4.4622871688    7.6254949369
   1.7912740448   16.5005073564    1.0527903206
  12.8408122604   11.3988156204    6.6778221465
   4.5052410167   19.0004566665   11.5517986421
  11.5370516201   11.9578650237    7.7557679722
  10.1919681714   10.8349818239   17.0641579160
   9.5075664725   13.5399581880    5.1820794333
  14.2087825215   10.9725806092   14.5303038602
   4.7860168968   18.7042923810    8.6743629214
   7.9375894197   14.1508654286    3.5201144174
  -0.8007759020    5.0339408077    7.6543358390
   0.9007405441    7.0721564659    7.7931126617
   6.7716360310   15.2271327322    1.4895789925
   6.1751787263    2.3709603270   11.3448951818
   1.5651452232   14.1657923933    1.4611817212
  13.7071131734   17.4469674484   17.7223434421
  14.3530956161   15.8810474084   16.7500497063
   4.8758121756   14.7948081969   18.9362632626
  15.3147501399   15.5225443725   12.7950330490
   8.9680303486   12.7268016803    3.0685025770
   4.4379602315    2.3472892069   10.7498723867
   3.3276151774   18.0332944019   10.5931454746
   6.0919963817   11.6371473499   17.5790598014
  -1.5416882790   14.1780644644   12.3881623147
  14.4352871096    0.6582934393    3.1971949342
  14.7724363869    2.0099338305    4.4673274943
   5.3714200865   16.8295148286    4.0634744023
   5.8572684834    0.9060595233    7.5529443287
   5.0728034344   19.4447439902    1.5328098917
   1.5327091927   15.0086894119    3.0617883407
   5.9009742019    1.6649413551    3.8110591693
   2.9613908358    1.7308103003    2.1941957384
  -1.8853232248   17.6430387502   12.2552765804
   2.6158044474   12.3294783987    3.5702130263
   2.6216870432   12.2154936361    1.9077966994
   7.1868390596   12.4947465323    3.2584033589
  12.9947383245   14.4250223505   18.1764723418
   5.1644606095    1.3691454668   12.0853874586
  13.9327979188   15.4019564701   19.3898394646
   6.8413678146   13.1926210216   17.2772105062
  12.3562326749   14.6940497443    7.9943297460
  13.8758362060   16.2730022890   10.9308731013
   5.5711061475   13.8224455416    1.7236434363
   2.6771006343   15.0427949530   11.9629917441
   5.9596305782   18.3823955071    4.7530262819
   4.4401939444   14.6177307240   12.1469584871
  13.7584558000   14.5945177669    9.2785763364
   4.2859456504    2.7775544466    1.7505537614
  -0.8153775614   15.6052631720   12.9896764220
   6.7001862136   14.9493453139   18.9491075188
   4.1606370320   12.2873988889    2.6316789229
   6.8410458387    0.5378432812    5.9801327653
   5.0179664878    0.6991598312    5.9386516454
   5.0489713094   12.9839014249   17.0704162018
   7.6708540678    4.0141576373   17.3931126075
  12.3757242360   18.4267110345   13.0000160760
   4.0311343364   14.4617748514   15.4943753670
   5.3074896647   14.7808544071   14.1942001856
  10.0864899501   14.3855147249    9.1894243763
   3.9387679002   16.4704806993   12.0737488711
   6.5826003174   17.8823551151    3.0845909498
   8.0142831312    0.8088131917    3.0563815161
  -1.3517668187   17.6635344326   10.3473744129
  13.8935320413   17.7106577399    3.7368016328
   6.3610263702    2.0996496975    2.1430306339
  12.2599458432   18.2942941547    3.4517253026
  12.3707239244   17.3896500095    4.9326069864
   4.0443593467    2.4042160678    3.4041899454
  12.9021786390   16.0492976911    9.1741742774
  14.3306974979   17.4405323650    9.6096977934
  10.6677408300   14.3779948712   12.2690673264
   1.4930157172   18.6283817595    9.6007920205
   2.8027967949   12.5284778148   11.9016018689
  12.5137950028   12.0104354786    4.0731451071
  14.2055264352   12.2888973305    3.3494566667
  11.9160069506   17.9583966439   11.3172975438
  11.7686876241   16.4950627129    0.8423445270
  13.1748001897   15.7161602906    1.6493003550
   1.0863253868   12.7447174255   11.1875375243
  12.7747033224   16.8381928477   12.3024558100
   2.1624676837   11.4753789621   10.5483141713
  12.7404483556   13.2043317707    2.7441323857
   4.1574678687    2.9079149565    5.9275200829
  10.3883257824   15.7070573608   10.3225700066
  -1.6811559345   13.7950319144    7.5095552960
  10.3748238778   10.9566727433    9.9808776130
   4.6735375545    2.9545406739    7.6318531392
  13.4716730284   17.0787193710    0.6558193430
   5.9703244030    4.9327990344    5.6215235090
   5.9396301005    4.9857510616    7.3375579803
  15.0867102370   11.5076732039    7.6534398250
   5.6743330482   18.8438618861   13.2748615621
   1.5438932411   19.4617686063    7.9005924935
   2.5476425945   18.2312111043    8.2773640823
   8.9676115041   14.0466105077   11.3915561837
   5.5023670622   16.1690880158   16.2243577574
   4.0876359585   16.9474565837   15.8799515302
  -0.0888615146   12.7780983191    7.7928170987
  -0.1842833493   10.7188197703    7.5445822012
  11.1118201238    1.7723694108   14.6153068784
  14.4581254420   14.8508863467    3.2576606581
   5.9313679415   19.0702536040   14.9655437498
   9.6339216269   12.4062630481    9.1968761076
  15.8258327341   11.2222291171    5.5076000061
   4.3059876174   18.9435130797   14.4750593266
  -0.7151812364   18.9155091944    5.8756557099
  -1.7990633809   17.5191285734    6.1279171889
   8.6434065080   11.4519492852   10.3507550268
   3.6408129104   11.8633944407    9.0203748261
  -0.5281030577   14.2579792402    8.8097181088
  14.3163759949   15.6507712968    5.0234695365
   4.7046529177   13.0149886410   10.0085546226
   1.3010597001   17.2971008287    6.1407105072
  11.2129659182    2.0881688108   19.3813773945
  15.1608736714   10.6242511020    9.1063987722
   0.2014942060   16.0268245260    6.7541683286
  15.9077036988    9.7220766979    4.7234438695
   3.0547201403    5.9991011207    4.7792948113
   7.9841392595    8.4985656553    4.7354116360
   4.8864989236    6.3502633319    4.9936282885
  -0.9171471983    9.4918922606    8.7189893773
  15.8542572120   13.6665340937    5.5778391403
   1.0060156364    7.1344217098    3.7856557565
  -0.4394679149   10.4813909848    5.4384797878
   0.6196648698   17.8378861270    2.8119753655
   1.4887624728   17.9254643633    4.2787127674
   4.1837622658   14.7610596492    8.1867501678
   0.8989945512    6.8781910566    2.0467717864
  -1.3469243877   15.0860174176    4.8535275897
   4.7617533881   13.2725012074    7.3761904320
  11.3911294596    5.7676643473    3.9260243261
   6.9815109273    6.8867158391   17.0618276274
   3.5986613550    7.2571811531    6.0418611990
   1.5161716311    8.5206938900    2.6659757888
   7.2395795522    7.1591603435    3.8076709206
   8.4587177657   16.0770235762   18.0647824476
  10.7377736462    4.2025757698    3.2574728696
   7.8844905092    6.7929569793    5.4615815192
   0.8645143568    4.2037096934   11.9065382169
   7.9562889753   18.6800969575   11.6325029564
  11.8282092652    9.1603567606    4.3474899273
   8.6305099165   14.6759167997   16.7006656717
  13.4984076233    5.5529457070    7.2035310947
  12.1916053091    7.5073971074    3.5881172613
   9.3767655038   19.5087368292   12.2884040523
   0.2766732002   19.1868325863    3.8935986334
  14.4301968531    9.9332649895    2.1615438316
  13.0412381508    5.8705212640    2.3402793665
   8.5887764745    5.6837454824    3.0157432903
   0.0036812573   12.3053427103    4.2044378783
  12.5939278817   10.1320239540    2.0103943900
  12.3773213724    4.3337402900    1.8247054515
  10.0342634562   15.5449802713   17.3424890722
   9.1863812208    5.1933839203    4.6618799817
   9.4599150251   18.3414466843   10.8140564495
   2.1843614261   15.0564654356    5.8066532840
   0.1099390883   13.9942317571    3.4834339266
   9.6240958052    9.0843041509   10.9357698936
  14.5055038537    6.9337447229    7.3949768219
  -0.1795569606   12.4802555679    2.4563836059
  15.7079797027    7.7219260917    3.8363572389
   3.7622512671   14.2351998782    5.5526655115
  15.1406616929    5.6729842866    6.2355178341
   8.0283895413   17.9912861550   14.1235246047
  16.7779335182    6.4333652340    4.0842448045
  11.8629269327    7.7464703207    6.1209916024
  13.3631138958    8.5709087347    1.6523104337
   2.3456593784   13.3507315393    5.1532369257
  13.4652583379    8.5825166553    6.0723137414
  12.6480905303    5.7450125089    0.6661055945
   9.2953375683   12.7853886096   17.3186619568
  -0.6425265388    7.5581138584   14.1140780137
   8.7108387671   11.0275396020   18.6497981171
   9.0300753804   16.5574027933   14.3449832444
  10.4520820184   13.1829767045   18.4614827277
  15.1893009865    5.7216978738    2.2967483841
  10.9829920930   17.9749469322   14.6064790831
  16.1112045434    6.9446326038    1.0797827476
   8.5229767329   11.8272655990    0.1559936505
   2.3321122607    9.0221522096   16.5475439866
   1.1303545087   13.7472434438   16.6191743081
  10.8306671357   16.9464038561    5.8053512545
  11.2718923213    0.7160776145    6.0288376942
   5.0346641219   10.2868562558    8.4567999147
   5.2096426063   10.8992061883    3.7392978481
  11.5672905347    1.2840797944    7.6124008077
  16.7840350542    9.5848335114    0.7740642523
  -1.7000352292   10.6284329867   18.9670054565
  14.5985738275    4.9385394032   12.1802695438
  16.0213565878   13.1411080662    1.0313579669
  15.2442752842   12.6828053586   18.9266305118
   0.4097832564    0.4092621446   11.9795138787
   3.4840695168    1.0829831098   12.7392253392
   0.8000886781   17.5624730380   13.5677939399
  -0.1247238866    0.7048420494   10.0891380124
   9.7155103797   18.2445271020   15.9358718674
   4.6722043524   11.2208801243    6.9773756804
  -1.8190663462   13.0486403667   14.9131539383
   8.8430535070   17.3889046942    3.0679959200
   2.2143526299    9.9811900793    8.4321187654
   3.7914582554    9.3753819160   15.3598704059
   8.2646141996   18.2421732785    5.5763044045
   0.7845924324    7.8080853181   19.4149387050
   2.0835984881   13.6406514778   15.2323695170
  10.6649877623   10.2558936185    2.6589345574
   2.6683751956   11.0319586140    7.1239587532
  12.1269611692   19.5475670071   15.3898298871
   5.9496560905    9.1631318357    3.6222103808
   2.7973230327   12.2391325342   17.1017279920
   2.3782818661   17.9999848476   12.8768347668
   1.0692776729    0.8820467654    8.8443514838
   9.6781105664   15.7364933248    6.4810829586
  -1.2931254539   12.1806975923   16.3471897370
  15.3539361173    4.6703973270    0.5892234951
   3.7023404539    9.8914878826   16.9180353027
  15.1552219504   11.6117597182    0.8029916355
  12.7994466650    0.1997932465    6.8094615408
   4.5215381511    9.6510972436    4.8596051612
   9.6129887204    9.3117778332    1.4190731991
  16.3052218701    5.3715117955   19.3259477053
   7.0230043345   10.2454004847    7.2435625090
  14.1105636763    1.4981848206   14.2574512604
   0.4141700253    7.6848134410   17.7040687827
  10.6630166638   17.2344233314    3.1683722014
  -0.8980617904    7.9918240048   18.9485503279
  -0.0412641848   19.3901553809   13.5648668808
   1.0574773521    1.9683038731   12.5681114061
   1.2796367722   16.6828132462   12.1945341434
   0.0431964450    2.3291744650    9.2663789016
   1.5102377505    9.3724001211    0.6316926772
  16.9576072649    3.4726335617    0.6485189698
   0.9069779021   11.1777953642   19.1832115648
   1.2042640485   11.3597814068   17.2745853040
  13.6422664906    1.5180565572   15.9931436774
   9.7859681001   15.9406997732    2.5611591829
   1.9792942352    9.3938189518    6.7319014232
   7.8935387999   16.9195683126    6.6364670008
   6.3606475394    8.7247345551    6.6001418960
   9.1157098450   10.9088201240    2.1836222166
  -1.1082315279   13.9575749496   16.1912347434
   5.2915425993    8.6960184175    1.2753378974
   8.9235611954   13.9084556292    7.2132247512
  13.5616718477   12.8151665435   13.9489178004
   3.7500750055    1.5235149282   17.3770284098
   1.7155024982    2.7278718087   19.1593508246
   0.4353254407    5.6573547150    6.1263468319
   4.5523685434    5.2452902740    0.8213413977
   0.2995032759    3.0734545490    5.1541189281
  10.8834218524   11.0041480111    5.9370537102
   5.7068243241   17.3899402952    9.9886709220
  16.8089286279    0.5970093791    2.1470344306
  11.9648758359   11.9013291719   16.7655274372
   3.5987123170   15.9292829687    0.4577539202
  12.5357833413   16.5671878893   16.3475985462
   5.5784446624    0.6726228857   10.1824780007
   3.3957418844   13.9724999789    2.3713638799
   7.7449119598   13.4460341585    1.5864367879
  13.2530450257   19.4286821466    4.8630055962
   5.8268493120   13.0925102742   19.0636693233
  -1.3393575118   15.8203327426   11.0798975097
   4.6058781339   18.4157833656    3.2131945019
   4.8355177554    0.8021253422    2.2436027856
  11.9596279078   15.8795940506   19.1829999114
   6.2216208908    2.4614573964    6.3154001913
  13.9373432156   18.2441354220   11.5603745587
  11.8782331903   14.1616242866    9.9370528867
   3.2529223560   15.2601822277   13.8418972844
   5.3800288407   17.1537998703   14.2468983573
   9.7728373552    3.0617713301   15.6639178194
   9.4511543728    2.9679458805   18.0933096911
   0.5325701484   17.5734364994    8.0333888011
  10.3236953744   12.4366649533   11.2435662952
  13.4488152875   13.7963654401    4.6537508817
   2.6373298393   13.3753517210    9.9441667940
  -1.6721287284   12.4189539131    9.2167732457
  16.1659520647    9.5307721806    6.7579040281
  11.5146302271    2.2700992341   17.2469114844
   4.0851534806    5.2651963629    6.4817345571
  -0.5342278379   17.3329749053    4.4263748211
   9.3813263893    7.1567621289    4.1792894584
   7.8364298714    6.4529076285   15.3086623090
  16.1592722547   13.2666544381    3.6090562442
   2.7377549102   13.4883136010    7.2431514281
   9.2319422367    7.4449606769   12.0301316829
  13.6558619701    6.7219543767    5.4078219443
  -0.4171565427    8.2547337800    3.0141850882
   0.4325332275    6.1408694981   12.4261478791
   8.7651560397   14.2940271620   18.6317927627
  10.9511907418    5.9209110776    2.0195831152
  13.6798245846    8.9889608692    3.6954886518
   9.4896301289   17.4698820542   12.5835289873
  16.6226149819    4.7548560263   11.4401099824
  16.0499226288    6.7299360181   12.6058339206
  16.9591843609    5.1343389954    1.7875312103
   2.4421144303   10.8723916723   15.5754671180
  12.3595926881    0.4691213192   14.4985253875
   6.5113485246   10.3608412832    5.3465612781
   8.9734933312   18.5568771529    7.3793983901
  10.4609262393   11.1641299819    0.6885094046
   0.2837545437    9.5620195990   18.3172276010
   0.7188964388   18.6079175459   11.7785845629
   1.5932631961    1.6771322871   10.6923399554
  -0.6760838764   11.5046222469    0.7186940751
   9.4939888961   15.8498830619    4.5689523816
   0.2234004744   12.8238691740   14.9481756986
   3.8372276515    9.3613980188    7.0728175988
