B2 C140 Ca1 F48 H298 O66 
1.0
1.8191295579501389e+01 4.0292748478292888e-16 2.7675553503813090e-17 
-2.3201661095553008e+00 1.9516545920860118e+01 7.3937074128129230e-18 
-8.9414559413168038e-01 -1.8465809449694909e-02 1.9397749009218320e+01 
B C Ca F H O 
2 140 1 48 298 66 
Cartesian
  10.1033570862    2.2098135919   16.8164695890
  -1.1229984896    5.7036037413   12.0270763144
   0.0315971153    0.6948822640    1.4285716601
   7.5724443515   13.7748275557    6.5791545004
   5.3953793419    6.4600780265    1.2970574281
  13.0792362217   12.6263866751   12.4774994463
   3.7845124140    1.5377053438   16.0713296099
   1.7763062365    0.5529763147   18.8215809264
   1.4614344278    2.4409712311    5.2676548246
   2.3748765499    0.3188935527   17.5249143831
  -0.5343407208    3.0967628598    6.2210618686
   3.4012880324    5.1876942519   19.0377822995
   2.0703596497   15.1951396764   18.4439041679
   0.4232492359    2.6389323797   18.3292687185
  12.1309308802   14.9455794547   15.4979739943
   4.2972554016    9.9306852866    0.6969363004
   6.1600552359   16.6089590578    8.9344334609
  13.2410281972   11.6252512940   16.0533919235
   9.4757528278   11.6808167437    6.2461603807
   9.7885846854   13.0821129980    6.0304388098
  13.2448841215   11.3343301811   14.5745135110
   4.4645272023    7.6089219730    1.5831210712
  11.3258099071   10.6742748634   16.7195055102
  11.6840469172   10.8106596531    6.9924288345
   0.0026522034    4.3394650889    6.8915817327
   0.0650422924    6.5843105965    6.7485575294
   5.0073793866   18.5836836606    9.5031882638
   2.6807984979   16.0070212697    1.2287068147
  16.5523993022    1.3885308252    2.9825940229
   3.7657229288   18.7902053265   10.3464756837
   2.1992398421   14.7243010278    2.0177102199
  13.4751615126   16.0746932898   17.1302568191
   5.4047741420    1.3631348952   11.1675672105
   7.9900523488   13.0314466091    3.1208771803
  15.3182687729    1.0027680795    3.6435112319
   6.7481034597   14.1022614612    1.4693957039
   5.5931544222   14.0567871265   19.3391837476
  -1.8932715996   14.9391539197   12.2178729752
   3.3336910169   12.6831618349    2.8055025811
  13.1100456699   15.2216386119   18.3661447991
   5.6045220504   12.3501549338   17.6759293062
   5.4829918469   17.6100396634    3.9851371418
   7.1850780841    0.0314998287    2.6619817959
   6.1619466533    1.2054137210    2.8187028968
   4.0606095502    2.1559734060    2.3191977403
  -1.9381330931   17.0586289413   11.0325549692
   5.8544395986    0.7396080764    6.3541920325
  12.7054040701   14.7342199912    8.7217748605
  14.7050775206   16.9230011430   10.7467829038
   3.3997869037   15.2060360582   12.2354317584
  12.9645539648   18.0456886637    4.0995919768
   7.0158669998    2.0103900498   18.0230424594
   7.9751075249    3.9662267855   19.0698527646
   8.0471375746    3.1005619693   17.8301107356
   4.2374600026   14.8545167178   14.4771080820
  12.6812974714   17.7609470478   11.9528017007
  10.7272096113   14.4025328344    9.8802700226
   9.3278074555    2.1806290589   13.1643851432
  13.0474270978   16.3670823863    0.7611491304
  13.4423009495   12.6867556412    3.8527024682
  10.1151641154   13.7296206934   11.1083407883
   4.9516162656    2.9576552695    6.4417023611
   1.9199515241   12.4269142068   10.9968235008
   4.8125406541   16.0719839906   15.1036510861
   1.2713853505   18.3544530293    8.1698462743
  10.4340061760    2.3075285003   14.3487090481
  11.5131457251    3.3966226226   14.0596284656
   5.3150945122    4.4513065158    6.2554219409
   5.2601952753   18.2318496466   14.1318867027
   9.6251271933   11.7033703946    9.9956587668
  -1.2524851595   13.3643624895    8.1334771890
  15.8172234410   11.1583986389    8.3982893012
   0.3413975973   16.9471456957    6.6403723972
  -1.4089696472   10.1662868019    7.7171186224
   5.4637881340    6.2135673229   15.3422370494
  14.6830437828   14.6138230284    4.3373610591
  -0.6825580391   17.6493818742    5.7987976633
   3.6402062672   12.5279503426    9.2734323632
  16.5323702215   10.2021150716    5.3254891656
   3.6316337446    6.2698717954    5.5829303528
  11.7381847057    1.3791830567   18.3853624853
   1.9306520150    4.5481113829   13.0708247320
   9.7166806602   19.4803523754   18.5794987192
  16.1574817893   14.3283845200    4.4728760063
   6.7986147548    6.6692117296   15.9890406776
   3.6950166519   13.5366692756    8.1458588962
   8.1884839481    7.5099771173    4.6912500268
   0.3645871114   18.1434648482    3.7782606927
   7.1611711024    8.1813917148   15.6775225309
  10.0980029597    7.3819344147    9.6153299606
   1.0294931960    7.4292955548    2.6794426231
  12.8997446332    2.3316098803   18.6876946807
   1.8856424713    5.1714053398   10.6545508909
   1.0541859532    4.8265538402   11.8843824024
  10.7455640242    5.1732243118    3.2612848578
   9.4780661175    5.7096166456    3.7667075353
   8.7852797620   14.7645579243   17.4682573867
   9.2332359224    7.9049979012   10.8371444753
  12.7240570254    8.2340388275    4.0814683730
   8.7683160641   18.5392824922   11.8925791910
  -0.3331080820   12.7269645400    3.9023552144
  14.1427892844    5.7885423608    6.5772187383
   7.7725190801    8.2534645734   10.4567714434
  13.5182325431    9.4169864508    2.1253164536
  12.3688538545    5.3541620615    1.5113466453
   2.5765622894   13.9288349150    6.0671852254
  13.0798330324    7.6193942145    5.3670202532
  16.7617706065    6.9963177527    3.0319799297
   8.9956336273   17.3072990187   13.9464342505
   9.2763551157   12.7389064280   18.3448235293
  15.3020425688    7.5967149021   14.3316462896
  16.4015232447    7.5816409874   13.3761451657
  16.3800031967    6.0705060403    1.8926715342
  15.0025802751    2.6724069209   11.3350144938
   8.6367963790   11.5364369526   19.0447433804
  15.3449865346    4.1298464055   11.2120665541
  10.1292114979   17.9985719070   14.7381989912
  14.8504009319    4.8116397169    9.9305611385
  -1.4960802415    8.7782985521   12.5586351714
  11.8969171433    0.0516013512    7.0000675659
   2.8948834610    9.6003217078   15.9225946710
  -0.6774567399   10.4780788718    0.1395777486
   1.1271342315   12.7321907155   15.6161291916
  16.2425100224   12.2940702903    0.2853331118
   4.8205011809   10.0535604331    7.1571720269
   5.5451806944    9.5712470735    4.1733860170
   9.8168607809   16.5607702131    5.7006789131
   8.7272319706   17.4413593593    6.0108519478
   1.7433245017   11.5170124144   16.1212529872
   2.2996919413    0.0267072199   12.5308651064
   1.1295660692    0.7961360665   11.8228453761
   1.2106698561   17.5415836126   12.4798110731
   0.4943116568    1.0975832213    9.4481509388
   9.7639444290   10.3019555308    1.7081137937
   2.4552821187    9.8888130599    6.8811926504
   6.1642668636    9.6190180776    6.5584690763
  13.6351501008    0.5538224875   14.9109091441
  -0.2029405455    7.8118061740   18.3671842835
  16.5774095685    4.1365974808    0.6831588708
  -1.2744707562   12.2784837768   15.5796837705
  -0.0812713835   10.0232584312   19.3126930118
   9.5570528456   16.5279409398    3.1547428474
   9.0003475402    5.8512197435   13.5201648586
   6.7220118411    1.5980632103   16.7949561973
   8.9622167903    4.8769144077   19.0200888137
   8.9639456323    3.4582153572   12.7432486374
   7.5598342735    0.9546628978   18.6551169884
   9.2169332420    3.2617637205    0.7783344107
   5.8412314483    2.3735582848   18.6713980619
   6.8821196617    4.7623020820   19.2778923798
   8.2634393966    1.6004525000   13.7600351696
  11.8246233361    3.2972250177   12.8092695507
   9.8191913817    1.5584257104   12.1082391981
  12.6511919099    3.3341787524   14.7881450963
   4.3727691155    6.9798631633   15.8035377525
   5.2595817814    4.9894146800   15.7978834858
  11.0214344118    4.7679358916   14.2735479692
   5.3343363550    6.2062675010   13.9685115870
   2.7046007052    3.3973553357   12.9834652848
   8.5266777415   18.7189883965   18.1415345905
   2.7915878573    5.5855944764   13.3419119949
  11.4190080028    7.4956051001   10.0083726774
   1.0052092517    4.9099124169    9.6530687091
   7.5390980211    8.5002204785   14.3886502105
   8.2499830535    8.6018110902   16.5076190703
   1.1177882565    4.2304732018   14.0983635887
   9.8756867976    8.1529074991    8.5437391326
  10.9915871868   19.1405175036    0.4139840687
  14.1093160721    2.0274733572   18.1692217116
  10.7044100234   19.0601301691   17.7773893457
   3.0410038457    4.4584010849   10.5826768405
   9.9642446036    6.1197826720    9.2539371373
   7.1523827905    8.7816597723   11.5509597759
  13.9948731559    2.3812113363    0.6057008591
  12.7334094110    3.6578106004   18.2370584926
   6.0838802686    8.9857648514   15.9881116493
   2.3233893620    6.3992552855   10.5510253281
   7.0629634887    7.2876707789   10.0474161475
  15.4050256484    8.5618038675   15.2406205980
   7.6542855466    9.2252080586    9.4573407418
  13.7578237481    2.4899258097   11.0209210898
  14.0873880650    7.6894905739   13.6807032819
  15.2025429957    4.3182779296    8.7655305835
  15.7905055123    1.8529346204   10.5556092842
  15.2815000953    6.1177607451   10.0138721652
  15.3630294231    6.4013749652   14.9945512541
  -0.7245453270    8.3706794562   11.4517694112
  15.3445700575    2.1702162228   12.5233553498
  -0.8761597888    9.6875988088   13.2563353458
  13.4386674525    4.7279755426    9.9095039701
  15.5209994426    9.4080438190   11.9861420098
   0.7463199981    0.0763293822   18.6651244647
  13.8426312152   12.6365893122   16.2907071401
   1.9430466685    2.1326098358    4.3437777325
   6.0768091887    6.1624335463    2.1460727183
   5.5195349220   16.6532607011    8.0283704563
   9.1231761426   11.5057884649    7.2764122996
   6.2476983416    6.7759656675    0.4527381028
   4.6616011572    2.2722596366   16.0998251605
  16.6345784484    3.1504801548    5.9155959554
   0.3854895339    1.6897607736    1.8234222087
   0.9373325857   15.2556261513   18.4006839916
  -0.0656552561    0.6994773548    0.3261680899
   7.1004880608   13.6211475589    7.5130374556
  -0.4243449373    1.9648728303   17.7027542258
   0.8000472390    0.0405530033    1.8428233840
  12.0215300980   12.3367972285   12.2383166798
   0.1483236773   18.8417008014   17.0503502166
   7.1383960550   14.8332038279    6.1737944436
  13.0949592608   14.8101250735   14.9864324108
   5.0490365950   10.6210404281    0.5306731883
  13.7554560061   11.8801429916   11.9525202221
   2.9012740691    4.2000061298   18.7565808143
   2.8152423211    6.1084968611   18.8950812026
  11.9279995593   10.0824758003   17.3938169613
  11.8910982913    9.7857851814    7.3328194132
   1.5396188925    1.5460665427    5.9822922711
  -0.3789716600    2.3054169723    6.9357719448
  10.8031181406   13.2594216747    6.1894818164
   2.9155376563    1.9538455687   15.4006404633
   5.7843792172   19.3865766116    9.5398787613
  11.6361496297   14.1614026284   16.0780809636
  12.3318505540   10.7958614012   14.1343925001
   2.1460312736   14.0444268652   18.5173422378
   2.5589170967   15.4964523277   17.5425805776
  11.3034088148   15.3135564015   14.7777652469
   7.1986230699   16.8766066746    8.7048266557
   0.7180622595    3.4110845939   17.6186840382
   3.0942309656   16.5351716174    2.0319184687
  -0.8359870163    7.1331512774    6.9742597835
  13.9281021680   10.8694551032   16.4767597514
   1.9904474620    3.3263973827    5.6634659856
   6.0343855393   15.5855113889    9.3832298193
   8.6754114571   11.3908884010    5.5844696709
   3.6227060726   10.2713060633    1.4895306977
   7.3708861094   13.0267921928    5.7226832794
   2.7375606074    9.7329964276   19.1896535279
   4.2783721863    5.1982153552   18.3953671844
  13.1693026709   13.5853065007   11.9725627501
   3.0945800391    0.3915982813    0.3643032816
   4.2051071491    0.6009806366   15.5981335817
  -0.1418882038    3.1344211431   19.0268375755
   1.6058074134    0.7821976759   16.8144181410
  17.3405428441    1.7039317423    3.7094264147
  16.3747088466    2.2554343898    2.3327167752
  11.2346643863   10.0434311734   15.8234278135
   4.2519545247    7.7683822574    2.6436098389
   3.4430339819    7.2637132117    1.2038141951
   0.6023196923    7.3051110848    6.0855290956
   1.0229678651    4.3060816626    7.2705439999
   1.6658577248   16.5921487688    1.0125594920
  12.5390198611   11.3414700926    6.5292905846
   4.1015976597   18.7199769151   11.3695803958
  11.3911116780   11.5093363119    7.7217185079
  10.2729267039   10.7596612018   17.0666636000
   9.7514525677   13.3005383428    4.9220705734
  14.1143446240   10.6711860752   14.2561906457
   4.7770147251   18.4607066341    8.3795515043
   8.0768722072   13.9144815163    3.8099358375
  -0.6688927167    4.5767661724    7.6857879311
   0.4469880354    6.3594148292    7.7321446319
   7.0203208247   15.1901838983    1.7505031904
   6.2924081071    1.9508326221   11.3845086476
   1.7317910479   14.0720115329    1.3020161276
  13.5698168385   17.0956389582   17.4415465472
  14.3633666417   15.7010076966   16.5689244663
   4.6288107035   14.5610708680   19.0668197052
  15.4027289199   15.3049717621   12.7764423654
   8.7327198051   12.2540720634    3.2346258162
   4.4643404011    1.9001344500   11.1693061126
   3.0113403625   18.0542978848   10.2145592806
   5.8938764732   11.2919134186   17.5988248895
  -1.9513607260   13.7653981264   11.9349017255
  14.4975071391    0.7195103662    2.9863914360
  14.8932348940    1.8691909510    4.1839873946
   5.1113022500   16.5475195133    3.9040256981
   5.3931557566    0.6740791480    7.3144282073
   4.9229760567   19.1869440105    1.5815494042
   1.6365474838   15.2104608652    2.7817032789
   6.1832450638    1.4989533965    3.8531604686
   3.1326895191    1.7968425771    1.9617194984
  -1.6941223789   17.5804729551   11.9100281648
   2.8108604448   12.3536239662    3.7270326185
   2.6495637873   12.0836443014    1.9267083334
   6.9682812559   12.7117393398    3.5520117607
  13.1150742764   14.1934439602   17.9399263084
   5.0883372202    0.7420043225   12.0845488197
  13.8099328832   15.1937742869   19.2067976575
   6.4095117363   12.9772044953   17.2479683531
  12.3822478725   14.3713554166    7.7121282242
  14.3439623214   15.9558915041   11.1333954292
   5.8975303880   13.6602293549    1.7498471172
   2.6833557533   14.6950989624   11.5904724004
   5.6977276886   17.8449545461    5.0237504744
   4.4132810179   14.8674570744   12.0233324876
  13.7250788117   14.6436390541    8.8215069184
   4.4824328368    2.7897786225    1.5018265499
  -0.9233345312   15.0113391346   12.8506552204
   6.3647295930   14.6450981334   18.7350403814
   4.4122513075   12.4155658706    2.7650089750
   6.9066213148    0.4032845576    6.4119026409
   5.2401080381    0.2315317388    5.6421154933
   4.6437415368   12.4801542126   17.1756615721
   7.7010886668    3.6567284822   16.9576995487
  12.2881424859   18.4739242691   12.7090988723
   3.8699059877   14.2344758454   15.3196479746
   5.0317639218   14.3198904773   13.9710975742
  10.2202995774   14.2431068416    8.8312738845
   3.4528534527   16.1593237893   11.7945639806
   6.3878413467   17.7397269930    3.4235496124
   8.1542167874    0.4280551217    2.8959625490
  -1.6163432109   17.5020453492   10.1011155061
  13.3457334342   17.9580577563    3.1123529821
   6.6121957741    2.1399600439    2.3941834778
  11.9809423293   17.9107880251    4.0069936447
  13.2786265298   17.2257788504    4.8149633191
   3.9948439921    2.7260083163    3.3014738883
  12.5293414867   15.8219511097    8.5632840009
  14.6693067953   16.9446529986    9.7028686289
  10.5092174608   14.2540208739   11.9716703311
   1.1734058391   18.7855078629    9.1980356436
   2.0798505513   12.7704157399   11.9933503948
  12.6332509247   12.0321448864    4.1379387956
  14.3241847829   12.0922075728    3.6621624809
  11.8542572637   17.6013096633   11.2483401185
  12.0987805950   16.5012124590    1.2575917125
  13.8367472491   15.9667525399    1.3910422121
   0.8375354259   12.5800598697   10.9487767701
  12.7285706969   16.7977575595   12.5859644033
   2.0597456597   11.3167564040   10.8798106508
  13.3023005080   13.0645622525    2.8271569649
   4.1148925382    2.7984888961    5.7592787211
  10.5850736087   15.5222052954   10.1609277380
  16.1586019474   13.5063602445    7.3702504373
  10.0099617591   10.7163610664    9.9437953907
   4.7399858932    2.6462306439    7.4977219900
  13.3812182807   17.5207751194    0.4884467383
   5.7886779949    4.6458813696    5.3277193592
   5.9079967243    4.9241455018    7.0642008425
  15.0565411488   11.5385149030    7.6441738494
   5.4308004991   18.5692870868   13.1262161777
   1.3666405867   19.0693597777    7.2588755964
   2.1421161753   17.6891976397    8.1108951278
   9.0501422999   14.0027612207   11.2336230388
   5.5914282823   15.8430235911   15.9392650516
   3.9967467572   16.7221529866   15.5291965468
  -0.4575262293   12.9807657879    7.5401978576
  -0.4937283299   10.8081146491    7.3677317940
  11.0888693955    1.3971279918   14.2662398966
  14.4898889939   14.8653537223    3.2046642032
   5.9703821273   18.7091497692   14.9158340335
   9.8050259833   12.1571636826    9.0030707078
  16.1967006491   11.2237493344    5.1320690568
   4.2032881544   18.5895280638   14.3957300311
  -0.7075213161   18.7274675731    5.8844843218
  -1.7694142839   17.2797482128    6.0030370585
   8.6199326519   11.6993155516   10.2409796300
   3.4543480516   11.4690148533    8.9405440234
  -0.9836575298   14.2582292321    8.7216899390
  14.5214799282   15.6248940175    4.7731054878
   4.6219012488   12.4304550586    9.7586580813
   1.4177685100   17.1016797014    6.4332325640
  10.9375733898    1.6222889642   19.1827245080
  15.1445453721   10.5480268574    9.0467025225
   0.1679303983   15.9024162064    6.6343649986
  16.2179862090    9.6342897413    4.5132510305
   2.7257523215    6.1386988671    5.0560739495
   8.2144072867    8.6271319711    4.8771833611
   4.4094255635    6.5613990653    4.9018193413
  -1.1742314765    9.4478223107    8.5231095305
  -1.8784512613   14.0832461587    5.5312259325
   1.2243218847    7.1248529732    3.7074051007
  -0.5775994104   10.2440545819    5.4554141825
   0.7640124388   17.5626421161    2.9825961449
   1.2152562597   18.4638459458    4.4108368802
   3.7544435859   14.5373583081    8.3560098967
   1.2933394034    6.6630841992    1.9333414427
  -1.5026589595   15.2955337692    4.2503133985
   4.6232118072   13.4211831890    7.4519427830
  11.6470767648    5.3947897973    3.9612297304
   6.6144240169    6.7257913572   17.1347989818
   3.6625989500    7.1325990111    6.1775375647
   1.5544331323    8.3494886410    2.4120455298
   7.3381452086    7.1337424214    4.0758842025
   8.4867050297   15.7532180134   17.7773072022
  10.6448298721    4.0594296448    3.1941059656
   7.9753136187    7.2153843376    5.7307472196
   0.5847163055    3.8985715615   11.6476913827
   7.8211146409   18.8042560812   12.4559237321
  12.0792547273    9.1337225185    4.6079818009
   7.9800993347   14.4948836730   16.7359181474
  13.2822478742    5.1515887376    6.8584265883
  12.1307133845    7.5146249244    3.4772317160
   9.5537485944   19.2815528420   12.0399678027
  -0.2133069222   19.0267014137    3.3871556339
  14.5153451631    9.3190400336    1.5975967813
  13.0534185164    5.9040738306    2.1915230993
   8.7114794828    5.5351145218    2.8939368864
  -0.2221633819   12.2955820848    4.9684849234
  13.2864880492   10.4844623761    1.8772273028
  12.7208169261    4.3020874078    1.3931674100
   9.6052880678   14.8784209695   16.7961809310
   9.1057465669    5.0131327826    4.5695832092
   8.4880070562   18.3443251329   10.8152233351
   2.4244240072   15.0881330355    6.0799157422
   0.3135515096   13.5032753707    3.6545067945
   9.6399027587    8.9081238489   11.0672180862
  14.4404746861    6.5443353314    7.3479626777
  -0.1824514683   11.9504887364    3.1152487855
  16.0127885715    7.7813021672    3.3797875477
   3.5105322149   13.8142099153    5.5637279442
  14.9755128840    5.1518639566    6.3391946470
   8.0466183727   17.8117247660   14.1297697301
  16.9204144074    6.3527916262    3.9388853129
  12.1041514827    7.4367916609    5.8776217974
  12.7960255111    8.9023644866    1.4896074488
   1.7855578688   13.6126037221    5.3498603998
  13.6909939579    8.2776026511    6.0786731139
  12.7141017354    5.8298424750    0.6121021840
   9.1584371750   12.4251186380   17.3079851934
  -0.9126954103    7.1672780156   13.8607577057
   8.4386132556   10.7062434263   18.3704527647
   9.0612755279   16.2961827163   14.3640684805
  10.3817651706   12.6946667623   18.4700545171
  15.4808408237    5.6799763007    2.1684395907
  11.1049987451   17.5042619461   14.7176185931
  16.1800003311    6.6020904730    0.9686971511
   8.5485531142   11.8345514710    0.0764753838
   2.0908115999    9.0519778329   16.3969819968
   0.8780624797   13.3040104552   16.4967986240
  10.7317913361   17.1936604245    5.6079015774
  11.2641984612    0.6506438488    6.3192002939
   4.9149461918   10.1529194538    8.2394137882
   5.8052023738   10.0966285928    3.2870181219
  11.8834514827    0.5483919086    8.0165485817
  16.7490605822    9.7918223298    0.8176933600
  -2.0474277757   10.4640936649   18.5395173159
  14.7441268374    4.6025781271   11.9656783586
  15.9594502579   13.2871654906    0.7271724633
  15.2784311935   12.3325795843   18.6040963385
   0.1511577931    0.2111446697   11.7897217396
   3.1731367874    0.6309117695   12.5837147563
   0.5930300617   17.1825966344   13.3788736399
  -0.2972377511    0.5824349932   10.0469684853
   9.8488465550   18.0912179924   15.8568643657
   4.6348236636   11.0241058182    6.7368191215
  -2.1516592212   12.3561321109   14.9130288054
   8.5352399639   16.6262944487    2.8500322138
   2.0229548874   10.3134015183    7.9026932593
   3.4951737789    8.8676176955   15.3269870953
   8.3913045220   18.2452377426    5.2856585988
   0.5881298143    7.1803609567   18.7878261305
   1.8375684681   13.4899432028   15.1310579880
  10.5260149488    9.8783004944    2.4135200776
   2.6628421925   10.8173822917    6.2815667729
  11.6928821469   19.3458709147   15.5620458513
   5.8687495087    8.6250875972    4.0178103644
   2.5829884054   11.8778054000   16.6951686044
   2.1183415888   18.0472417719   12.9467224182
   0.9540085521    0.4485291796    8.7019893263
   9.9602036987   15.7908840908    6.4014007920
  -1.3022597864   11.2321005509   15.9080675961
  15.4873531591    4.3184910965    0.4407013697
   3.5510428398   10.1125154438   16.7771923831
  15.5118000826   11.6285878906    0.6936469847
  12.9258907069    0.0056074105    6.5916509785
   4.5600089180    9.8547753420    4.4157491942
   9.1765367457    9.5086861895    1.3691917728
  16.0438211959    4.5432627237   19.1324632594
   7.0086690889   10.0225500478    7.2109168532
  14.4301785317    0.8601154305   14.2367932811
  -0.4421272742    7.4631425719   17.2809764013
  10.0796722750   17.5051757438    3.0872953233
  -1.0953999898    7.6430243076   19.0197416866
  -0.4273514364   19.2545535170   13.4803767612
   0.9036515951    1.6312420715   12.5073933746
   1.6745969924   16.8902939510   11.7674079450
   0.0610919101    1.9463767401    8.9318219770
   1.2321108305    9.6462018761    0.8315597137
  16.7817008097    3.0715802519    0.9260707420
   0.6141959086   10.9140805060   18.9579574820
   0.9714587640   11.0182715498   16.7274803616
  13.1992021723    1.4499002352   15.4701308461
  10.1378944775   15.7212750323    2.5827945017
   1.8610769978    9.0557379665    6.5384957729
   7.8997497258   16.7877163634    6.3770263454
   6.4317935549    8.4746693311    6.6230980881
   9.0082724655   10.8593621014    2.2495123795
  -1.3666334216   13.0290805441   16.4644826929
   5.1124769536    8.7785996450    1.0499533622
   8.9386848519   13.8739042474    6.8467331333
  13.4424996228   12.6118639317   13.8503694354
   3.5884023059    1.0442053255   17.4206920285
   1.5674708454    2.0174064708   18.9021228671
  -0.0555744559    5.4298683929    5.9947358295
   4.8011381880    5.2045138928    0.9796339461
   0.1477734049    2.7837032424    5.0489893285
  10.5288290377   10.7315009025    6.0074046591
   5.5619956988   17.3364959742   10.0105787656
  17.0150726325    0.2226967497    2.1083621327
  12.0478789414   11.9161316527   16.5743310864
   3.4501993525   15.9135559708    0.1002386086
  12.3428761426   16.1597588225   16.1732745286
   5.5232326459    0.6028103991    9.9933227211
   3.4095558307   14.1124000913    2.4075627379
   7.9083976487   13.3046525970    1.7372888819
  13.2099378118   19.4186478322    4.6236126984
   5.5014153682   12.6635879734   19.0391462506
  -1.5307755245   15.7099799647   11.0920629787
   4.4534357192   18.4785606795    3.5680230703
   4.8519438626    0.9751095764    2.3552011143
  11.8619110260   15.5556661750   19.0176616755
   6.1650875539    2.1427584914    6.1403836941
  13.9243454604   17.9872746426   11.3646607211
  12.0804425670   14.0081074471    9.8123143582
   3.0615551631   15.0899278302   13.6865668610
   5.3914236771   16.8088545607   14.0427715436
   9.7263201686    2.4539375074   15.5421382817
   9.4431705556    2.6984696937   17.9165724283
   0.1048121512   17.4988996880    7.9874826620
  10.2684365753   12.3247397699   11.1195143261
  13.6281459971   13.7379455013    4.7806642989
   2.5826334807   13.1106998839   10.0206920484
  -1.6015273322   12.2228168206    9.0256762585
  16.0988822915    9.6355657239    6.5844157548
  11.2618369090    1.5873267378   17.1052679372
   3.9228667964    5.0869685098    6.3208287348
  -0.4679372652   17.1537138563    4.4969373559
   9.4649691833    7.0037678914    4.2289256198
   7.7641268617    5.7640727027   15.4978871205
  -1.6748196166   13.1694745207    3.6273732161
   2.4041646234   13.3478069586    7.2468161718
   9.1245486794    6.9510017305   11.8309972467
  13.9794022171    6.4680473385    5.3553349190
  -0.3409564145    7.8530665624    2.6960789709
   0.2242086694    5.9437250710   12.1951170313
   8.7572141758   13.9802810228   18.5766854719
  11.0690278994    5.6840072057    1.9418448106
  13.7636224639    8.9172156114    3.4377532181
   9.2381749978   17.3412402256   12.5583717427
  16.6970888300    4.4731360990   11.4339479150
  16.0250989942    6.5110559341   12.4947588261
  17.1938512597    4.8786718006    1.7644168507
   2.3717027620   10.7052238293   15.2174665310
  10.4273016139   19.3437455184   14.0781137092
   6.3612857359   10.1603498727    5.2182236630
   9.1229481485   18.2311798216    7.1822373523
  10.3850619015   11.0084103615    0.6760706723
   0.0937512604    9.2290602404   18.2068434634
   0.4194621328   18.4610180243   11.8086008723
   1.3979547744    1.5266050970   10.5353821568
  -0.7356420010   11.7881832610    0.7277785347
   9.5771279001   15.8107106013    4.4427119142
  -0.0203023059   12.6063468898   14.8369773858
   3.6991165179    9.2480901117    6.9187072790
