B2 C140 Ca1 F48 H298 O66 
1.0
1.7936808993659291e+01 -6.7766540986995614e-16 -1.3263557229293361e-16 
-2.4636146096511782e+00 1.9497536758709177e+01 6.5396309570055497e-17 
-1.0479061797286073e+00 7.8165178379177735e-01 1.9451221146587081e+01 
B C Ca F H O 
2 140 1 48 298 66 
Cartesian
   9.8276355613    2.8877322276   16.8941632503
  -1.2756557011    6.0589654538   12.0629913407
   0.1234554630    0.7639996170    1.7897022086
   7.1814698487   13.9429077969    6.6488089587
   5.1538211831    6.2265909125    1.2983985284
  12.3897290964   12.6411951869   12.6441319729
   3.5773616804    2.2988981183   15.5824733977
   1.6264392459    1.8414296309   18.4419656430
   1.3651115651    2.7750120823    5.3911798210
   2.0686462226    1.4339242241   17.0120854752
  -0.6864677581    3.9103312696    5.9931774887
   3.1655682110    5.9015511396   18.7987808581
   1.7973061030   16.1659434266   18.7993564743
   0.2872305472    3.6686136507   17.8030413946
  11.9344054241   15.7037461783   15.2543605815
   4.4610111670    9.7950619947    0.6702474193
   6.4683426621   17.2004697298    9.0990309507
  12.6384694131   11.8407175632   16.0647069530
   9.7519936942   11.8639721652    6.2605108602
   9.4908767142   13.4453802866    6.1745455224
  13.0244672249   11.5890383718   14.6519762012
   4.2501788183    7.5231839741    1.4350266396
  10.8433124975   10.4964591893   16.7415745389
  12.0430798686   11.4854683544    6.8422374318
   0.0246568299    4.8072536065    6.9712718276
   0.3465063547    7.2527497850    6.6829413299
   4.7645022096   18.8092114839    9.6933713666
   2.5809204081   16.2779368369    1.6324247143
  16.3587404257    1.5937336032    3.1539185191
   3.7102055860   19.1769541963   10.7456145461
   2.0839559437   14.9735408575    2.1631558718
  13.1615035888   16.6945299379   17.0022491139
   5.3044713085    1.8054540881   10.9016976500
   7.6146401093   13.7950340027    3.0554432084
  14.9916306129    1.2116235120    3.8908426791
   6.4506076588   14.3120366638    1.0172467690
   5.3952163121   14.7698166415   18.9831835065
  -2.0815993243   15.5238315810   12.2782328832
   2.6594956626   12.5793804355    2.4590017030
  12.7357314981   15.6922306475   18.0443255543
   5.5277850164   13.1326134570   17.2095702940
   5.4490410230   17.9258898916    3.5062964667
   7.1569869669    0.5579847290    2.4024799907
   6.0841782707    1.4968166755    2.8092274114
   3.7260499623    1.7047463558    2.4289998745
  -2.3559715490   17.3054121759   10.7949037348
   6.3338501036    1.0451359351    6.1657633801
  12.1985987530   15.1969849498    8.7668367485
  14.0539296430   17.4725232972   10.6788416977
   3.6028555041   15.5278536459   12.2575574507
  13.1172303624   18.2909618168    4.1699153968
   6.7003693506    2.2616025341   18.3131943231
   7.4569762394    4.5480738922   19.2216229701
   7.6068667827    3.5161876158   18.0082919871
   3.9034484247   15.3236424509   14.6442451971
  12.1024207676   18.2720412918   11.8175303340
  10.2111205685   14.8216013356   10.1298142364
   9.0786005567    2.8375031091   13.1757046562
  12.5171369071   15.9144661907    0.4694944800
  12.7265795624   13.1073650253    3.4391271742
   9.3730656685   14.0309231129   11.1155277679
   5.0773904138    3.2023736500    6.6324924572
   1.7997167451   12.7379067314   10.7961874133
   3.9277380136   16.8279570873   15.0634893749
   1.0117598432   18.6268120169    8.1522972667
  10.0658912110    3.0601774254   14.3218656857
  11.0898624040    4.1785261993   14.0431792067
   5.3335959076    4.7814217578    6.5147675125
   4.7095637080   18.9871991125   14.4585081624
   9.2252884285   11.8736596048   10.0727020139
  -1.1331127146   13.3437297855    8.5592455070
  15.3914089394   11.4224057860    8.4734480378
  -0.0368573179   17.0727352123    6.6845281447
  -1.4882473026   10.4896598075    7.9784120580
   5.2881310062    6.7218468373   15.7728625758
  14.1101261812   14.7453223335    4.4150792748
  -1.0111038731   17.8421528743    5.8800597064
   3.2032723517   13.6163623687    9.0979375082
  15.6561487657    9.9908427828    5.6464931738
   3.9217778470    6.3741172971    5.4296176623
  11.5620967939    2.1950118304   18.3325166604
   1.7961038135    5.0208162601   13.3326878194
   9.3654763597   20.2017140185   18.4917972160
  15.4181516986   14.0219780723    4.5276242812
   6.7813810224    7.1612480149   16.1131464417
   3.2892827158   14.2080336276    7.7221309196
   7.6382184294    7.5099805152    4.3524880155
   0.1890997535   18.2665126348    3.7925999368
   6.8105615186    8.8168148639   15.8384470389
   9.7537672952    7.7645980055    9.4635797237
   0.5604674401    8.0867647181    3.0236355525
  12.7473554596    3.1116203201   18.7981739854
   1.9105082878    5.6898205035   10.8101355260
   1.0635379438    5.2124172518   12.0479265652
  10.7433748461    5.4949644623    3.2782507553
   9.2645057456    5.7206711010    3.7858711669
   8.5273114166   15.5061832950   17.4403133121
   8.9160500511    8.3555871310   10.6036612456
  12.2378514659    8.5213395628    4.0984266499
   8.9326901154   18.2763461159   11.3430895459
  -0.6820174325   13.0532431296    3.3874081861
  14.2265252191    6.5585804262    6.4732344183
   7.4645818225    8.5656866765   10.1508984736
  13.5098092961    9.5466599441    2.2535043997
  12.1512068799    5.9054128068    1.3490454878
   2.8049486239   14.1818925962    5.4545907869
  12.5657514243    7.9697614729    5.4886066872
  16.1629569468    7.2378754910    3.3183041525
   8.5574147857   18.0490092594   13.7229095963
   8.9838015424   13.2014107318   18.0035578809
  14.9385004955    8.0160510156   14.6510859548
  15.9266848618    8.0168139910   13.5008734119
  15.8850623082    6.5181500685    1.9849826282
  14.9623219218    2.9591881653   11.0568496170
   8.6744046040   12.1149032603   19.0256109861
  14.9040339246    4.4620951381   11.2042796529
   9.4787395430   18.6436288597   14.8570146091
  14.2697082572    5.3295925837    9.9680884482
  15.8380382283    9.4319695983   12.6531799677
  11.4714966180    0.4505239640    6.8223022508
   2.5171555605   10.0315091338   16.1606691321
  -0.6447707399   10.1959803370    0.1288265744
   0.8433923013   13.2128370900   15.4243885742
  15.9813167343   12.1053468452    0.5076336487
   4.9067632820   10.5698842941    7.5104685015
   5.1053806525   10.2861924672    4.5024983084
   9.2777576832   16.9621650826    5.7455796067
   8.2067483261   17.8848370971    6.1688789328
   1.3379390119   12.0585562849   16.2193115689
   2.3040049550    0.5644615276   12.7892619506
   1.0657125195    1.1575027611   12.1227527627
   0.7026404825   17.8942436456   12.3640842190
   0.6304073613    1.5065873815    9.7038727960
   9.7464933411   10.7126783328    1.8628971179
   2.5736756204   10.0757862399    7.7336628911
   6.0323432976    9.9221089530    6.6982250461
  13.2973068122    1.1288525746   14.6209107983
  -0.3798808004    8.3736532297   18.4699563621
  16.8246080008    4.7100761965    0.6177520452
  -1.6101152128   13.3211119935   15.2994444622
  -0.3517955652   10.6981432043   19.2031966200
   9.5294368997   16.9587364279    3.4679685456
   8.5656913730    6.4063792627   13.2404871660
   6.3498861187    1.6080778974   17.1641915897
   8.4093253330    5.5667249239   19.0173314605
   8.7765894808    4.0969719386   12.5029183271
   7.3449305255    1.3745448146   19.1083973177
   8.7191815829    3.3559890709    1.0168471186
   5.4835653918    2.7266570636   18.8993414949
   6.3205810065    5.2589578002   19.2592811815
   7.8857443467    2.3136849251   13.5301762033
  11.5748595824    4.1315894550   12.7262063432
   9.6893433570    1.9722430205   12.2083583980
  12.0564958245    4.2033304433   14.9820367821
   4.2149603148    7.3931604237   16.4210601264
   5.1733724936    5.4107710114   16.1497096086
  10.4783084550    5.4246478820   14.1490822111
   5.0563053260    6.7582016826   14.4113690813
   2.6759516725    3.9976513340   13.4453187381
   8.2334555673   19.5110135531   18.1309397192
   2.6119795185    6.1059248039   13.6207442225
  11.0071027281    7.8275275461    9.9722512177
   1.1114434269    5.4067447572    9.7103081388
   7.0884066134    9.2257857890   14.5027075220
   7.9161675803    9.3362283157   16.5662383594
   0.8848820905    4.8690210097   14.2459996249
   9.8925318807    8.3242969590    8.2566608801
  10.5272269890   19.2283630902    0.4125040688
  13.8753772878    3.0941460990   17.9646120150
  10.3381315845   19.6489180680   17.7086810934
   2.9900871618    4.9441500663   10.4630515522
   9.3008470630    6.4576086915    9.3267196018
   6.7174783000    9.1360053426   11.1589222067
  14.1762632978    2.0408846945    0.6244532081
  12.2630941700    4.4125322943   18.7983745210
   5.7532139725    9.5484011329   16.2381290961
   2.3087184034    7.0100115658   10.7493305931
   6.7707008256    7.5675362059    9.5203921505
  15.2261725376    9.0340311255   15.4944015882
   7.5075363389    9.5747726300    9.1419872628
  13.7381097046    2.4664961673   10.8470475401
  13.6672550409    8.2446134656   14.1980396625
  14.8271533216    4.7384097124    8.8445566808
  15.6470715997    2.6236060505   10.0012153437
  14.5712348661    6.6229182689    9.9989500580
  14.9579677274    6.8589379414   15.3414705927
  -1.6088593748    9.1668920954   11.4181577630
  15.3368713112    2.4276436428   12.2314185893
  -1.2791759769   10.3506217656   13.1659418538
  12.8959349167    5.2391277127   10.0880221448
  14.6334308185    9.9822853576   12.5770935259
   0.7855304270    1.2246134308   18.6320638955
  13.0124338968   12.8071486587   16.2725674491
   1.8041619728    2.1000046591    4.5290333717
   5.4302608709    6.0071456610    2.3654984208
   6.0789538812   16.6963561615    8.1753535561
   9.6675912065   11.5478686326    7.3532478657
   5.9399049814    6.5079019868    0.6632134257
   4.4988982691    2.9042904779   15.5791675739
  16.3306630923    4.3209796643    5.4500896271
   0.3802746598    1.6762461448    1.2820076953
   0.7130549572   16.2173264401   18.7177917190
  -2.1293092708   19.3188218313    1.1708766291
   6.7439723289   14.9405293337    6.9524966587
  -0.3470086416    2.7883439951   17.6142287945
   0.6877630783    0.4856462890    2.6955545972
  11.2747516188   12.3531710388   12.4557736701
  -0.7277193941   19.8415627616   16.7520891268
   7.3387121719   13.9231989239    5.5100980958
  12.8291472821   15.5391777082   14.7077829896
   5.3483746791   10.4817002911    0.5439102361
  13.0718802778   12.0098453098   12.0955581500
   3.2247391352    4.8581520173   18.3388509870
   2.1884971763    6.3928813265   18.6734391542
  10.9162646968   10.1006044676   17.8116663485
  11.7193757709   10.7008987315    7.4916565726
   1.2021814715    2.1381531428    6.2684113053
  16.9800708680    2.9626183567    6.6303667430
  10.4686561278   13.8514315140    6.5063898329
   2.7824617039    3.0188578808   15.3729674993
   5.4575918548   19.7480632253    9.6081015223
  11.6108618167   14.8695894575   15.9546510429
  12.3630809500   10.7963584942   14.1861288909
   2.1592359713   15.1378700061   18.9344454812
   2.3500599556   16.5818447064   17.9510833353
  11.0821303718   15.7510220948   14.7392738915
   6.9614007915   18.1848176721    8.8242181399
   0.6526359116    4.2099179761   16.9148800541
   3.3491294063   16.9746008597    2.2446131339
  -0.7150265719    7.3150975968    6.9338063930
  13.0719889835   11.1126253990   16.7624529196
   2.1481508357    3.3973427061    5.6563747059
   7.2132918189   16.5344240135    9.6249123633
   8.9908107253   11.0932490140    5.6435788117
   3.6929493091   10.3533458535    1.2227918512
   6.6200273237   12.9860669602    6.8878725907
   3.0452919279   10.2170191179   19.2109558234
   3.9222658649    6.5540088413   18.4379928064
  12.2718958358   13.6649100396   12.2502860121
   2.6018653235    1.8620368975   19.1558677498
   3.6500172165    1.6086682929   14.5946999457
  -0.5326618447    4.4338337026   18.2689477370
   1.4981021911    1.8676789691   16.2026441000
  17.0638897808    1.3366169369    3.9771239555
  16.5300788029    2.7257833125    2.9457905778
  11.4673284296    9.7500795849   16.1630605100
   3.6113775064    7.4065700795    2.3160684338
   3.5272599591    7.5149841656    0.6262864168
   0.4405284121    7.9110611033    5.8147761618
   0.8703089349    4.3253268860    7.4809074743
   1.7183476023   16.9733534257    1.5183300694
  12.9626852176   11.2944184834    6.3309675519
   4.1871731375   19.5645002210   11.6198519595
  12.1860606732   12.5460370258    7.3074970059
   9.8801632432   10.3689238373   16.3726862165
   9.5560910440   13.8388140473    5.1943499005
  14.1183232233   11.3978259102   14.6264225475
   4.2331637716   18.6781199520    8.7251974603
   7.3010951156   14.7371330893    3.3521240263
  -0.8206399326    4.9832139493    7.6310953658
   0.9927977261    7.5695377409    7.4764856736
   6.5632383950   15.3379185864    1.0287443050
   6.3085806621    2.2824607022   10.8967341660
   1.3465929791   14.6451541770    1.3309342091
  13.2700791510   17.6704313925   17.6345099578
  14.1197718548   16.4945387350   16.5678389643
   4.6173924997   15.2679892123   18.3143340235
  14.7487320200   15.4783855493   12.6961242733
   8.7226192873   13.8574919424    3.2998154490
   4.5002580445    2.5040215997   10.4272224173
   3.1601622519   18.3082020076   11.1919856618
   5.4626032996   12.0343757918   17.2264081203
  -1.6429448757   14.5377362054   12.1524055925
  14.0369367132    0.9848272718    3.2518607181
  14.8131543341    2.0185290642    4.6915388311
   5.0119035705   17.0732641427    3.9931310267
   6.8467351822    0.5080114682    6.9758314518
   7.1359935412    0.4984600165    1.3309461725
   1.5484827352   15.1228567681    3.1004359828
   6.0231038516    1.5617888461    3.9279777654
   2.8665405905    1.3142071078    1.7360280067
  -2.0565531377   17.8260643589   11.6576848290
   1.7308648248   12.6476066561    3.1765152797
   2.0520292038   12.2279191615    1.4410293219
   7.2035477231   12.9794574113    3.7575969521
  12.5480445828   14.6921810211   17.7226696771
   4.8617113042    1.7263301862   11.9123757666
  13.5276098026   15.6398171021   18.8597678691
   6.4294400776   13.4905993911   16.8222210224
  12.0278308447   14.6630986743    7.8949710801
  13.4499675128   16.6125921751   11.0091195529
   5.5254315604   14.0917722567    1.5287593074
   2.6964343372   15.8316267469   11.7157860206
   5.8106509895   18.4246203360    4.4095305044
   3.9539060604   14.6126280189   11.8930224183
  13.3087417967   15.3751726920    8.9139061146
   3.9353793114    2.7426006416    2.1825545267
  -1.4923123654   16.0993312862   12.9490338280
   6.3365117153   15.1187810276   18.5887607881
   3.5428543407   11.9015480918    2.7979046389
   6.8481017418    0.7780433798    5.1971843360
   5.3699298059    0.5055575698    6.2451634729
   4.6510203207   13.5568626536   16.7492157730
   7.2444705409    4.0005461366   17.1276999230
  11.7719787894   18.9678361499   12.5382529232
   3.3743808192   14.7920492022   15.4158776522
   4.8917469542   14.8579360931   14.4340577527
   9.8010364528   14.3426808097    9.0602058230
   4.4002742541   16.2691360061   12.2668599132
   6.2935546430   17.6264314702    2.7509173664
   8.1088421768    0.8645060983    2.8079872573
  -1.9048578171   17.6422153903    9.8699961243
  14.2599578209   18.1395480324    4.2210355677
   6.4731279639    2.4959636628    2.5863921718
  12.9245839703   18.2131666016    3.0706148907
  12.5508087902   17.6925014783    4.9367602351
   3.4343857259    1.5182510984    3.5392689398
  11.7522361117   16.2051740740    8.5237634738
  13.6545709404   17.9760645897    9.7526710919
   9.4731401079   14.1984295807   12.2324350011
   1.4656063607   18.5398665899    9.1653790352
   2.7735108467   12.3581180532   11.1724054614
  11.7777783465   12.5343151976    3.4229568553
  13.5666673498   12.3712891377    3.3594973532
  11.3360626947   18.4186097671   10.9717163030
  12.0037104075   16.8955944578    0.6244272740
  12.0194018421   15.1811736471    1.2613136578
   1.4774424744   13.4853134172   11.5457345543
  11.9626484276   17.1568196374   12.2438915438
   1.0420301770   12.0103000076   10.5832840223
  12.8283456900   13.7320274456    2.4538938941
   4.1074584560    2.9298119633    6.0752102758
  10.0109279525   15.8808441526   10.0512564956
  -1.7023608818   13.6247645014    7.6926884961
   9.9182952801   11.1438272722    9.7918128931
   4.8678410114    3.1315800973    7.6809472049
  13.5469858009   16.0645105994    0.6509235968
   5.9038159801    4.9747197341    5.5098257933
   6.0483696733    5.1478641448    7.2868036429
  14.7477589007   11.8734835824    7.6277208058
   4.8014259225   19.5737133001   13.5525004045
   0.6166471234   19.6235173856    7.9986004151
   1.8355135166   18.4913250318    7.4178249352
   8.4027820409   14.3108495871   10.7933941112
   4.3916079987   16.9541226293   15.9999127349
   2.8463025015   17.1212958699   15.2858088426
  -0.2918412832   12.8493047942    8.1317573488
  -0.6996960534   11.0647593078    7.5516694063
  10.7421678074    2.1057805430   14.3287890011
  13.9840436831   15.3881197323    3.5594331938
   5.5291742159   19.2096883811   15.2062766475
   8.9421779574   12.5615517057    9.2669094798
  15.2235760130   10.9665068565    5.6815212226
   3.8022756394   19.4530609226   14.9607713278
  -0.8990453295   18.8188838093    6.3277390209
  -2.0030648081   17.5797753001    6.0624099874
   8.2097543805   11.2917598827   10.2481808870
   3.6609266705   12.5851640688    9.0924608024
  -0.8624511953   14.0782605409    9.3309604518
  14.0721007736   15.5123641071    5.2493087927
   3.9458405554   14.1131097938    9.7885197506
   0.8633701389   17.1208886181    6.1157965125
  10.7745919403    2.3826384620   19.1261500916
  14.6046422460   10.9370646593    9.0867877986
  -0.2445083639   15.8788888123    6.6790611233
  14.8662665306    9.3201301829    5.2805635762
   3.3234328567    5.7791765067    4.6787891730
   7.6877601019    8.5160582627    4.6286541792
   4.8555762020    6.7732447577    5.0502545824
  -1.1483932931    9.8646508500    8.8306579665
  15.3977867632   13.4782472881    5.5257170713
   1.0977874708    7.2865426507    3.7058781642
  -1.3864753797   10.0810650240    5.0159064977
  -0.0800751536   18.2509729892    2.6898018531
   1.2572485029   17.6836711138    3.6977908456
   2.9671211248   15.4197648237    7.6520922584
   0.7364900381    7.8257102515    1.9268853216
  -1.7640560382   14.7882590250    4.5271766809
   4.3173290390   14.1567472044    7.4737178911
  11.4151036651    5.7215341556    4.0891487633
   7.0859688264    7.1639001088   17.3123417610
   3.4098308507    7.2860380357    5.7210320608
   0.9149433661    9.1106451543    3.2850355925
   7.0707387028    7.2404660541    3.4491774751
   7.7606581186   16.3570130532   17.6180000979
  10.9277870252    4.4657008977    3.0946581547
   7.2214419366    6.8647504267    5.2007150295
   0.6024194349    4.2465419188   11.8060625176
   7.8488916458   18.0862432117   11.1630497805
  11.3087425911    8.9801439251    4.2885572592
   8.6389152804   15.3812760761   16.3278161888
  13.6043069851    6.2627004213    7.3293190466
  12.1540002762    7.6572097507    3.3729835870
   9.0916578126   19.3813330400   11.3007649491
   0.3567731185   19.3199313831    4.0416668208
  13.8002132867   10.5704801299    2.0229053620
  13.0838094168    6.1512713037    1.8404635272
   8.6379845305    5.3514414298    2.9516906815
  -0.3017910055   12.3156721966    4.1008248486
  12.5310863405    9.7118123274    1.8435612935
  12.0597894789    4.9119357277    0.9816578497
   9.5188909714   15.7545298172   17.7004210681
   9.0682288520    5.0679916858    4.7887573498
   9.4887314067   17.7804527689   10.5920100942
   2.6936356439   15.3135057381    5.5516742220
  -0.1330498075   14.0759426439    3.5418090928
   9.3165975896    9.3498653361   10.8404893232
  15.0077521782    7.2451930742    6.5905015314
  -0.6599684775   12.8786931222    2.3371678381
  15.3031078116    7.5626544340    3.7985544033
   3.8535380980   14.0654385823    5.0798705639
  14.7943147765    5.6481197894    6.1663082252
   7.8602780003   18.8416775458   13.3940247399
  16.6044393083    6.5036840297    4.0787738772
  11.5737847771    7.5909173658    5.8525050219
  14.0440833454    8.6976824573    1.8209186615
   2.0898275915   13.7580422086    4.8354318749
  12.8633187411    8.7213280759    6.2316703378
  12.0546892674    6.5566424407    0.4426662987
   8.7876283443   12.8457931241   16.9880456327
  -1.0283854144    7.8281085090   13.9951786108
   9.0769167326   11.2195884417   18.7099037213
   8.0621052285   17.1566313726   14.2232515313
  10.0242163335   13.4316507441   18.1946713133
  14.8746699609    6.3725542521    2.0073096312
  10.5426238563   18.2735491734   14.9451374338
  15.9721589488    7.1355411293    1.1008198814
   7.6102198168   12.0762735466   19.2427963643
   1.7351459648    9.7048607364   17.0253977205
   0.7636873943   14.0194139510   16.1285798601
  10.2390306210   17.4242529067    5.6336309116
  10.9049468076    0.9037513437    5.9554455824
   5.2354130099   10.6005886995    8.5531802110
   4.4822411074   11.1679387318    4.6889494228
  11.0969632468    1.1828776875    7.6225379907
  -1.1430266559    9.6394735997    0.9498152284
  15.4914448930   10.8272241088   18.6963704900
  14.4469139034    4.7903200930   12.1970730678
  16.0105167276   13.1383743843    0.7708366752
  14.4877603539   12.8292960572   18.8611785234
  -2.0905605575   19.9675297711   11.8341525086
   2.9969255747    1.4135746045   12.8798569409
   0.0261676684   17.5954247140   13.1790478131
  -0.2525001185    0.8103358725    9.7857047601
   9.2075386883   18.6275316909   15.9111552108
   4.6909464461   11.5563221485    7.0937588478
  15.5341442546   12.9584931474   14.6424877106
   9.2556021677   18.0699466715    3.6458259374
   2.6018420693    9.9647344730    8.8411825043
   2.8674982872    9.1512322977   15.4752825572
   7.9052517598   18.4277273515    5.2666247872
   0.7853314153    7.3378868276    0.1128163890
   1.6261181330   13.5051734445   14.6700226430
  10.0369512798   11.1929532586    2.7731423241
   2.4509587065   11.1600107746    7.6399539039
  14.2537884656    0.6362516283   14.1223623613
   5.5030098349   10.3294696854    3.5001102329
   1.9339140018   12.3761211683   17.1318479911
   1.7260760539   17.9833394763   12.7344676573
   1.3351351388    1.3247738882    8.8291743563
   9.4101603847   16.1395451807    6.5334527999
  -1.6468470545   12.7831763639   16.2686501141
  15.9623425890    4.0329288403    0.4951073174
   3.4087966593   10.4516814495   16.7028505957
  15.3016520107   11.5564000795    1.1724966153
  12.5365615088    0.4743540872    6.4942880928
   4.4207592136    9.5864543244    4.9535795675
  10.2572696473    9.6942321565    1.6481735350
  15.7040639099    6.2039261196   19.1996622305
   7.0127423697   10.0365378973    7.2740719440
  13.2082891034    2.1865109185   14.2060755359
   0.1761800845    7.6345043421   17.8644489194
  10.6096558373   16.9020643171    3.4518788072
  -1.4375324857    8.1691556745   18.4314177126
  -0.2439128054   19.5396310289   13.7243753851
   0.6024219343    1.8236708226   12.8469100483
   0.6608781946   17.1955738050   11.4416460177
   0.2810055920    2.6123016554    9.5516957456
   1.3360265804    9.7436553479    0.6692813560
  -0.3437020947    4.0097765771    0.5013125945
   0.0051152300   11.6680892242   18.8177139063
   0.3702857147   11.6742242366   16.6331292066
  13.5475235065    1.1869391128   15.6180160142
   9.2123472453   16.6615951171    2.5000292550
   1.8096766895    9.3461832381    7.3980239611
   7.2889021098   17.2678033681    6.4654500155
   5.7909090710    8.8393010254    6.6845716121
   8.6030248994   10.6613219819    1.8447313196
  -1.7065067477   14.4276832080   15.3747950892
   5.0802686522    8.6790688577    1.3577068678
   8.5311046438   13.9377705965    7.1176662619
  12.7386755450   12.7581625922   14.0451525288
   3.3319597593    1.7446349049   16.9203370518
   1.3139364142    3.1962920848   18.7186778769
   0.6334129189    5.8863473705    6.2906156868
   4.5710138947    4.9992039573    0.8381871855
   0.2153306272    3.4407129900    4.9354394911
  10.9641220499   11.5114027689    5.8567428305
   5.4336431580   17.5089828152   10.0573108087
  16.5968878484    0.8275436928    1.9660959275
  11.2773513944   11.8073031441   16.3733682997
   3.3472939910   16.1732721169    0.5013294696
  12.0717487911   16.8948939869   16.1199226635
   5.3755283402    0.6048840634   10.0451356037
   3.0750947390   13.9072285630    2.3758541652
   7.5855601932   13.6101527155    1.5733867873
  12.8006211012   19.5918634220    4.7178710128
   5.4463249413   13.3749131691   18.6254538066
  -2.0174687156   15.9501393361   10.9311149979
   4.4458690648   18.6600860164    2.9037499445
   4.8737515527    0.9211106549    2.1831978441
  11.4258541800   16.0643409839   18.6616766372
   6.3142851128    2.4992569626    6.2661650671
  13.4303990180   18.6006131944   11.4779036748
  11.7329534602   14.6936755676   10.0470089759
   2.9387642431   15.1870010899   13.5509388201
   4.6628711100   17.5794848941   14.1595172881
   9.3741441040    3.2037434121   15.5284023530
   8.9664100994    3.1746526787   17.9477680590
  -0.0873500885   17.6371263583    7.9505446894
   9.6132507459   12.6438653568   11.1379525056
  12.8877443588   13.9562625263    4.5885912189
   1.9179905470   13.5059278525    9.5770870931
  -1.9786239631   12.4185753614    9.2218627515
  16.0010405941    9.5006119621    6.9709188461
  11.0840720801    2.4705109465   17.0919531841
   4.1126723068    5.4988197164    6.5862971967
  -0.8766817019   17.6576640732    4.4500833890
   9.0612713619    7.1226457772    3.9712021769
   7.6445422931    6.5252555345   15.3236261004
  15.8348680641   13.2795593559    3.4339089094
   2.5085012844   13.5748016040    6.7233431833
   8.9812727830    7.4440379697   11.5827694278
  13.3578397413    6.7992244293    5.4254134055
  -0.7694482861    8.2689028327    3.1877461822
   0.0944377759    6.1974032855   12.1548230583
   8.1324656973   14.4304511593   18.1955106287
  11.0018842216    6.2737823137    2.1206038542
  13.3367572437    9.4896638267    3.7599386617
   9.3356220920   17.6574689306   12.5571446127
  16.2231157857    4.9253193285   11.3393945745
  15.7422503114    6.9292263345   12.6168663315
  16.8514216415    5.5293114222    1.9312028434
   1.9912581857   11.0679835443   15.4004424894
   9.6137340475   20.0135036077   14.5621623462
   6.2883053084   10.3552462777    5.3736354155
   8.4276903956   18.7735689602    7.2334679400
  10.2729584954   11.6772377442    0.8473660837
  -0.0033357921    9.7747917022   18.1629170431
   0.2291772254   19.0976730234   11.8358041153
   1.5587634086    1.5860967071   10.8505973927
  -0.6619228043   11.6082795018    0.4835071771
   9.0444150897   16.1477143794    4.5572672578
  -0.3361827446   12.9652015062   14.6773610804
   3.8426176660    9.6407414339    7.2899255891
