B2 C140 Ca1 F48 H298 O66 
1.0
1.7832686674415168e+01 5.8053266854702668e-16 -2.2625041058457414e-18 
-3.0496732723398905e+00 1.9245076106940658e+01 -1.6179070334412977e-16 
-1.6164823808149209e-01 1.4139572559606390e+00 1.9415324861641000e+01 
B C Ca F H O 
2 140 1 48 298 66 
Cartesian
  10.4205956800    3.8049363689   16.7575767977
  -0.8886332705    6.2960337101   12.0796298595
   0.0346257449    1.6344400061    1.5581841950
   7.2666881027   13.6592119899    7.3194984911
   4.7094992320    6.5813091210    1.0443863516
  12.8714584230   12.6619932160   12.3408738388
   4.4812979812    3.0062618952   16.4791439735
   2.3644358346    1.9634430986   18.1463495998
   1.5706475129    2.5664067033    5.5352997898
   2.7763980134    1.3162714426   16.8561033239
  -0.2933886184    4.0319720777    5.9205455945
   3.2092711089    6.4894672711   19.0577492168
   2.3296012531   17.4595820404   18.2242833392
   1.0273619096    3.7220802703   17.3298591047
  12.1147561195   15.9201205754   15.0592800340
   5.1974053428    9.9294528823    0.8124045939
   6.0113344603   16.9887826067    9.4011312025
  12.3759842735   11.8912707760   16.0439874010
   9.6130551926   11.9854944240    6.8448470171
   9.4363310564   13.4706289064    6.5535719159
  12.9752468071   11.7301304364   14.6405420598
   4.0260887782    7.9574664390    1.0064671142
  12.1135617559    9.5895416052   16.8049136123
  11.9197526815   11.8377001725    6.2769357447
  -0.0544918175    5.0324043827    7.0513917535
   0.7901832529    7.2562426739    6.7890918665
   4.7792962200   19.0961914397    9.6452287682
   2.0646041756   16.4375929139    1.1623684903
  15.9060642482    1.6998597818    2.8146034441
   3.8612879844   19.8853193999   10.6050082569
   1.2752508400   15.1706333471    1.4977733399
  13.2953416268   16.8842616654   16.7881215263
   5.4461989036    2.5108433243   10.7268575721
   7.3556046161   13.9591150589    2.9789800769
  14.8128825118    0.8400587072    3.2925039948
   5.9167583832   13.6767215618    1.0594772555
   5.7322596701   14.8787616389   18.9799695881
  14.9600076849   15.3514676579   12.1276737918
   1.9172186874   12.7935594354    1.9493739413
  12.9747388876   15.8010680687   17.9118106279
   5.9687161045   13.3951598602   17.1282251537
   4.9230045450   17.8625060369    3.8881124422
   7.2545184176    0.4422341052    2.6211914280
   6.3788353350    1.6232739481    2.6524926386
   4.3277635546    2.5186608797    2.0837058272
  15.1059609309   17.1024169164   10.3977418959
   6.9774086563    1.3509430019    6.7092878515
  12.3735618614   15.1390574529    8.8577454062
  13.6755052329   17.7434724995   10.3135977685
   3.6966897351   16.1569946427   11.9075625090
  12.9787190995   18.4019479693    4.3683675997
   7.7691866166    2.6189666937   18.1220310434
   8.0242229705    5.0865182347   19.0895644299
   8.2641273851    4.0556301386   18.0221558190
   3.9987321921   15.5398312438   14.1202569727
  12.1073682319   18.8472009249   11.5521748286
  10.2319139508   15.0191320483    9.8362007026
   9.6478866295    3.4944566788   13.1841296676
  12.0606255637   15.8184423093    0.0023268961
  11.9477630203   13.3938405501    3.2687335232
   9.6706009970   14.6786886061   11.2327537496
   5.4684157609    3.0560330727    6.2927492296
   1.4992648117   12.8734908730   11.1583588820
   3.7890953676   16.7755978801   15.0208197344
   0.1289304877   18.5287155878    8.6065018467
  10.7216825802    3.7215654455   14.3375769449
  11.7707359272    4.8310212374   13.9288020152
   5.4286323220    4.5072907989    5.8157347623
   4.6090058568   18.9825594341   15.0669653305
   8.7758381256   12.5628155991   10.7194907785
  -1.6014706227   13.5101999341    8.7381404666
  15.1810754750   11.3390697062    8.8950582209
  -0.6169202611   16.9225492792    6.8306259089
  -1.4694027406   10.6266542964    8.1655025385
   6.0119619790    6.7706462068   15.4497547335
  13.2556122321   15.1214788683    4.5442644745
  -1.4818595684   17.7866111664    5.9708146722
   2.9324329544   13.6933594907    9.3150883932
  15.9735386627   10.2636979848    5.8258423810
   3.8695031618    6.1911380546    5.3447470480
  12.0334546744    2.7143866267   18.2601084367
   2.3180940269    5.6646194562   13.3420157295
   9.0092880649   20.5306517945   18.5079694512
  14.4256644110   14.0093869001    5.0392379277
   7.2345916151    7.4963770418   16.1681779191
   2.8519926945   14.3857031284    8.0021009166
   7.5739299882    7.3389470798    4.1102359462
  -0.5202594655   17.8029702462    3.7362118979
   7.2637840232    9.0555025675   16.0905201226
   9.7634872790    7.5843793938    9.5416940244
   0.5397555266    7.6728536589    3.0046669398
  13.3714300616    3.4789616106   18.6015994918
   2.2929596517    6.0988415115   10.7487596848
   1.5216927560    5.7749794228   12.0696425614
  10.7869349074    5.9910829320    3.0569750205
   9.3526596239    5.9884114769    3.6678941793
   9.0515102480   15.7574416432   16.7599104551
   8.7538641556    8.3988006262   10.4206293661
  12.2747961806    9.4265501300    3.7206805857
   8.5172279971   17.8081778542   11.8556222703
  -1.3258089796   13.1228957892    3.9966831139
  13.9644472321    7.1598071811    6.0224476936
   7.2565279461    8.6821961169   10.0360736331
  12.3852733505    9.9148255928    1.4831865212
  12.0391391042    6.3332310964    1.1061318452
   2.8516424733   14.4450823051    5.6675484835
  12.7153564881    8.8394902171    5.0142193219
  15.9357933846    7.1937279147    3.1596830274
   8.1415952377   18.7094943406   14.0176839284
   9.6281856814   13.7661507639   17.9932303979
  14.9617295152    8.1480604364   14.4568081518
  16.0928897928    8.1986065321   13.3372438268
  15.5811182495    6.1926414110    2.0624429372
  15.2690032138    3.4381286544   10.9127282674
   9.1482876796   12.7743275998   19.1261149745
  15.2957714734    4.9664306569   11.1662452595
   8.8774221049   19.5277227105   15.0245785320
  14.6576476830    5.7182021030    9.9141235432
  16.1448753296    9.5369258485   12.5803654602
  11.3745678698    1.1706667203    7.1066167716
   2.6155208974   10.2950803317   15.6033365408
  -1.5869004349   11.6347706786   19.2306329939
   1.3119345493   13.6359408279   14.9697434575
  15.2884222041   12.0615946924    0.8123136774
   4.6801695047   10.9516035875    7.2907934619
   4.6748350236   11.1140523117    4.0550822119
   9.4135250860   17.6342758857    6.0948310648
   8.0109539618   18.2584664420    6.1087056927
   1.8373260655   12.4427839100   15.7134474043
  -0.6865159744   20.0099935215   13.1021518571
   1.1662382757    1.4042885563   12.4932264559
   0.9380579223   18.4392802244   12.5258034303
   1.9375748072    2.3145996479   10.4809391636
   8.8015600555   11.2016931172    1.9239907803
   2.5863409357   10.0948455307    8.3470616642
   5.6399750722   10.3446033916    6.2545080236
  13.8381580585    1.5343131142   14.7352532822
  -0.4817059834    8.8584556403   18.6364995606
  16.5885888627    4.6385081264    0.5097135773
  -0.9878713268   13.2711948189   15.5213551645
  -0.0846103648   11.2105998241   19.1238098466
   9.7848140460   16.6439399553    3.8468490961
   8.6833150830    7.0594211352   13.4638783663
   7.8165672083    2.1118749774   16.9034148326
   8.6848539200    6.2668179417   18.8270299926
   9.1964490361    4.5634032494   12.4598935363
   8.6166722784    1.8734218785   18.9002107954
   8.7224186906    3.2666532041    0.8815220420
   6.4664593695    2.5764499559   18.6856901011
   6.7760231109    5.4615127531   19.2628069201
   8.5446728079    2.9312568758   13.6787489086
  12.3539286854    4.4249704216   12.7732448643
  10.1889932660    2.5888623651   12.2706135391
  12.6628502232    5.0709578904   14.9266626665
   4.7473192310    7.0040227634   15.7568548560
   6.1972946729    5.4357887573   15.7512637784
  11.2242937604    6.2114652451   13.7776658058
   6.1468593714    6.8821738894   14.0039958789
   3.0572312781    4.5186342485   13.3308986263
   8.0421223904   19.7034830505   17.8582590147
   3.0808846280    6.7082801986   13.6415378662
  11.0088178232    7.7823828761   10.0760831695
   1.5626550107    5.8116876169    9.6232405240
   7.1116101624    9.4522609467   14.7675592658
   8.4166082999    9.4822479002   16.4374956882
   1.4911639004    5.4391198524   14.3661781891
   9.6622086909    8.0506983561    8.2737907746
   9.1495476861   18.9227778852    0.4043964208
  14.4387250907    3.4566180918   17.8266210064
  10.2945205262   20.0379771257   18.0883525685
   3.5028752216    5.4461260015   10.6987304193
   9.6635023661    6.2617921707    9.4874608353
   6.4861657140    9.0560082151   11.0286119806
  13.8914308632    1.6643928832    0.4537037140
  12.9984313243    4.8040733497   18.5748451840
   6.1829660748    9.6599477432   16.8684449971
   2.5246436943    7.4392043176   10.6825230172
   6.5487524246    7.6394900475    9.4361551881
  15.2184430327    9.2435971672   15.2953725527
   7.2671261672    9.7186805551    9.0594665354
  14.0238670725    3.0353740771   11.2936313179
  13.7106434624    8.1547843101   14.0665471105
  14.7175644860    5.2379742237    8.6722480167
  15.6520898287    2.9686607514    9.7305443925
  15.1962491557    6.9835265061    9.8003583877
  15.1922677631    7.0040923728   15.2195921448
  -0.9670323769    9.4376291705   11.4349234349
  16.0942039521    2.8077592669   11.8503040595
  -1.3589932432   10.4657372287   13.5143191928
  13.2900130618    5.7980266665   10.2008367073
  14.8545367765    9.9836951589   12.1345384240
   1.7646822426    1.3733288614   18.7640134239
  11.7381891983   12.7447421285   15.9136834594
   2.0847555931    1.9841155227    4.7461701534
   5.1662142986    6.6557280023    2.0685037964
   5.3003274856   16.5919613965    8.5891666329
   9.9410085919   12.0267455289    7.8861904201
   5.4262509561    6.4407493708    0.1706190661
   5.4738774790    3.0636575609   15.8476975262
  16.8630459168    4.4976027439    5.2466015435
   0.1752467543    2.6502491779    1.7796040611
   1.4147997961   18.0034187678   18.1089286494
   0.3258816096    1.4068837912    0.5187893403
   6.7939893258   14.2201567436    8.1992749534
   0.4783803217    4.4052050775   17.8506674573
   0.8805939353    1.0227053676    2.0352868366
  12.3866068422   11.7380830505   11.9514813818
  -0.4083008915   19.4750339302   16.8651159887
   6.9610003551   14.1939072295    6.4272267171
  12.9555020281   16.0028774416   14.3609618649
   6.0248911580   10.4199732564    1.2898156072
  13.9327939929   12.5092370293   12.3321583357
   2.4162529065    5.7498439890   19.1268495804
   2.6414626548    7.3076144291   18.6393010739
  11.7706734431    9.2442603805   17.7556588587
  12.1964575060   11.4059889809    7.2487597836
   0.9186597601    1.8823028398    6.1149748918
  17.2238342459    3.0990022711    6.4664946458
  10.5040572773   13.9301730093    6.4988237116
   4.6655350272    3.4511827520   17.4714935872
   5.3514968328   19.7892260708    9.0732129863
  12.0671737719   14.8707645343   15.5122136999
  12.7000543337   10.8556545340   14.1822556604
   2.1864735154   16.3700665234   18.0275220780
   3.0335600221   17.6711689073   17.4669643017
  11.2100921298   15.9686929044   14.5117952888
   6.8908191901   17.4583105838    8.9721935405
   0.4706533711    2.8653567915   16.9040726967
   2.7025156828   16.5818074248    2.0719345972
   1.4188803735    7.9228998115    6.2081271098
  13.0680088072   12.0611193744   16.8332089691
   2.3127480734    2.8994648754    6.2435161778
   6.4386965578   16.2432361008   10.0457251259
   8.6653370370   11.4245975264    6.6777495627
   4.4191666661   10.7613241956    0.8261186863
   6.9964132252   12.6061872590    7.2303490043
   5.3082801220   11.1536249425   19.1567461966
   3.9428702701    6.2530103946   18.2566514705
  12.4950631850   13.5486141817   11.8532064977
   3.3616279645    2.2040701870   18.5963165895
   3.7035408397    3.5256001955   15.9513329717
   1.4040598701    4.3379177291   16.4194113840
   2.2239444141    1.5186554641   15.9310813189
  16.4623291013    1.9218037717    3.7385043045
  15.7136783095    2.7249631061    2.5142469775
  13.1915141706    9.6464207099   16.8882561825
   3.0017264423    7.7946049965    1.5189916357
   3.7458277813    9.6434068091   19.3660926506
   1.5824559857    6.9858738886    7.6108166876
   0.7525018486    4.7374455777    7.7316462924
   1.4171444658   17.2970524595    0.9412764368
  12.6913566820   11.4320472657    5.6506904814
   7.4619576143    1.3224953283   11.3273142489
  11.9620999382   12.9127283543    6.3019227903
  11.8829714766    8.8413477187   16.0905301997
   9.0627619469   13.6674557573    5.5369839033
  14.0012139905   12.0465269915   14.6807783561
   4.0992488413   18.5487283583    8.9500251165
   6.8757817510   14.8480868410    3.3686005868
  16.8803499116    5.2644635618    7.6601245969
  -0.0693618765    7.7727768266    7.2223570135
   5.2841599871   14.6497049653    1.1677845314
   6.2948226269    3.2124234360   10.8926405729
   0.6213681941   14.6260999129    0.8122300104
  13.4676055301   17.9951228344   17.1763065467
  14.2510267803   16.5254257521   16.2938474974
   4.7015260041   15.1377728516   18.8421495866
  13.8677596653   15.2307263799   12.4932922658
   8.4181555109   14.0920909412    3.1027558887
   4.7368735681    2.9007616369   10.0045343605
   3.4005386166   19.0511329592   11.2731789025
   6.0073945873   12.3085973778   16.8202614902
  15.4343617183   14.3097033135   12.0828681415
  11.4657063749   19.2512951773    2.5837392368
  13.9748783391    1.5728697680    3.3620561759
   4.7309027719   17.1682206297    4.6701572188
   6.2675444522    1.2592382285    7.5328377948
   3.8901340993   18.9470966745    1.7762190721
   0.5363022986   15.5101419061    2.2564583316
   6.3778521064    2.3682296522    3.5510411508
   3.2520106880    2.3964187198    1.8940244333
  -2.1591634994   17.5199362117   11.2805573797
   0.9621190418   12.3991983342    2.1899100954
   1.9654046780   12.6288918082    0.8720916475
   7.0327361346   13.1379712593    3.7077103502
  12.9192020865   14.7797557653   17.5750884433
   4.9588286296    2.2878677699   11.7631386764
  13.8722206953   15.9688846616   18.5769939086
   6.9537569647   13.7337504966   16.7029239511
  12.0848411001   14.2001816863    8.3425117882
  12.7310756988   17.0299223551   10.3436927708
   5.4048573757   12.8435716831    1.5863096876
   2.9256506530   15.9787748809   11.0299764135
   5.9132690800   18.1567198257    3.9962752141
   4.6062838053   15.6075710215   11.5606929462
  13.4209168572   15.1937742551    9.0738060838
   4.6689432763    2.8753963527    1.1408956808
  -2.2660052048   15.9535977225   12.8256207268
   6.4308643070   15.6098036680   18.5352534755
   2.7216755702   12.3041445333    2.5603056599
   7.9951365921    1.1574157929    7.0529644479
   6.7349875521    0.5511858227    5.9145262738
   5.1147342311   13.8312553265   16.5867407243
   7.8778500012    4.4448847897   17.0766059480
  11.7810315042   19.9237853712   11.5819101668
   3.7515280650   14.6811650447   14.8139671487
   5.1618826237   15.4293486874   13.8929315267
  10.0671515043   14.0846211882    9.1456001045
   3.9033605318   17.2052577117   12.1368145871
   4.8731256804   17.4242963906    2.8649184950
   8.2457389183    0.8684626041    2.4698292195
  -2.2883296514   17.2220671938    9.3739680960
  13.9614137353   18.8990862536    3.9957322036
   6.6584223043    2.2995394041    1.8913189690
  12.7408778682   17.6113254898    3.6407201608
  13.1395434438   17.9078508606    5.3761267893
   4.4812311327    3.2686514354    2.9018159009
  12.0428183239   16.1465505642    8.1580305621
  13.5343691474   18.1738945834    9.3246271790
  10.6026628796   14.8307744743   11.9425661376
   0.3281682158   18.6636163973    9.7292623426
   2.0367268670   11.9174808203   10.9628454880
  12.4774818769   13.6710660654    2.2851146900
  10.9098287635   13.2283149535    3.0721213748
  11.5085178138   18.3649302302   10.7653953100
  12.2722374617   18.0800247307   18.8479771649
  11.1276257766   16.0994445698    0.4411140379
   2.0365774248   13.3069494981   12.0683624556
  11.8056543320   18.3938934530   12.5468356376
   0.4948709815   12.5947861383   11.4225486588
  12.3321199899   12.4467796548    3.6694842799
   4.8053673435    2.3520492994    5.7052934471
   9.9520492271   15.9145455233    9.4198771867
  15.5061747691   13.6706337758    7.9399759651
   9.3046362037   11.7189769802   10.2685347047
   5.2028316957    3.0577423930    7.4070012618
  12.7758273069   15.5574765714    0.7518957220
   5.9062082193    4.6708092338    4.8363530685
   5.9253697138    4.9773294977    6.6250250501
  14.4517165526   11.6209182602    8.1630520733
   5.1303993901   19.6893802816   14.5318049663
  -0.0909455993   19.4858650598    8.1496840865
   1.0881222391   18.2004078640    8.1693524632
   8.6865825496   15.2067302641   11.5187354209
   4.0498711946   16.5299758369   16.1571957809
   2.6890864896   17.1582210236   14.8312077398
  -0.6567536017   13.1966842404    8.2344885725
  -0.6953015174   11.3615719410    7.8380656310
  11.3083549397    2.8063817600   14.5147741526
  13.6662696449   15.4214117416    3.4757405449
   4.7386995931   18.9107083360   16.1438624509
   8.3450803231   13.1714090783    9.9147272557
  15.4270173104   11.1858100697    5.6109645205
   3.6066567139   19.2670865672   14.8939034497
  -1.1868521891   18.8515609257    5.8879932349
  -2.5083578292   17.5870603093    6.3252633108
   7.9588571766   12.2023546360   11.3699684747
   3.1968849320   12.5840132261    9.1973633103
  -1.4482394843   14.4471331015    9.3279496838
  13.1206123058   15.9395514892    5.2472963923
   3.7520493246   14.1595391801    9.8957983779
   0.4094339863   17.1275710234    6.3609102866
  11.3611503936    3.1155915025   19.1160459081
  14.6788277751   10.6872368141    9.6084906909
  -0.9322579186   15.8194469169    6.8533087166
  15.7547130555    9.5189192123    5.0907130993
   4.6167997817    6.3482129431    4.5470491375
   7.3302283390    8.3534063393    4.1818517856
   3.8428251313    6.9377235690    6.1793828113
  -0.8652555907    9.9914078438    8.8285825527
  14.1051291386   13.2793612984    5.8547316360
   0.6022105460    6.9935305928    3.9284880504
  -0.7208840326   10.4438562173    5.6428147736
  -0.4945744790   17.2297103747    2.7524899826
   0.5122511552   17.7261148171    4.1305627301
   1.9507916545   15.0516659656    7.9330026659
   0.9150809386    7.1579426512    2.1381037676
  15.1057012386   14.6664789345    5.5069702636
   3.6839705876   15.1067907505    8.0143580308
  11.5704228897    6.5364959728    3.5960988609
   7.2011435579    7.2767851440   17.1872664146
   2.9197632199    6.2982213986    4.6925179709
   1.1452804050    8.5851915454    3.1466098136
   6.7436515657    6.8144902536    3.6675896387
   8.4464687564   16.6745150803   16.7380190229
  11.0799834035    4.8958972957    3.1660958596
   7.5611538265    6.9679555161    5.1958605862
   1.1161829233    4.7466668936   11.9616247637
   8.3307545542   18.8361820949   11.5249129822
  11.6474296900   10.2899981514    3.9026441650
   9.0062035253   15.2735231446   15.7593349194
  13.4746274701    6.8385999767    6.9284446106
  11.4563281958    8.5955879226    3.3735399951
   9.3545683383   17.3781278164   11.3671535196
  -0.8451680970   18.8115707032    3.4825586280
  11.4487596710   10.3522258577    1.8235516321
  12.7345123049    6.8020125966    1.7674167975
   8.7700177382    5.1056347002    3.2732079526
  -1.0844430290   12.5797280655    4.9283816599
  12.0038492481    8.9704306863    1.2091393610
  12.2410896948    5.2770133221    1.0716817756
  10.0691418630   16.0482286413   16.8313310518
   9.3472103074    5.9408354762    4.8180018804
   7.6183893577   17.2856361563   11.7987297552
   1.8745943773   14.7484473605    5.3488086558
  -0.8039506376   14.1230456897    3.8169224975
   9.2541010458    9.4133497487   10.4231511145
  14.6447255411    7.9618754367    6.3355182846
  -1.0087250261   12.4273917391    3.1621588941
  15.1428779150    7.9248331923    2.9350162397
   3.3631233741   15.5001308033    5.9169927512
  14.5112318611    6.2457044594    5.7628764934
   7.6119893743   19.5693751235   13.3829831656
  16.0836731803    6.6463518630    4.0812338149
  11.7568561657    8.7219459802    5.5811247615
  13.0267804145   10.4802086388    0.7704011519
   3.4661061704   13.9959200953    4.8735497010
  13.3654022660    9.4287736509    5.6160866132
  11.9506313540    6.7413623420    0.1236847400
   9.7722866267   13.3207421786   17.0114608826
  -0.8537099059    8.1790774154   14.0104871251
   9.5656239961   11.8139795842   18.8885065517
   7.4012485563   18.0294688105   14.4331898450
  10.6036965473   14.0968711463   18.2185325520
  14.8465014311    5.5018664236    2.4234012303
   9.6924101105   18.8217588269   15.4115468095
  15.1712708834    6.9330787688    1.3104982910
   8.0321403547   12.7127611661   18.9521833073
   1.9785379059   10.1102256015   16.4847220769
   1.5019817836   14.5398018080   15.5834945399
  10.2907941468   18.2968029663    5.8826470746
  10.5726011027    1.7240048201    6.5316290376
   5.1968482930   11.1061998419    8.2843937177
   3.8256177201   10.8198019372    4.6500647336
  11.5314103372    1.5292503784    8.1683855057
  15.8049266239    9.7218209238    0.5777272353
  15.7336273693   11.6454218771   18.2167579913
  14.6010111743    5.2540236435   11.9085741362
  15.4979867463   13.1310342577    1.1053222896
  14.4590286531   13.4525843355   19.2961948146
  -2.2255369593   19.9801500475   11.7140559350
   3.0192478327    1.4189635588   13.6146778313
   0.4592673100   17.6384596329   13.1194313834
   1.3152234735    1.6511191781    9.7909852145
   8.1894003769   19.7064104370   15.9245652236
   4.0902797241   11.8427631475    6.9662602229
  -1.9869988767   13.8320621682   15.3269618141
   9.5204655154   17.6703178559    3.5666865451
   3.0301049294   10.3188450602    9.2828909903
   2.6124624414    9.4493594025   14.8550954342
   7.7993361140   18.9214109611    5.3085866076
   0.1167849390    6.9832382300    0.0918288893
   1.9040980256   13.7371728275   14.0143915312
   9.0576761119   11.5775552948    2.9964474604
   1.8434324095   10.8949224079    8.0264137431
  11.3285893784   19.7731717883   14.5151513088
   4.6920375501   11.9761372816    3.5248814103
   2.8677273327   12.8545874630   16.1636579099
   1.6342999204   19.0686419468   13.1211759686
   2.8329715260    1.6641716193   10.6598346847
   9.7375324941   17.2101522272    7.0562389130
  -1.2912861799   12.2438362500   15.6198082934
  15.8329395618    3.7687879973    0.8233878493
   3.6662701261   10.5798538717   15.9544773635
  14.8542252984   11.2854906451    1.5263589111
  12.2472052467    1.1263615971    6.5001479471
   4.5386749888   10.3149972521    3.3109875521
   8.7319381747   10.1033801510    1.8981562118
  15.9970581355    6.7268852258   19.0122771602
   6.6271878346   10.3596211982    6.6928976241
  14.4260047503    2.1066800792   13.9576717075
  -0.4039967302    8.2000719174   17.6590792072
  10.8297973292   16.4996902059    3.7942525567
  16.3028256464    9.0352096945   18.8254580070
  -0.9838713198   19.1550547351   13.8338064015
   0.2945626327    1.5722959514   13.1723529373
   1.3874782683   18.0520422009   11.6887513280
   2.1740133150    3.1983846435    9.7615564732
   0.5449790061    9.7935891956    0.7648438285
  -0.2837111443    4.2729663444    0.2660419746
   0.3678731201   11.9706430329   18.4908399247
   1.2491061679   12.3887531643   16.6160425906
  14.1251050363    1.7726416665   15.7337674576
   9.2086866273   16.0457969371    3.1380228812
   2.1471401710    9.0813383531    8.4600300761
   7.2697681003   17.4993121116    6.2270868904
   5.5613303965    9.3248288140    5.9202087571
   7.7819791058   11.5147922359    1.7548610958
  -0.7798273051   13.7301470367   16.5324535013
   4.8688673489    8.8687446886    1.6374555619
   8.6737825870   13.9749106645    7.6303342360
  12.4573534130   12.8932877138   13.8056252442
   4.2242865647    1.5770218164   16.5090283988
   2.0115106938    3.3121635660   18.1546008911
   0.2882006526    6.1953623430    6.1675143073
   3.9013725305    5.3871259520    0.9289129799
   0.8142010923    3.7004302088    5.0557490599
  10.5862243070   11.4807396757    5.9664687736
   5.5579704543   18.1195459650   10.4193315362
  16.6620691881    1.0338685928    1.7371401933
  11.4810670300   10.9073340539   16.4530562899
   3.0646045802   16.3525157250    0.0807872994
  12.2084513321   17.0802286741   15.8404272257
   5.7786478028    1.3354561768    9.9673966553
   2.1267197157   14.2579966556    2.0782634139
   7.1814422101   13.7507544158    1.6542930226
  11.9548242886   19.4051818162    4.5057764532
   5.9735144525   13.5524918077   18.5402960227
  15.1127075818   15.6419897660   10.6906353717
   4.0308421050   18.9933039114    3.8187466301
   4.9826250767    1.2889070052    2.4261392392
  11.7286896547   16.0772942504   18.5970847904
   6.8576027273    2.6538219816    6.2200332083
  13.4822531191   18.6388008326   11.3339137261
  11.6624999269   15.1866663871   10.0470253761
   3.0143176394   15.5470764476   13.1238103749
   4.7420608701   17.7353020012   14.4731420295
  10.0341428216    4.2696611319   15.5249858723
   9.6761496569    4.0697606288   17.9576215827
  -0.7589631882   17.4875379141    8.2685377013
   9.5736817556   13.2891567948   11.5754504238
  11.9629116833   14.4848463350    4.2818582562
   1.6657826048   13.8158711588   10.1058082331
  15.7303188696   12.4331482141    9.5210487695
  15.8359418946    9.7493010544    7.1394062983
  11.5719647912    3.0043092530   16.9612433341
   4.0793593879    4.8574996301    5.8327000635
  -1.5996930856   17.2055330334    4.6429380282
   8.7820137364    7.2995858290    3.4516239042
   8.4001664236    7.0273760982   15.6770065232
  15.0822685325   13.2593809155    3.8941906233
   2.9163846436   13.5978449731    6.8207984302
   8.7943261962    7.7992275722   11.6530913026
  13.1694631307    7.5174229899    4.8156029452
  -0.7943271316    8.0459013092    2.8570792409
   0.3997859408    6.7184928851   12.1312924677
   8.6303250722   14.8919766706   17.8252241039
  10.7320378192    6.3948676755    1.7047733238
  13.2024487971    9.6275919920    2.7036900833
   8.9884807523   17.8609426691   13.2196828127
  16.6534045575    5.2147772503   11.2808772226
  15.9042636731    7.0911233958   12.5485058061
  16.7504166393    5.3879615475    1.7224780830
   1.9106162816   11.3831452149   14.8665635920
  12.4285501845    1.4378764686   14.4731115213
   5.7147428597   11.2143409278    5.0954266635
   7.8719080912   18.9916966757    7.2857847224
   9.7925929152   11.7294104364    1.0132236943
   0.2915041051   10.0166980578   18.2885935589
   0.1048579707   19.4113136303   12.0681295772
   1.3688666728    2.6607697895   11.6724119426
  -1.2825797126   11.5312325391    0.3220753923
   9.4173675062   16.4469668674    5.2374153607
  -0.0194355521   13.4365265983   14.5079265316
   3.6713910805    9.9457383602    7.3724836262
