B2 C140 Ca1 F48 H298 O66 
1.0
1.7850775609097138e+01 -2.0269516946085491e-16 6.4129557900300496e-18 
-3.0857012241643997e+00 1.9427274582779297e+01 -4.6999857842633511e-16 
-1.6115409686447721e-01 1.2172444262649005e+00 1.9568291057450523e+01 
B C Ca F H O 
2 140 1 48 298 66 
Cartesian
  10.5384698020    3.5621523666   16.8004971259
  -0.8581258250    6.3008801856   12.0034912268
   0.3316695183    1.6446721987    1.6482955135
   7.0886698612   13.7626907266    7.5849450332
   4.5686628516    6.6346112455    0.9395398737
  12.6333247173   12.6036393765   12.6247177446
   4.3727301096    2.8185117286   16.6954200993
   2.2588412719    1.8208991974   18.3588751268
   1.8082010446    2.4606262238    5.7457575130
   2.7966833838    1.1158055197   16.9903338027
  -0.2088003664    3.7783536494    6.1028117363
   3.0361931341    6.4071153808   19.2283156518
   2.2825178360   17.7246562924   18.3192915617
   0.9931437428    3.4700994761   17.3853740960
  12.0831618005   16.0529174462   14.9002513131
   5.4645151509    9.9674051142    0.8995954309
   5.8784251616   17.2178722713    9.5139665335
  12.0811917881   11.7002905525   16.2493767017
   9.6618472956   11.8731934763    6.9003563887
   9.3883546070   13.3773459727    6.7619948212
  12.8645995895   11.7449256732   14.8763997546
   3.9683113660    8.0482837100    0.8534516158
  12.2093350632    9.4730665859   17.0490920660
  12.0397483301   11.9091035576    6.5568273914
   0.0568864246    5.0456439715    6.9911521841
   0.5749106637    7.4866141407    6.8665430249
   4.7940037830   19.2679126964    9.6794758709
   2.0400450453   16.6329681506    1.1926968637
  15.9544250774    1.7995301844    2.7030400008
   7.1946955929    0.8114693328   10.5618483496
   1.4260073833   15.2921465407    1.4848854400
  13.2316912517   16.9509485706   16.8333835402
   5.5230391275    2.3316404292   10.6023113705
   6.9310776104   14.1100008103    2.9126868194
  14.8082754299    0.8481061005    3.1983587929
   5.8456898839   14.0366611807    0.8482366231
   5.7101800888   15.0642277644   18.9837557772
  14.8325617841   15.2897121014   12.1832082986
   1.8768317169   13.0306331554    1.9871880283
  13.0201123834   15.8620409947   17.9152104462
   5.9645511743   13.2812813347   17.4178633128
   4.8065286930   17.9178633195    3.9184457149
   7.2570219777    0.3182637092    2.5324197161
   6.4699913945    1.6956278158    2.5858951535
   4.2920284472    2.6535137239    2.1698689327
  14.9592783308   17.0857783324   10.5277254651
   6.8604687790    1.3448893390    7.0081195885
  12.3160119410   15.0620195902    8.7182786850
  13.5373569252   17.6834929496   10.3835674745
   3.6342022500   16.3715496127   12.1267211273
  12.9824674255   18.5394821973    4.4104000209
   7.9676575440    2.3999244335   18.3108558480
   8.1889888216    4.9721799752   19.1988651218
   8.4213462138    3.8602269805   18.1411620360
   4.0601485670   15.3658621783   14.3388801713
  12.0097488167   18.9612960680   11.6646865816
  10.1921611221   15.1112674886    9.8701956893
   9.7344290378    3.3708350794   13.2811380349
  11.9283693812   17.2453876009   19.5501140461
  11.8831265075   13.3215944627    3.3127810569
   9.5407048064   14.7538652172   11.3200756089
   5.4183654933    2.9408103827    6.0965980072
   1.3615097370   12.8550614070   10.9918772386
   3.9606015216   16.6041837484   15.1681812277
   0.3143990492   18.6614335784    8.8012146862
  10.6845979259    3.7350578384   14.3823372621
  11.7137228363    4.9168606426   14.0304555865
   5.3324554715    4.3829881552    5.6740179295
   4.7106566221   18.8393478878   15.1567283330
   8.6288623236   12.6494091752   10.8941755371
  -1.8235636405   13.4658281477    8.8507072247
  15.2966743170   11.1864409578    8.9074358923
  -0.5221511671   17.0733313719    6.9402098623
  -1.3823312251   10.5014288922    8.0893677951
   6.1237300918    6.7049155941   15.6475062066
  13.3079909469   15.0997012138    4.4568281164
  -1.4738421417   17.7679029230    6.0215334262
   2.9500261529   13.6381352299    9.4629372196
  16.0293877732   10.1643187272    5.7950153458
   3.9110426546    6.1448241935    5.3478549027
  12.1217133827    2.5734310301   18.3844319404
   2.2097255810    5.4304296976   13.4758869631
   9.0223010545   20.4184712630   18.7467472379
  14.4410725587   14.2561282458    5.0746854282
   7.2937439569    7.5073195686   16.2987256305
   3.0010773281   14.5313438983    8.1848652335
   7.5554844510    7.4293864517    4.1554699409
  -0.5938942397   17.9266499351    3.7775559423
   7.2408275614    9.0245806378   16.1920754742
   9.7135053477    7.6218494055    9.5434945832
   0.6356039207    7.7028416688    2.7977614753
  13.3070797539    3.4233646496   18.7390746416
   2.2387075852    6.1757094007   11.0336423446
   1.4678498494    5.7234082376   12.2314075986
  10.8847018161    5.9351909041    3.1561161309
   9.3171212479    5.9957311934    3.5410687951
   9.0656769655   15.7170066840   16.8782965722
   8.8127875576    8.3630119688   10.5336212928
  11.9796700453    9.5307361172    3.7610517315
   8.4484953191   18.0276214272   12.0819697879
  -1.4351700868   13.3928068249    3.9565664837
  13.6312822107    7.0639992621    6.0778363658
   7.3535215130    8.6740924521   10.0350858295
  12.4033691714   10.1018508342    1.4168064290
  12.2291656358    6.3101184458    1.1990386836
   2.8963204756   14.5225005786    5.7796421440
  12.7364125114    9.0264626002    5.0286063766
  16.1659956748    7.1119679767    3.0271038036
   8.0184790807   18.7259265564   14.2852372560
   9.7984227984   13.6847630219   18.2151807973
  15.0524552201    8.0020398999   14.6189661020
  16.1618290843    8.0969520269   13.5641916122
  15.6055129040    6.2873126294    1.9656605253
  15.1599962928    3.3366805133   11.0602836540
   9.1761713174   12.7559730451   19.2227058604
  15.2647980154    4.8565088267   11.1555768328
   8.7341705682   19.5677875104   15.2518619552
  14.6792520156    5.6875189660   10.0117173595
  16.1197236516    9.4093125406   12.6849446363
  11.5738080701    1.0027232942    7.2150988768
   2.5567919179   10.0881684953   15.7991741875
  -1.5439611196   11.5835482923   19.5644420475
   1.2152063658   13.5920975684   15.2301665287
  15.0963521779   12.1656083818    0.8041343627
   4.6421377787   10.8041883002    7.3441658699
   4.4136959596   11.1409044873    4.3438147148
   9.4988030270   17.8606370811    6.2514350177
   8.0193708914   18.3122649577    6.3013046552
   1.7365269489   12.3195267467   15.7975399040
  -0.7348824271   19.9491730455   13.1621836964
   0.9943910515    1.1630919906   12.6259679594
   0.9743397408   18.4744302673   12.8303972978
   2.0451668886    2.4383696850   10.8556869548
   8.9346867716   11.2707355072    2.0537287608
   2.7894193717   10.0025979505    8.5004223706
   5.5712780731   10.2853088895    6.1320771262
  13.9160853444    1.5619855253   14.7908001057
  -0.5491270143    8.7852882873   19.0425584571
  16.3688820734    4.6054225744    0.3925536440
  -1.1888295630   13.3270238749   15.5001434728
  -0.0559300691   11.2392880394   19.1912928521
   9.7984079244   16.8171707947    3.9613738828
   8.8086912261    6.8575657193   13.6731223616
   7.9673833814    1.9131263863   17.0283780973
   8.8475960598    6.1541848102   18.8048828684
   9.1295508151    4.5248830667   12.6796792039
   8.7065671060    1.5909451933   19.0857138299
   8.8337314103    3.4197528232    0.8198483969
   6.7373784271    2.3490138582   18.7894939728
   6.8472153848    5.1840901217   19.3783229382
   8.7930777858    2.6481695043   13.8548219674
  12.3882989861    4.5542858742   12.7917584372
  10.4003905293    2.7587682408   12.3102148551
  12.6644465427    5.0002290921   15.0154374918
   4.8842307653    7.0847145950   15.9279197882
   6.2979559691    5.2847666503   16.0872983517
  11.1514138380    6.1544600341   13.7236278513
   6.1988318607    6.5757675467   14.3010585015
   3.0426672303    4.3863769812   13.4027874447
   7.9699500593   20.0062960847   18.1447650526
   2.9582747202    6.5050337930   13.7471775403
  10.9859015444    7.8561052662    9.9614398888
   1.6210633711    5.7714770340    9.9332517369
   6.9005910429    9.4285670055   14.9659015544
   8.3664367804    9.7129020923   16.6520771593
   1.2426140194    5.4006580007   14.4378544814
   9.7712630104    8.1520506044    8.2651837872
   9.0219436888   18.9271067646    0.5007684285
  14.3864333340    3.2855882378   17.9676655746
  10.1955153343   19.7668825437   18.3375896134
   3.5203541731    5.8354279152   10.8913729801
   9.5789245337    6.2745364495    9.4122257823
   6.6491058271    8.8932188964   11.0938001201
  13.7707615609    1.7666173696    0.4134109367
  12.9489328136    4.7153955285   18.7909698327
   6.2853243207    9.5688885515   17.0670271112
   2.2659775859    7.5336007602   10.9846986585
   6.7030447240    7.7635763505    9.1900581328
  14.9394148811    9.2059389871   15.2106569065
   7.2777341997    9.9276747794    9.3250131918
  13.8707026068    2.9053692897   11.1965610733
  13.7663918771    7.8691463127   14.0609406481
  14.6215083159    5.1011623635    8.8059386757
  15.5801692424    2.9119109895    9.8279993016
  15.2897970066    6.9388129859   10.0499066838
  15.3303255290    6.9532601457   15.4876362978
  -0.8997955457    9.3591037341   11.5726298006
  15.8826697960    2.7919392368   12.0045260177
  -1.2930475044   10.5569799269   13.3112426081
  13.3172723072    6.0063941098   10.3470343305
  14.8502586051    9.6562558270   12.2541038993
  -1.7601795463   20.5027256238   18.5868180615
  11.3941227973   12.5668067469   16.0743401117
   2.6643561288    2.3816569995    5.0112554344
   5.2945575955    6.6775103412    1.8176966122
   5.2445888453   16.5900158751    8.8686292527
   9.7906760892   11.7057119812    8.0339480639
   5.1750546558    6.3573766697    0.1175721095
   5.4632867618    2.9668839067   16.7129768127
  16.8832669890    4.0411747589    5.3262457114
   0.4943011463    2.7456568623    1.8859163862
   1.3639939129   18.4202353147   18.2775164101
   0.7721188382    1.4837556474    0.5422749119
   6.7788602669   14.2050468451    8.4759548010
   0.8448054722    4.5676765095   17.5034759700
   1.0706513938    1.1474135086    2.2631174656
  12.1547539687   11.8252973153   11.9159246633
  -0.4006871034   19.4456661781   17.1045379174
   6.6753202507   14.3957447016    6.8237316513
  13.0429333528   16.1713850961   14.3718780461
   6.0645187024   10.3380118107    1.7555889082
  13.7447392714   12.4626996714   12.5414392762
   2.0400803432    5.8863644688   19.2788571986
   2.8300500325    7.3362050317   18.6882006085
  11.6188341764    8.7858741918   17.6663930827
  12.1166272523   11.9051189216    7.6784682671
   1.0916758033    1.5423490617    5.8314656624
  -0.3588538871    2.9164496884    6.7862793906
  10.2765979298   14.0005179571    6.8177066295
   3.8419205473    3.1578403408   17.5524228910
   5.7674826453   19.8119671842    9.2914992039
  11.9280855150   15.0147808640   15.3832552269
  12.7522133855   10.6542752386   14.4075564324
   1.9774336286   16.7230966481   18.0063794547
   2.9404946765   18.0031005552   17.5243627413
  11.2007653304   16.3673481592   14.2678565807
   6.5419923950   17.9794075339    9.0835675143
   0.1380021956    2.8270753824   17.5930137547
   2.7365848121   16.8963354237    2.0786302976
   0.9958062801    8.1896984743    6.1061905660
  12.8544332638   12.0475178838   17.0102688630
   2.1990777402    2.7247296681    6.7283426172
   6.6418515471   16.6587471236   10.0407875159
   8.8438963258   11.2921084908    6.4531610328
   4.8204402695   10.7402215380    0.5296467889
   6.5675078191   12.7229435288    7.4857672354
   6.1340311759    9.5530927611    0.1574633875
   3.7685538935    5.7835980192   18.7319906715
  12.3509961269   13.5933133486   12.2271049724
   3.0141842680    1.6294164830   19.2166550023
   3.8652790074    3.4569616292   15.8973158630
   1.4082224022    3.0966069383   16.4008407476
   2.1254546320    1.5282304219   16.1887488704
  16.4470681249    2.2605650780    3.6846034841
  15.5419594274    2.6963246760    2.2220301190
  13.2315333494    9.9562785317   17.4257239246
   2.9670691636    7.7941135869    1.2067451640
   3.7672530358    9.5110193438   19.3624385333
   1.4452069004    7.2954016823    7.4610441828
   1.1562857269    4.8439209937    7.1840606692
   1.3006054918   17.4502026210    1.0467164063
  12.8281551022   11.2170953852    6.1763225117
   7.9283322232    1.5030910152   10.9900509878
  12.1416661943   12.9356446345    6.1851349213
  12.5479312078    8.7937113641   16.2275388144
   8.9378491130   13.5886171374    5.8040453578
  13.8490681519   12.1439705037   15.1079921450
   4.2187099526   18.8039029894    8.8246765589
   6.0122980341   14.7892525025    3.0163787429
  -0.5121586440    5.1540127855    7.9823427373
  -0.2314349783    7.9903760080    7.5140013137
   5.4608431625   14.9743742127    1.1402707756
   6.1174874712    3.0681305694   11.2234831847
   1.1006827770   14.6866745775    0.5768185247
  13.3675701451   17.8358363325   17.3665405257
  14.2388916470   16.6730307794   16.4477490149
   4.7332035909   15.5409517104   18.5849565488
  13.9123977491   15.2725827792   12.6646335887
   7.8735618655   14.4949328441    3.4777548514
   4.8736466784    2.8744153308    9.8767726858
   3.5936410118   19.7215854656   11.2959773672
   5.4526723328   12.3155933639   17.3037246431
  15.2298523632   14.3131679477   12.1241644963
  11.5717849653   19.5214277315    2.4334828369
  13.9630938229    1.5161778223    3.3346437000
   5.0930857099   17.6168573638    4.9718459817
   6.5715809910    1.4975187385    8.0556455949
   3.8270143760   19.1290271975    1.6499495830
   0.4317948474   15.2749244777    1.9378620200
   6.7901924688    2.3391090940    3.3907275973
   3.1673082955    2.6111382532    2.2304141439
  -2.1615591750   17.5057697378   11.2099288572
   0.7385540226   12.8700598100    2.3426086608
   2.1927157921   12.8757095342    0.8917322658
   6.6374382666   13.2270931309    3.5020936416
  12.7999860901   14.8144160830   17.5221992751
   4.8872273033    1.8560459152   11.3198200566
  14.0125027951   15.7844066907   18.3921932084
   7.0351875295   13.0835558650   17.2415625092
  12.2537880440   14.0083026496    8.2278022633
  12.6919061395   16.9632274833   10.3167434191
   5.2478897669   13.2699237343    1.3382060962
   3.0078535083   16.4160011430   11.2829671397
   5.8899250918   17.9808279242    3.3639630967
   4.6679949533   16.1472352828   11.6682343193
  13.4231179163   15.1280045723    8.9393557325
   4.6354608351    2.9373769280    1.0918526952
  -2.2993285999   15.8908491354   12.8898628016
   6.5660700406   15.7079758349   18.6546589216
   2.4518948954   12.3084078749    2.5411097104
   7.9228826295    1.1310684938    7.0069441923
   6.4151570863    0.6349209250    6.3749334477
   5.6344574479   14.0380384595   16.6320060209
   7.9294398287    4.2745596879   17.2788433563
  11.8639964207   20.0344438031   11.7038113302
   3.5408035356   14.6087736090   14.9010471736
   5.0675716927   15.0990809575   14.1114165517
   9.8882735882   14.2695185444    9.3177216925
   3.7505951208   17.2674853104   12.7019245946
   4.3363689595   17.0832300143    3.3984270216
   8.5132783973    0.4839553473    2.3252720655
  -2.5062770647   17.1040469354    9.4697499085
  13.8791814739   18.8517401247    4.0251683782
   6.7481693586    2.2314807716    1.5770541096
  12.7141889330   17.6168642250    3.8779185272
  13.1313153336   18.3591915521    5.4589846122
   4.5776062184    3.4665606916    2.7620823385
  12.1716142444   15.8397395749    8.0279637866
  13.5073459870   18.1506212474    9.3293809477
  10.0394687892   15.0890502153   12.1683408777
   0.4852564887   18.5971902086    9.8935014161
   1.8598333459   11.8876394763   10.7931232948
  12.5476448609   13.5048950272    2.4966912589
  10.8095188603   13.4309156719    3.1491385706
  11.2310173978   18.4475306283   10.9922721242
  11.6432091524   18.2710661947   19.1533343657
  11.3588984027   15.8773840612    0.8388255880
   1.8193570150   13.3220042192   11.8883709657
  11.6162104596   18.6799284698   12.6232115056
   0.2731992052   12.6240730111   11.3058688144
  12.0004725163   12.3073010861    3.6969698804
   4.9948454272    2.2480154752    5.3315259268
   9.9305907274   16.1598966690    9.4783046589
  15.3729896030   13.5327088860    7.9544896795
   8.8704547187   11.6172456765   10.5364186835
   4.7563741611    2.7776852265    6.9561413214
  13.1117344926   16.0627809112    0.5407676794
   5.8501553063    4.6415160354    4.6978668840
   5.7987775710    4.9288778037    6.5299003559
  14.3907173762   11.4131851899    8.2726666746
   5.5011451541   19.5588708100   14.6767534547
  -0.0361485582   19.7288317058    8.5562655193
   1.2013302985   18.4621557912    8.2407362454
   8.4694742281   15.0386768500   11.3326636288
   4.2418331481   16.3876614945   16.1804820632
   2.9259213645   16.9210906304   15.2746814374
  -0.8389166329   13.2364504932    8.4651940547
  -0.6439723105   11.2080518449    7.6846530382
  11.3805354017    2.7749944914   14.4245436932
  13.5897491617   15.3530933457    3.5324382355
   4.7978040549   18.8791584539   16.2853784361
   8.3210547942   13.1404198601   10.0057884672
  15.6551802762   11.2269019656    5.5794683449
   3.6795643508   19.2454522252   14.9034542199
  -1.3924379981   18.8742586471    6.1672929050
  -2.4799370886   17.5106542796    6.3837056390
   7.7674855306   12.7735953870   11.5708039006
   3.2211929554   12.6405728351    9.2012138109
  -1.7675598368   14.4475845417    9.4265676324
  13.0594181095   15.9516717812    5.2083874584
   3.6498024320   14.0895216913   10.1336620685
   0.4261527347   17.3547226911    6.5052008339
  11.4506347418    2.9724320151   19.1234155336
  14.9611913894   10.3987538557    9.5716139895
  -0.9020033958   16.1272249552    7.1915079769
  15.4693258714    9.4724032208    5.0894832582
   4.4581459771    6.3589454717    4.4292654060
   7.4943718059    8.6002840299    4.1610359105
   4.2069445388    6.7944141629    6.1649524536
  -0.8548346565    9.8253143405    8.7452259129
  14.2841118524   13.6646413663    6.0276770824
   0.7297330588    7.2542588329    3.7863749445
  -0.7564038016   10.0847560863    5.6486399475
  -0.5866707290   17.2645465646    2.8184279557
   0.4066202502   17.8879656079    4.1951006858
   2.0391174463   15.0049537270    8.1567804194
   0.8779628772    6.9980050371    2.0298845375
  15.2091550391   15.0408336720    5.3558236192
   3.6009831492   15.4386018969    8.3860157134
  11.5151077411    6.6218674652    3.8377848060
   7.3234888986    7.3495461904   17.4543835102
   2.9180516731    6.5772016852    5.3598635524
   1.3026826493    8.5432560149    2.8238603148
   6.7074547973    6.8578327713    3.6275571928
   8.1982716010   16.3620564557   16.6821656029
  11.2175281650    4.8988813499    3.0839771796
   7.5696654516    7.0341755380    5.1650339337
   0.9806036422    4.7176007693   12.1014009783
   8.3389830201   19.1305191610   11.9106623948
  11.2850501232   10.4053097820    4.0394228163
   9.4934468535   15.1180045623   16.0286525802
  12.8807010868    6.8815834892    6.9318583121
  11.2580902060    8.9307909677    3.3442490281
   9.3629851251   17.6700425678   11.4815672754
  -0.7714153481   18.8845815612    3.2263337585
  11.6374018552   11.0058261795    1.5216651700
  13.1156784000    6.9370270106    1.6284377805
   8.7386150290    5.1824712757    3.1859062352
  -0.9270462131   13.2450210345    4.9229647613
  11.8968446141    9.2073495472    1.0224522767
  12.3901421458    5.2056726877    1.1574472953
   9.8481074217   16.4847169706   17.1313326402
   9.2826932687    5.7482769108    4.6374304744
   7.4736380118   17.4573226263   11.6953540421
   1.7715961935   14.6640553174    5.5806890560
  -1.1066526650   14.2716205473    3.4558245349
   9.4466060909    9.3040607798   10.5768527113
  14.3601156055    7.7349606654    6.5585652745
  -1.1038845452   12.4554936011    3.4889025402
  15.3272137750    7.6763334612    3.4788288500
   3.2567653021   15.4957089684    5.8942000650
  13.9298833225    6.0752124260    5.8907401180
   7.3870344351   19.3457762143   13.7173304766
  16.6739635651    6.4599696914    3.8037212346
  12.1146188347    9.0695400343    5.9228064702
  13.0803766661   10.5835466976    0.6393999836
   3.4383534007   13.8967905193    5.0830959267
  13.7131085974    9.7476327900    5.1152519160
  12.1109481562    6.7276473171    0.1295163319
   9.8981652074   13.2094518552   17.2282721314
  -0.7913244575    7.9572189079   14.0959071563
   9.5073466553   11.5988323816   19.1598230462
   7.3162180938   18.1052482397   14.8948552185
  10.7817630484   14.2081313998   18.4331688511
  14.6999869840    5.6721587598    2.1864616305
   9.4076039892   18.9475192145   15.8279058152
  15.1110594737    7.0127569633    1.2434512289
   8.0336558057   12.6625132392   19.0748872812
   1.9116412423   10.0353256632   16.6536593514
   1.2593700583   14.3567369691   16.0510598208
  10.1764797293   18.5420172137    5.7663007903
  11.1718467705    1.6081868810    6.4288227945
   5.3248694583   10.5730989419    8.1740931536
   3.8197790430   11.4454824786    5.2210058518
  11.3552306097    1.5490877407    8.1418114558
  16.1082630517    9.6775685679    0.7861909359
  15.6795246744   11.4279714171   18.6946084581
  14.7206579870    5.2905777496   12.1210512222
  15.3211462341   12.8517094231    1.5965923818
  14.4966945433   13.8524126030   19.5008327036
  -2.8000247866   20.0875624425   11.9531549160
   2.7863758281    1.5924317081   13.3132111518
   0.6890017314   17.5014207076   13.3241082962
   1.5498684643    2.1488931354    9.8983283266
   8.0114789995   20.0700522381   15.8398841052
   4.3680403609   11.8886432176    7.2403531654
  -2.0051384850   13.9638615812   15.3936382305
   9.3063833200   17.7581653123    3.7817876660
   3.5001900952   10.1785533948    9.4065091059
   2.3951334072    9.2030708856   15.1962413802
   7.7196890012   18.7875752887    5.3095962914
   0.4537863270    7.2627405384    0.1975960700
   1.8389658836   13.8862284164   14.3718581937
   9.6374453248   11.0468289461    2.8809794693
   2.0232490596   10.7867012286    8.4301777413
  11.3482993803   20.0750694662   14.3699938036
   4.3543881492   12.0224235552    3.5851508956
   2.6995609224   12.7001997120   15.9976549094
   1.5523258002   19.1137760426   13.5087069545
   2.7675716688    1.6517540403   11.0565943073
  10.0659722991   17.4335772639    7.1042437749
  -1.4132797713   12.2469764919   15.3494452641
  15.5215395520    3.9718814183    0.5140195319
   3.6232582467   10.3371279807   15.9563321645
  14.3817496640   11.4704033928    1.2601662486
  12.6439196265    0.8552980301    7.0277993913
   3.9728202000   10.2415628021    3.9166262070
   8.5465374205   10.3499872334    1.7038543649
  15.8884450968    6.3544106497   19.0887002625
   6.6677833845   10.0981223445    6.4740419360
  14.0655699571    2.3906541469   14.1471091953
  -0.7903499348    8.0432320943   18.2421236017
  10.9081365723   16.9552275463    3.8228522301
  16.5771057886    7.8230616825    0.1441473281
  -0.9303931947   19.4910339665   14.1060018791
   0.4356747923    1.4416787850   13.5324996196
   1.6029441463   18.1780991011   11.8865083642
   2.5059806418    3.3893654842   10.7127835028
   0.7305137653   10.1065132169    0.5145031208
  -0.4763554966    4.1477452208    0.1269801103
   0.3456347324   12.1095275217   18.5353690174
   0.9881063328   12.0243553790   16.6614993019
  14.2530054202    1.6867002251   15.8817180141
   9.4390302743   15.9995764372    3.2648414459
   2.1563482475    9.0686531392    8.6495937155
   7.3790037436   17.4093025488    6.4655120697
   5.3201031502    9.2935189727    5.6925630836
   8.1289075718   11.7834066989    2.5946895511
  -0.8728178250   13.4373356088   16.5610147294
   4.6132330377    9.0697972890    1.6279842433
   8.4107022513   13.9753721436    7.8103898681
  12.2457263135   12.7047774378   13.9888505970
   4.1506615591    1.4638559407   16.4494328994
   1.9789701098    3.1640929288   18.3506593666
  -0.0332263786    6.2658310207    6.3077173606
   3.5228299535    5.6318277255    0.9719631477
   0.9610529337    3.5788733584    5.2820904743
  10.7920802898   11.3249739676    6.1255803812
   5.1754358948   18.0616310651   10.5005720571
  16.8687786406    1.0371414085    1.7543144154
  11.3460477904   10.5720145364   16.5874344670
   3.0056084487   16.6370231349    0.0502990305
  12.2526043795   17.1695735461   15.8242524976
   6.1926640968    1.4273337449    9.7578195479
   2.2790695944   14.3639425719    2.2947421848
   7.0730342675   13.8626695957    1.4973505446
  11.9710546414   19.4659096001    4.4263128960
   5.7824026200   13.7088257886   18.7625423984
  14.9238671049   15.6240556644   10.8056077498
   3.9761357246   18.9819337404    3.7251304949
   5.0119920914    1.4118582328    2.5360207378
  11.8612717784   16.0734620765   18.7417523317
   6.7614360626    2.7279957917    6.4029806321
  13.3372172575   18.5829176954   11.4229136941
  11.6242593076   15.2001996014   10.0038176635
   3.2362512756   15.3901362039   13.0101632417
   4.8477347611   17.5885583868   14.6109763636
  10.0839820929    4.0546871908   15.5581550651
   9.8479227953    3.8108197556   17.9829242506
  -0.7328520079   17.7671321069    8.2713577612
   9.6422183110   13.3787743703   11.6158400699
  12.0753302136   14.2721587000    4.3999209934
   1.5893553795   13.7910540620    9.9458076134
  15.5811642136   12.3795257511    9.7341568294
  15.8290713059    9.7051612451    7.0983829940
  11.7835597933    2.8675497415   16.9689845230
   3.9486331033    4.7698689850    5.5633980778
  -1.7483562932   17.4508686921    4.6256896727
   8.7754545708    7.3431879860    3.4618472211
   8.4063342801    7.0091268251   15.7722361564
  14.9503113547   13.3032090671    4.0356414688
   3.0794823648   13.7732195906    6.9657532544
   8.7662304335    7.8574004831   11.8052644627
  13.0856667620    7.5694344993    4.8257753269
  -0.7492086583    8.1163590523    2.5766028414
   0.4847760555    6.6705691455   12.3584443243
   8.7687319106   14.7630586341   17.9979574183
  11.0188001921    6.5370536411    1.8389075001
  12.9808441731    9.7007748367    2.7030875817
   8.6608594282   17.8107374057   13.4503559800
  16.7146233033    5.1414347457   11.3584826520
  16.0248263543    6.9867968334   12.7005018479
  16.6414770075    5.3338495382    1.5904326179
   1.8352848615   11.1367093393   15.0035758663
  12.4859149589    1.2519985275   14.6311666361
   5.7155012463   11.1392279961    4.9926122212
   7.7985626511   19.2115636151    7.3822404553
   9.6991878907   11.8957897465    1.0414603590
   0.0242445986   10.0351522235   18.3928307514
  -0.0130892267   19.1963460365   12.2342425734
   1.2059877963    2.5198942049   12.0313658859
  -1.4822401607   11.6965147208    0.4295372282
   9.6382405693   16.5992047115    5.3798235690
  -0.1015071967   13.6871464220   14.5957378687
   3.5018106514    9.8858481812    7.2917133824
