B2 C140 Ca1 F48 H298 O66 
1.0
1.7927444842486590e+01 3.3343810267158987e-16 1.6040051496731272e-16 
-2.2200314197188811e+00 1.9499119961560258e+01 -8.4703456495795211e-17 
-7.2718324375428223e-01 3.5028735886708157e-01 1.9564642103859828e+01 
B C Ca F H O 
2 140 1 48 298 66 
Cartesian
  10.1469347084    2.6634802222   16.9230598889
  -0.9950877111    5.7966339217   12.0668965087
   0.1793022481    0.7407013820    1.5591635459
   7.5195335850   13.9946119818    6.7824969130
   5.2691063971    6.4003862190    1.2351909929
  12.7013239823   12.7031150678   12.6369805847
   3.9618433036    2.0242317430   16.0334857038
   1.8541351245    1.1396110113   18.8191850267
   1.5620119952    2.5690975414    5.2886445864
   2.4059583826    0.7937408873   17.5344431787
  -0.5228428313    3.3427996650    6.2619566519
   3.6065550881    5.5462918903   19.0106461468
   2.2442718177   15.5918852674   18.8663984469
   0.5489774762    3.0075254429   18.3661558980
  12.2320285042   15.3018018299   15.5054028807
   4.4163753876    9.7910608137    0.7735056331
   6.3049967296   16.7233215179    8.8765493192
  13.1937218597   11.7766565244   16.1839645980
   9.5673688098   11.7221548735    6.2824433574
   9.6401411119   13.1881558690    6.1563836107
  13.3244375019   11.4929347626   14.6995227292
   4.4690620220    7.5921533702    1.5947362316
  11.2074467107   10.6506931205   16.8082838605
  11.7770657048   11.0179470067    7.0368527795
  -0.0098795878    4.5550275340    7.0045321200
   0.1568426023    6.8578922467    6.7778452717
   5.1741331139   18.7135655932    9.6063398622
   2.7016564290   16.1253551618    1.4466954231
  16.3907328204    1.4573631721    3.1100896054
   3.9424432113   18.9130457820   10.5410950310
   2.2012624446   14.7614015614    2.1793948235
  13.4368336093   16.3109504533   17.3188740856
   5.3174106715    1.6494326629   11.0902802759
   7.9393323950   13.1229139498    2.9705606502
  15.1439944168    1.0358594961    3.8389296185
   6.5736150471   14.2231591365    1.3135619915
   5.7346348129   14.4304144395   19.3849870054
  -1.7134881156   15.2021733387   12.3271340959
   3.2149645038   12.6609052167    2.6878279900
  13.0651185298   15.4540641011   18.5228418673
   5.8873419236   12.6472030320   17.6444083252
   5.6500316752   17.8665566631    3.8494221925
   7.1129066693    0.2368376820    2.6189286472
   5.9990447678    1.2233684606    2.7487359437
   3.9856766294    2.0200577572    2.3863463138
  -1.9385909087   17.1263725818   11.0621876345
   5.8937244215    0.9506894754    6.4289705735
  12.6841509490   14.8898575822    8.9828887182
  14.4494768007   17.1625818035   10.6910022778
   3.5505865668   15.3763055637   12.3607276946
  12.9290140371   18.1413381778    4.2412266558
   7.0413192059    2.1740374115   18.2370501348
   8.0095919615    4.3206087279   19.3651375675
   8.0083833360    3.3750694125   18.1311985627
   4.3302586488   15.0874457865   14.6317597041
  12.5936988169   17.9009524578   12.0558062712
  10.5069597864   14.5342011807   10.0753259354
   9.3677358957    2.4809848232   13.2859864306
  12.8283255222   16.3004300142    0.6882694431
  13.2836012766   12.8251319008    3.6907479711
  10.0447954029   13.8511961475   11.3193182085
   4.9886683311    3.1240804025    6.5207182643
   2.0874205124   12.4708853857   10.9289884614
   4.8274937599   16.3347580470   15.2714560211
   1.4703701554   18.5656511842    8.3911777466
  10.4574486606    2.5728291628   14.4133999403
  11.4441579265    3.6527877649   14.1206549440
   5.3091212378    4.6039284240    6.4326010853
   5.2621154185   18.5350929285   14.1705191514
   9.6735508168   11.8074156034   10.0910184135
  -1.0360862377   13.3938300138    8.2175469041
  15.7703137632   11.2388801534    8.4828753928
   0.3559063815   17.1669828444    6.6224175907
  -1.1860661474   10.2242544836    7.8556897722
   5.4281944122    6.4597396341   15.6203736566
  14.4543037197   14.7520252509    4.3514855415
  -0.7427502393   17.8359076020    5.8262141312
   3.7218865635   12.8204957037    9.2837545717
  16.3775238523   10.2699105962    5.5181090728
   3.8299838573    6.3035371991    5.4998339885
  11.8601763884    1.8384478771   18.5101918026
   2.0550006799    4.7355225630   13.4281956732
  12.0905472491    0.3354710361   18.7238651920
  15.8837491393   14.2813787494    4.6548575369
   6.8335767062    7.0220834858   15.9002730322
   3.9013265183   13.6767609177    7.9546510913
   8.0505612010    7.4101282437    4.5753906804
   0.4867825358   18.1894205695    3.8879435024
   7.1065328211    8.4946452086   15.7587469314
  10.1636099305    7.4090886242    9.6729934390
   0.9359697308    7.6466082083    2.8291740866
  13.0495451268    2.6574804270   18.8473359388
   2.0629828665    5.5000247537   10.7809059952
   1.2313135894    5.1276814635   12.1108517583
  10.5972417089    5.3234793657    3.2543708975
   9.4057310450    5.8563464182    3.7480093496
   8.9218312330   15.1179751844   17.5875013536
   9.1832310268    7.9757465234   10.8305924577
  12.4166331429    8.3880143367    4.1261868632
   8.9594101844   18.6443272393   11.7370819406
  -0.3348476015   12.9883552694    3.4974002400
  14.1240765469    6.0842864015    6.6733516274
   7.6410054453    8.3745461120   10.4340682734
  13.4460530394    9.4519132526    2.2915748033
  12.2272386886    5.3968051425    1.7212987939
   2.7113105442   14.0279940273    5.9399123286
  12.8654124597    7.8463424960    5.5033734429
  16.5519351232    7.1249523296    3.2422616033
   8.9585829616   17.5335521581   13.9071361480
   9.2544807790   13.0278145679   18.3209889005
  15.1949967771    7.7972265637   14.5854441676
  16.2978044231    7.7127790462   13.4113815427
  16.1499968913    6.2473719991    2.0241485854
  14.9865997505    2.8756504795   11.3338228523
   8.7447081442   11.8334986314   19.2470397161
  15.1837830244    4.3972410591   11.2851146197
   9.9733748793   18.3544005793   14.7613040380
  14.6743259226    5.0375536645   10.0481092418
  -1.4489657978    9.0954181893   12.6683906550
  11.7283304266    0.3337848812    6.9426005574
   3.0130356341    9.6804565815   16.0375723148
  -0.4921314925   10.3310236364    0.1648134706
   1.2617029428   13.0188887976   15.7695750822
  16.0189448970   12.1772512183    0.3835083913
   4.8941217086   10.1800623897    7.2993452479
   5.4754034347    9.9166037362    4.2756951846
   9.6839615068   16.5898035771    5.7989054352
   8.6848618268   17.5673420933    6.2649912913
   1.9151871110   11.7534827808   16.4035188049
   2.4679992071    0.2920727376   12.5079392616
   1.2449501161    1.0264194048   11.9305419285
   1.3410329358   17.6546248207   12.6107982349
   0.5581905097    1.3199022481    9.6023891264
   9.8902865236   10.4029777294    1.7426355164
   2.5559387668   10.0109589612    7.2571521864
   6.2203006414    9.8370586098    6.6002468542
  13.5767599597    0.8408696425   15.0418176375
   0.0385233549    8.0922628021   18.5241933819
  16.4183309283    4.4074772330    0.6328347551
  -1.0645376102   12.8964459055   15.6154757032
   0.1853610621   10.2713581256   19.4908464455
   9.6492731628   16.6914081835    3.2855934877
   8.8043229325    6.1186242659   13.6184924559
   6.6801215541    1.7266356310   17.0473888528
   8.9618933363    5.3730181261   19.1523955992
   8.9722822689    3.7294338356   12.7603705101
   7.6121792995    1.2119957783   19.0973910482
   8.9017596910    3.2615223056    0.9637055844
   5.9285362209    2.4565410964   18.9327827569
   6.7563536990    4.8187742797   19.3337982392
   8.2730094419    1.8677977585   13.6724296456
  11.9122575557    3.6193577187   12.8569325416
   9.7402060135    1.7832451051   12.2553345227
  12.4825858563    3.7200675266   14.9852399533
   4.4405436900    7.2470273376   16.2100130757
   5.5073153248    5.2136702943   16.0990295586
  10.8529495471    5.0022885607   14.3471408805
   5.1683438471    6.3209851833   14.3352836008
   2.8247049667    3.5531347520   13.1422284559
   8.7699850846   19.0786380248   18.4112205595
   2.9525918710    5.7299406470   13.7197679853
  11.4742441684    7.5959653890    9.9835769567
   1.2092845816    5.1453074959    9.7478599812
   7.4964402522    8.7582432958   14.5355316593
   8.2939316273    8.8515244854   16.6065693599
   1.2920882983    4.4892346905   14.4850877687
  10.0456535935    8.2646408532    8.5651464654
  10.8247151614   19.0520263910    0.4070700821
  14.1057192739    2.3535489017   18.1184562018
  10.8081182113   19.3346079601   17.8273747415
   3.0949701913    4.6281678527   10.6145557047
  10.0238873629    6.1560861684    9.2325851113
   7.1415922824    9.0291274068   11.5177730899
  13.9483028621    2.1982805673    0.6605398105
  12.7950688077    4.0135159005   18.6929563666
   6.1893621078    9.5075406714   16.0946622220
   2.4210046879    6.7835895397   10.6029289131
   6.8710649458    7.3691857630    9.9995307140
  15.4494297845    8.8634687879   15.3824464695
   7.5484585137    9.4423390702    9.4510542694
  13.7537398512    2.5448723234   11.0071982143
  13.9595279751    8.0363375608   14.0952089040
  15.1278417433    4.4948029340    8.9489863235
  15.7517565195    2.2390540224   10.3209153062
  14.9273705721    6.3736056890    9.9778062371
  15.2765932236    6.6324699272   15.2799408592
  -0.7833524158    8.7665681989   11.4872781973
  15.2363849968    2.4310765552   12.5868569649
  -0.7558021472    9.9367883625   13.4012741551
  13.2343405618    5.0209207086   10.0997644638
  15.2856470484    9.6531901925   12.3125276685
   0.9307210358    0.5750663568   19.0890009245
  13.7722828901   12.7174671347   16.4993283990
   2.0029702994    2.4887608903    4.3896733670
   5.8123544680    5.9619331552    2.1114335879
   5.6212565410   16.1103009590    8.1805622142
   9.4453097691   11.5054075131    7.3533280424
   6.1469443298    6.7886569865    0.4979386034
   4.4933077625    3.0175575015   16.0360552046
  16.4168302370    3.4864891690    5.7837824323
   0.6521039982    1.7657829343    1.4536745923
   1.1828123178   15.3127307589   18.9914894832
   0.1309771653    0.1864369709    0.6428753037
   7.0272148822   14.2522956711    7.7657498723
  -0.0559825224    2.1530707374   17.8137354348
   0.8307359907    0.1636472212    2.2463024876
  11.7234204728   12.3107995129   12.8183767907
   0.3749947808   19.1518625036   17.6489309778
   7.2741186622   14.8353650147    6.1165969212
  13.0061740822   15.3370912073   14.7552431782
   5.1235333877   10.4909136284    0.2706301124
  13.2410000132   12.1205706294   11.8779582952
   3.6936269807    4.5226753934   18.6773277648
   2.7324861631    6.1707514789   18.7575901921
  11.6308881502    9.9961744558   17.5444033165
  11.9202901764   10.0164179040    7.5734339530
   1.5592128816    1.6318835515    5.9042595814
  17.3341701457    2.4269031927    6.9394363996
  10.7573423611   13.2924825965    6.2452819867
   3.0553056784    2.1594876484   15.3236670617
   5.9772167192   19.5908075564    9.6379276604
  12.0356050845   14.4127473778   15.9713686062
  12.4184718592   10.9212658480   14.2044839739
   2.6538274327   14.5343111082   18.6956316513
   2.4385757246   16.1579586446   17.8949921908
  11.1851062805   15.5149864713   15.0294655505
   6.9766248925   17.3640030842    8.3435672586
   0.8066083349    3.8450387881   17.5788120747
   3.0988446308   16.8090052631    2.1542773194
  -0.8856441995    7.0939419375    7.0753710194
  13.8699308457   11.0795246249   16.6966333782
   2.2233410393    3.3364210852    5.8788291832
   6.9540643664   16.0059233795    9.4887472942
   8.7324733872   11.2783359753    5.7517164850
   3.9511984758   10.3506882924    1.5596175531
   7.2304319759   12.9481473042    6.2437628478
   3.5818569927    9.4429858130    0.0871577432
   4.5268455064    6.1192938676   18.6180085641
  12.4432585143   13.6588715443   12.1422289753
   2.6351915169    0.9619431088   19.4084499576
   4.6668023390    1.2692855161   15.5355774760
  -0.2864090188    3.4989722652   18.9776107050
   1.8689986361    0.7509793188   16.5635620681
  17.0351862118    1.7272069590    3.9814658493
  16.1002501412    2.4055256944    2.5054866107
  11.2261872898   10.0584246776   15.8192342195
   4.1076341933    7.5861876915    2.6449233218
   3.4586838554    7.6294650362    1.0280850960
   0.3869244533    7.7053431268    6.1743168299
   0.9173863911    4.4255298899    7.5846673126
   1.7735009073   16.6237019897    1.0398161510
  12.7229584682   11.5065917520    6.6816068193
   4.3525650280   19.0076134084   11.6045777589
  11.4790432297   11.8425428979    7.5725294121
  10.1198810280   10.8261242069   16.9666416456
   9.5888491849   13.5666622550    5.0868186852
  14.2665385793   10.9983776440   14.3522811470
   4.9011165613   18.7049210543    8.5008259721
   7.9326070700   14.0344461941    3.5919627483
  -0.7905816366    4.9328886474    7.6386589153
   0.6760449313    6.8311688037    7.6784402023
   6.8749757647   15.3168991057    1.3891019328
   6.1648152724    2.3422439476   11.3391879737
   1.6991367132   14.3156735272    1.3136453069
  13.7055025951   17.2199440954   17.7154377199
  14.2695008929   15.8213022375   16.8045086405
   4.7363107680   14.8068996451   19.0246214117
  15.3081860507   15.5981096536   12.7668128209
   8.8815673466   12.6119292588    3.0001281729
   4.3826932886    2.1373297609   10.8498757445
   3.2937020637   18.1073501591   10.6360166342
   6.1189736476   11.5692552586   17.6447138943
  -1.6476776312   14.0822505189   12.2604155412
  14.2826967935    0.5175068801    3.2773293417
  14.8066663367    1.8719337757    4.3408325318
   5.3191403778   16.8132032230    3.9618628854
   5.6523859446    0.9580407637    7.5046308042
   7.2179000009    0.0657009027    1.5167223927
   1.6992532952   14.9522415616    3.0585652080
   5.8383265612    1.6685733307    3.7938714844
   2.9593862380    1.7162549352    2.1841862022
  -1.9334375386   17.4973937947   12.0035519536
   2.6280059745   12.3589505450    3.5900687952
   2.4758705446   12.1358994591    1.7666493474
   7.0837274245   12.5546927703    3.5764361481
  13.0678566006   14.4387797580   18.1499489214
   4.9676992572    1.1830626928   12.0878939101
  13.8457758654   15.4775796017   19.2835887798
   6.8212097063   13.1930646813   17.2528113549
  12.4105960360   14.8055926141    7.9459959237
  13.9317005154   16.1934439603   10.9648833794
   5.6282085229   13.9061992677    1.6274596147
   2.7632798078   14.9247957942   11.8502128655
   5.8552008427   18.3344772249    4.8155620637
   4.5045795177   14.7952534508   12.1777546529
  13.6435555523   14.5113183606    9.1866826431
   4.3447362177    2.7354893032    1.6043176381
  -0.8212152102   15.5650278343   13.0100494885
   6.5516519386   14.9921336559   18.8763474412
   4.2930381246   12.3762270814    2.7306029587
   6.8194464641    0.5675241453    6.1623065394
   5.0649121735    0.4540179452    5.9588666099
   4.9776738795   12.7626098880   17.1241496203
   7.4868219145    4.0341982694   17.3778681603
  12.2374405594   18.4926076707   13.0054791401
   3.9782289312   14.3785697134   15.4057153139
   5.2917892170   14.6782252346   14.1735587840
   9.8157252413   14.2810921503    9.1065002047
   3.7830675490   16.2980984200   11.9258517967
   6.5707858304   17.8698031942    3.2412709493
   8.0287916081    0.7136750578    2.9594909078
  -1.4917946073   17.8165154781   10.3913440917
  13.7981674086   17.7698532235    3.6466341851
   6.4453105458    2.1506205684    2.3046738284
  12.1795807817   18.1924102984    3.4923150707
  12.6110650082   17.5724841466    5.1510285300
   4.1979667023    2.4650907735    3.4077170067
  12.7414599859   16.0053697807    9.0608980165
  14.2197886339   17.4466411006    9.6398074808
  10.4301948518   14.2434849698   12.1961883221
   1.3016359145   18.6844311668    9.4217826260
   2.5270422059   12.5815879928   11.9102882289
  12.5439483544   12.1796891361    4.1814530602
  14.1239368852   12.3065217083    3.3538262145
  11.7425641070   17.9297128669   11.2968484282
  11.8005724579   16.6147630208    1.0187499605
  13.2942767027   15.7006701230    1.4386701330
   1.0465260756   12.7303376480   11.1277007134
  12.6446721490   16.8227995582   12.3124743539
   2.0915732030   11.3852215129   10.6054590166
  12.8589455910   13.2076634080    2.6967597981
   4.2322910421    2.8330794582    5.8362428733
  10.3871247804   15.6054157750   10.1785005216
  -1.6820783595   13.6424585157    7.4061696206
  10.2357144317   10.8416725235    9.9254706473
   4.7337253850    3.0305861469    7.5920736261
  13.4555330994   17.2918404491    0.5247376103
   5.8978258659    4.9747033111    5.5500207174
   5.8479930850    4.9378555137    7.3382391261
  15.1055974106   11.6140390783    7.6146809753
   5.5902813157   18.7182175357   13.1349500732
   1.4558240223   19.5522224621    7.8097747383
   2.4234624417   18.0554850670    8.2615385159
   8.9934491217   14.1069315082   11.3769488955
   5.6600389946   16.0357042638   15.9503306952
   4.0619422681   16.9256078216   15.8521699302
  -0.2956579248   12.8391507360    7.7322240304
  -0.2842275495   10.7258477122    7.4477213435
  11.0413760122    1.6228338488   14.5310493950
  14.3382677563   15.0400481529    3.2497775689
   5.9057727818   19.0740438237   14.9388942633
   9.7202299346   12.3790531049    9.1597144161
  15.8599615503   11.2578628090    5.4552117226
   4.2658994059   19.0218737326   14.2670370978
  -0.6406245148   18.9040743665    5.8004665417
  -1.8376385127   17.7157450138    5.9905629132
   8.6610101675   11.5411879838   10.3156795120
   3.6247652390   11.7566382724    8.9205903700
  -0.6195357029   14.1973592915    8.8434539295
  14.1259829629   15.7053688621    4.7853973510
   4.6890952040   12.8710898888    9.8179624236
   1.3738494331   17.3588705251    6.2056837290
  11.0606345590    2.1775624568   19.2273926913
  14.9488626960   10.6344267957    8.9744302406
   0.1901336911   16.1034952500    6.6011779042
  15.9817847618    9.7017341870    4.6963282347
   3.0472455748    6.0386127109    4.8789371975
   7.9441246593    8.5020840429    4.8620577599
   4.7394162726    6.6199222103    4.9573564137
  -0.9896400491    9.4422082755    8.5636660456
  15.8147346758   13.7928444896    5.6579264455
   1.0619012151    7.1556572940    3.8559360025
  -0.4880791257   10.4383964185    5.4928216300
   0.7239293825   17.8295223465    2.9088563609
   1.4772142747   17.9922802507    4.4169110225
   4.1945160351   14.7082129197    8.1444489554
   0.8993753100    6.9071840156    2.0394413475
  -1.2879740115   15.0861869533    4.6089812204
   4.8232002771   13.3443411038    7.4163454872
  11.3860626303    5.7515860199    4.0258223917
   6.8450967641    6.9702307002   17.0633870055
   3.6643793992    7.2279645014    5.9918151713
   1.6778992985    8.4366733421    2.5987476308
   7.4599762034    7.0622718092    3.7690757850
   8.3740873654   16.0221259351   17.7354114481
  10.7106792571    4.2416079248    3.2514545830
   7.7768086913    6.9638098341    5.5715051993
   0.7615500280    4.1374424383   11.7683895178
   7.8636884661   18.6760988703   11.7839219629
  11.7041222932    9.2801932785    4.2971217965
   8.4564466251   14.7640623523   16.6213284545
  13.3522591950    5.3123734432    7.1100587536
  12.0190914614    7.5664068674    3.5160025248
   9.4294617007   19.4988222537   12.3020122667
   0.1559773636   19.3065088161    3.9501879479
  14.3706418644    9.8844781969    1.9783065696
  12.9705388301    5.9544651958    2.3131395761
   8.5261583740    5.6807685761    2.9867388340
   0.0079644467   12.3681724746    4.4009734848
  12.7504538421   10.2800094532    1.9929950916
  12.3626023084    4.2686717230    1.7593191088
   9.9302697277   15.3796525042   17.1707060135
   9.1313480535    5.2476229632    4.6522876452
   9.2858803033   18.4849744981   10.6634440690
   2.2335763973   14.9939137082    5.8487041375
   0.1973443496   13.9143285455    3.4275000239
   9.4967664752    9.0186721989   10.8738961401
  14.4652347829    6.8579914932    7.3575819280
  -0.2684134135   12.4827712723    2.5164179483
  15.5650383780    7.7234309680    3.4820692729
   3.7291203797   14.2766914170    5.5323450483
  14.9135951363    5.5361448624    6.2627183302
   7.9941107265   17.9628768713   14.1924212166
  16.7442284919    6.6030712702    4.2088501395
  11.9966338626    7.6030079741    6.1580293164
  13.1477787315    8.6060232081    1.5582666635
   2.1719514106   13.4051177565    5.1469509379
  13.4974556516    8.4750258695    6.2083381348
  12.6023388632    5.6597354170    0.7293921731
   9.1734546852   12.5699561069   17.2751915834
  -0.6283147003    7.5159427790   13.7889243167
   8.5461451696   10.9523537942   18.6583481040
   9.1137302655   16.5609849839   14.2830854727
  10.3879017328   13.0556476381   18.5085618749
  15.1910155187    5.9024003665    2.1708110449
  10.9719712384   17.9729140525   14.6854984966
  16.0206184064    7.0198776727    1.2884193168
   8.5842002168   11.8133838624    0.1846270561
   2.2844218939    8.9086740937   16.3302291112
   0.9898977376   13.7423963287   16.5958006413
  10.6453022751   16.9539128507    5.7982623514
  11.2576591071    0.7486153146    5.9730064596
   5.0488068688   10.1996845568    8.4111436709
   5.3687017458   10.7451227916    3.6755612861
  11.5030726639    1.0884710459    7.6952844759
  16.7813171626    9.6199438897    0.8830122623
  -1.7760708978   10.6082835848   18.7192724345
  14.7527644885    4.8569343728   12.1079039514
  15.9493888177   13.1973543423    0.8849429897
  15.2128740826   12.6846270762   18.8930290803
   0.3431699188    0.3218020456   11.9129326890
   3.3322317601    0.8403754397   12.6312102078
   0.8008985169   17.6102688280   13.5948092765
  -0.2561382428    0.6523740415    9.9955732033
   9.5606452772   18.2732797956   15.7988196236
   4.5996979564   11.1967178009    6.9791223374
  -1.9097031925   13.0064183833   14.9620564408
   8.7746479939   17.2959151130    3.0539820333
   2.3133566918   10.0753535904    8.3527627487
   3.6749107104    9.2422977912   15.2534938938
   8.2921571532   18.2402605823    5.4540205248
   0.7228751359    7.6374793923   19.3715837046
   2.0072670283   13.6770371842   15.2437223514
  10.6268423368   10.1474739207    2.4869220005
   2.7210802222   11.1457956822    7.0484966791
  11.9615681295   19.5430139757   15.3806422939
   6.0485165100    9.2098303402    3.7512363155
   2.8234659253   12.1159233809   16.9535130333
   2.4105713967   18.0365024031   12.8381591833
   1.1151888693    0.7673329921    8.7774478809
   9.6991751244   15.6806080489    6.4427921728
  -1.2781633447   11.9433810618   16.1840148475
  15.3223530798    4.5453843332    0.4737115655
   3.6712030126   10.0054769392   16.9833240170
  15.1678775737   11.6047694408    0.8422035262
  12.8065414250    0.1916121213    6.7291736112
   4.5569811320    9.7341773703    4.8130782044
   9.4619933698    9.4537328299    1.4063752798
  16.0375730876    5.1392388968   19.2686834997
   7.0451888858   10.2027142638    7.2477495985
  14.1197388171    1.3393803918   14.2490704679
   0.2235215721    7.5572324229   17.5973269183
  10.5223003965   17.2185352844    3.3226065334
  -0.9774203089    7.8683296926   18.9778361212
  -0.1605683563   19.3957010567   13.4046025664
   0.9810663173    1.8804712873   12.5640025319
   1.5011420791   16.7053265870   12.0846588557
   0.0983300598    2.2470160092    9.2416798414
   1.5299272896    9.4013154442    0.7694012537
  16.6673296662    3.2750000338    0.7865010938
   0.8712880033   11.0960702461   19.1197308677
   1.1651121251   11.3604234606   17.0064874114
  13.3757477528    1.6050825354   15.9320384292
   9.7971588808   15.7748558517    2.5893297896
   1.8367200144    9.3698450991    6.7700175950
   7.8580066320   16.9213651570    6.6926339374
   6.4556434722    8.6867894441    6.5853911043
   9.0631145986   10.8899862373    2.2447218257
  -1.0546176907   13.7733860469   16.3318354716
   5.2801025693    8.7150619974    1.2105214169
   8.8807372454   13.9105447577    7.1511846800
  13.4590126565   12.7166940031   13.8653096855
   3.6904837150    1.4064182412   17.3940166733
   1.6946819449    2.5789960281   19.0822380543
   0.3364116720    5.6549898087    6.0830719379
   4.5969921411    5.2781792694    0.8663224418
   0.2612385344    3.0086224051    5.1177203389
  10.7457715576   10.9793636906    5.9699373803
   5.6846279593   17.4136201721    9.9438593719
  16.7771067629    0.5538683612    2.1630057954
  11.9661706480   11.9396015642   16.7403354358
   3.5254707306   15.9180267299    0.3708435962
  12.3988806263   16.4952542233   16.2615323349
   5.5077951454    0.6676047539   10.0798054881
   3.3439561513   14.0236009367    2.3695406770
   7.7891871795   13.4842969283    1.5683082018
  13.2500336166   19.4952044509    4.7875133947
   5.7261435215   12.9941077033   19.0169227640
  -1.3387513950   15.8215224193   11.0728250181
   4.5661206454   18.4863543660    3.2530850360
   4.7622929810    0.8184004282    2.2338239166
  11.8469998790   15.8294994868   19.1176544563
   6.2086866841    2.3426602275    6.2719629646
  13.8453591340   18.2501599308   11.5057342808
  11.8461442366   14.1832191946    9.8827137233
   3.2136027574   15.2618118485   13.8015660265
   5.3638218261   17.1027482239   14.2134957636
   9.7153754426    2.8986874004   15.6335296172
   9.3971260086    2.8740359900   18.0350129858
   0.4346270169   17.6144598082    7.9976850315
  10.2659039295   12.4382382816   11.2050485572
  13.4374844914   13.8022604632    4.6488072225
   2.6026500650   13.3309607315    9.9894179981
  -1.6772143516   12.3829671861    9.1118608720
  16.1134236211    9.6104602963    6.7197894541
  11.4996318581    2.1239898696   17.2018423513
   3.9700880452    5.2657972743    6.4360967588
  -0.5188926294   17.2558584878    4.4691404630
   9.4187338271    7.1545303124    4.1770037829
   7.7827949860    6.2601863875   15.2696973584
  16.1725943790   13.2834185486    3.6081070086
   2.6090739839   13.5077633695    7.2013340756
   9.1190211638    7.3630801126   12.0278153966
  13.7151698970    6.6634549734    5.4205307125
  -0.4087734453    8.1954105317    2.9514212754
   0.3114311898    6.1095529789   12.3814057771
   8.7568524126   14.2716152376   18.6290903099
  10.9728038150    5.8786453749    1.9575344899
  13.6569940618    8.9583150787    3.6484916543
   9.3588924700   17.5058506676   12.5699213069
  16.5654869893    4.6800042837   11.3895569206
  15.9490940375    6.6718790450   12.5581969999
  16.9428701335    5.1247043236    1.7921393194
   2.4055002655   10.8307724039   15.4980941011
  12.3478975185    0.2990594688   14.4135702202
   6.4612370299   10.3221667677    5.2736088265
   8.9368067824   18.5642676186    7.3683615859
  10.4611244739   11.1293073665    0.6936297116
   0.2020474755    9.4944928748   18.2999511956
   0.6786873249   18.5585266627   11.7927658718
   1.4651989183    1.6067394057   10.6184747838
  -0.7043356676   11.6332952316    0.7636056651
   9.4995736574   15.8492786400    4.4845579479
   0.1483193978   12.7999305745   14.9226748622
   3.8086321646    9.3286332719    7.0431271567
