B2 C140 Ca1 F48 H298 O66 
1.0
1.7962276086951903e+01 -2.8339428027490937e-16 -4.1325949951856016e-17 
-2.4424808649590828e+00 1.9504925708909006e+01 8.5567971587323775e-17 
-9.9786181559978238e-01 7.4280303504467893e-01 1.9423709367099345e+01 
B C Ca F H O 
2 140 1 48 298 66 
Cartesian
   9.8768620070    2.8355264886   16.8876233961
  -1.2485929392    6.0499005073   12.0178801470
   0.1312152896    0.7158787322    1.7950465427
   7.2412852669   13.9670178246    6.6538471817
   5.1545914150    6.2151423351    1.2925060050
  12.4155164133   12.6287226472   12.6020274274
   3.6370996472    2.2793216357   15.6018491495
   1.6755385605    1.8002716006   18.4418320493
   1.3990564618    2.7222643503    5.3520376503
   2.1305256518    1.3810726235   17.0083859962
  -0.6671411633    3.8665610834    5.9960730449
   3.2457268129    5.8501208907   18.7745051782
   1.8598894823   16.1320299428   18.7962022781
   0.3545115853    3.6174601521   17.8339312968
  12.0237089056   15.6914531643   15.2636361877
   4.4938208656    9.7910522282    0.7024723936
   6.5318443406   17.1985611119    9.0807489759
  12.6929193536   11.7903912281   16.0564361327
   9.7149804735   11.8063508274    6.2550635928
   9.5442694426   13.4085260300    6.1743712988
  13.1160854159   11.5516767228   14.6517695191
   4.2911982076    7.5564944965    1.4536094216
  10.9207915309   10.4902622960   16.7107478083
  12.0542848160   11.5059160195    6.8660107546
   0.0210522195    4.8021039815    6.9632290324
   0.3541548611    7.2471763592    6.6710057142
   4.8187199965   18.7693653072    9.6712492169
   2.6279262492   16.2949065137    1.6483726005
  16.4128645292    1.6290994067    3.1199567164
   3.7883376892   19.1599957515   10.7220837202
   2.0931284798   14.9434905209    2.1719601945
  13.2379000528   16.6849782940   16.9891869667
   5.3148689654    1.7908266159   10.8784512541
   7.6981353007   13.7842952029    3.0445531430
  15.0381369197    1.2041197527    3.8705501988
   6.4785063895   14.3064910674    1.0144450838
   5.4728068594   14.7169263101   18.9399704130
  -1.9999508280   15.4922454564   12.2437243874
   2.7031438760   12.5762463349    2.4585238252
  12.8036241182   15.6690320105   18.0471578956
   5.5752060191   13.1063584906   17.1963107794
   5.4890249917   17.9456563075    3.4991614285
   7.1744170852    0.5235566610    2.4141053725
   6.0886439988    1.4454029405    2.8076028575
   3.7288607924    1.7161837480    2.3991314626
  -2.3206389470   17.3062074442   10.7674270177
   6.3477710620    1.0325446333    6.1624934088
  12.2695199532   15.1835229570    8.7599860482
  14.1275507267   17.4667826964   10.6468439354
   3.5939708831   15.5243516225   12.2862471973
  13.1337709945   18.2583051467    4.1902660871
   6.7498422044    2.2411686652   18.2747553066
   7.5497317069    4.5618509253   19.1967130521
   7.6806388891    3.4959369193   18.0274031577
   3.9368690147   15.3105090363   14.6240077624
  12.1771085699   18.2330832337   11.8260539213
  10.3084721035   14.8164195712   10.1124816937
   9.1288224112    2.8173780205   13.1908369747
  12.5272897248   15.9188223028    0.4929271517
  12.7714571137   13.0850235518    3.4356204939
   9.4504930321   14.0136729221   11.1240787180
   5.0796581199    3.2081858161    6.6307457771
   1.8624140290   12.7127996352   10.7747525582
   4.0000782468   16.7886234398   15.0535259712
   1.0933490355   18.6441900714    8.1558043407
  10.1453303257    3.0117847782   14.3331478610
  11.1550713778    4.1485079380   14.0343128607
   5.3721337733    4.8105913435    6.4912412679
   4.7998112984   18.9654286616   14.4086631549
   9.2925850188   11.8774299543   10.0466274717
  -1.0820214361   13.3472048709    8.5533530518
  15.4396019941   11.3992888761    8.4609406248
  -0.0172402620   17.0815487058    6.6509359453
  -1.4578983584   10.4620149396    7.9547185952
   5.3361053698    6.6695285125   15.7807928603
  14.1530895828   14.7519227207    4.4030370945
  -0.9876129646   17.8086610691    5.8506208084
   3.2767318426   13.5689539248    9.1321196762
  15.7487317371   10.0327863319    5.6183283801
   3.9160771480    6.3667238175    5.4147426096
  11.6330991454    2.1800400608   18.3109487635
   1.8240853517    5.0075787624   13.3211850399
   9.4579597316   20.1775800434   18.4686391886
  15.4856353638   14.0396933735    4.5456174817
   6.8292701019    7.1798822968   16.0991788311
   3.3923326027   14.1995540482    7.7208748168
   7.6629631135    7.5195621862    4.3560278935
   0.2552476646   18.2508024804    3.7472258884
   6.8713250425    8.7964067621   15.7708808318
   9.7965335985    7.7325948933    9.4846381043
   0.5921860699    8.0567529227    3.0064101289
  12.8390588459    3.0400755643   18.7617156494
   1.9437310694    5.6605864360   10.7982695293
   1.0995315004    5.2376715895   12.0285342242
  10.7735416538    5.4924209275    3.2735926414
   9.3069521507    5.7303179501    3.7897692843
   8.5977338842   15.4796139445   17.4424113143
   8.9575755925    8.3218195759   10.5874938480
  12.3018458441    8.5232199061    4.0693060794
   8.9707408617   18.3032054740   11.3526947767
  -0.6606149970   13.0526351558    3.3335075399
  14.2963970235    6.5013914731    6.4703733893
   7.5095190377    8.5464379985   10.1544065868
  13.5435011240    9.5578942596    2.3067729104
  12.1691149360    5.9106274436    1.3781757189
   2.8483887769   14.1629629080    5.5362075025
  12.5758367601    7.9537210625    5.4769955315
  16.2241591432    7.2599678597    3.3377214813
   8.6214543734   17.9760547658   13.7214658563
   9.0584015459   13.2222639743   17.9570704950
  15.0004563689    7.9900478288   14.6274840840
  16.0159637666    7.9894112635   13.4704762074
  15.9615177507    6.5217394042    2.0042435928
  14.9925956716    2.9465776865   11.0562579627
   8.6945204117   12.0934182347   19.0087262203
  14.9239372231    4.4779357295   11.2150099519
   9.5783789667   18.6550554025   14.8204694715
  14.3649388977    5.3356383210    9.9640100223
  15.9367210208    9.4234323518   12.6070704579
  11.5167284540    0.4620074557    6.8012772998
   2.5866880283   10.0003393977   16.1398221047
  -0.6526602147   10.1856110874    0.1226874701
   0.9534886057   13.1807373588   15.3833576620
  16.0043821344   12.1060129138    0.4769509400
   4.9269194208   10.5667318445    7.4646393039
   5.1375661230   10.2982300532    4.5018483022
   9.3871366597   16.9486825329    5.7826282717
   8.2444558457   17.8572629837    6.1094882227
   1.4197872340   12.0239517739   16.2446524284
   2.3218785963    0.5671612517   12.7476971658
   1.1164748744    1.1295812868   12.0795478954
   0.7344695204   17.8746650884   12.3519224341
   0.6461146639    1.5145562882    9.6919395638
   9.7735284900   10.6921033521    1.8330983282
   2.6085240408   10.0397198081    7.7071676781
   6.0626081580    9.8940246291    6.7211772748
  13.3618730742    1.1112964659   14.6107523243
  -0.2927117483    8.3502279081   18.4357287936
  16.8180120445    4.7602286242    0.6214335234
  -1.5896968111   13.2957300345   15.2513041700
  -0.3025406633   10.6523469807   19.1640862248
   9.5657274597   16.9627069615    3.4642690920
   8.6189811585    6.3882676548   13.2211311461
   6.3941940695    1.5699807740   17.1313491984
   8.4996416849    5.5135678190   19.0145497115
   8.8410130114    4.0493403078   12.4738190036
   7.4073531191    1.3325583784   19.0816506548
   8.7502955741    3.3769358741    0.9974656207
   5.5657256129    2.7105246561   18.8707637164
   6.3664611234    5.2134069226   19.2191687148
   7.9352697581    2.2654679283   13.5045098510
  11.6602313091    4.1119634459   12.6843261395
   9.7230257370    1.9736345889   12.1878206140
  12.0938427336    4.1605705862   14.9309149175
   4.2459273845    7.3918005831   16.3981687732
   5.2040289456    5.3700973268   16.1192849350
  10.5202055319    5.3645295450   14.1426076309
   5.1015190524    6.7201317252   14.4194113727
   2.7140646661    3.9763724513   13.4016120987
   8.3286031732   19.5221651947   18.1032851305
   2.6910108194    6.0595732130   13.6260259445
  11.0562003867    7.7913770740    9.9884258130
   1.1416169076    5.3863363884    9.7117213987
   7.1662950158    9.2058302452   14.4751390504
   7.9671921674    9.2878829009   16.5417135036
   0.9303731938    4.8280199918   14.2134027357
   9.9437413266    8.3035998536    8.2440169147
  10.5872884413   19.2620299023    0.4063496525
  13.9584958168    3.0353124310   17.9576752178
  10.4085763734   19.6281856352   17.6895799406
   3.0268212853    4.9199357071   10.4502323166
   9.3801755282    6.4464345407    9.3137676410
   6.7842387680    9.1100386821   11.1622741040
  14.1799697487    2.0343049176    0.6396445232
  12.3509313943    4.3566899346   18.7766335304
   5.8220965791    9.5771950561   16.2054291518
   2.3274925130    6.9893854752   10.7267359510
   6.7981352783    7.5792687598    9.5344485157
  15.3257996369    9.0242907388   15.4450647517
   7.5537834716    9.5827183435    9.1359050801
  13.7634938053    2.4726486366   10.8381850465
  13.7276317561    8.1974182362   14.1948799154
  14.8738169117    4.7209472208    8.8662138625
  15.7020156235    2.5784167066    9.9782752191
  14.6248613318    6.6191286004    9.9609565915
  15.0102678519    6.8452598410   15.3132988521
  -1.5456088762    9.1365431328   11.4018047354
  15.3824045639    2.4051395961   12.2612198170
  -1.2185143272   10.3142432075   13.1419365098
  12.9427451740    5.2341892933   10.0560363315
  14.6857899470    9.9474738972   12.5412031452
   0.8160508679    1.1275347001   18.7047092534
  13.1264549053   12.8406954190   16.1945715175
   1.7687805605    2.1227703508    4.5226160238
   5.5616323582    6.0058490557    2.3437811590
   6.1074125020   16.6105018427    8.2481193277
   9.6538802213   11.5173932137    7.3030013952
   6.0383886200    6.4947914785    0.6074236470
   4.5067812739    2.8989472738   15.6185230614
  16.3740263592    4.2445532797    5.5116295529
   0.4195760348    1.6457522473    1.2920042351
   0.7830020847   16.0204334787   18.6611448556
  -2.1172687925   19.3516592028    1.1143849110
   6.7130564583   14.9046116696    7.0153326061
  -0.3622203551    2.8893533926   17.5251516999
   0.8312660501    0.5184299745    2.7527805452
  11.3008972527   12.2894096930   12.5551964906
  -0.5548320145   19.8744045338   16.7737849605
   7.3380071907   13.9270958931    5.5944936269
  12.9047158682   15.5197719696   14.6458027947
   5.3792298370   10.5078053106    0.5834784792
  13.1612058729   11.9862166243   12.0902017747
   3.3489213198    4.9126916908   18.3616977301
   2.2585094572    6.3028334630   18.6270434011
  10.9830744182   10.1454663591   17.7009542343
  11.7217795463   10.6839115649    7.4855012264
   1.2025049471    2.1097978221    6.2501611450
  17.0339922257    2.9382685514    6.5270038130
  10.5717673444   13.8811350377    6.5458222790
   2.7318964644    2.9417897868   15.4029117704
   5.5200609394   19.6967862016    9.7029566509
  11.7569445352   14.9420702613   15.9209028017
  12.3965814285   10.8698650590   14.0857350315
   2.1935351597   15.0933909463   18.8689650164
   2.3637650824   16.5697890870   17.9038741464
  11.0275161474   15.7819871717   14.7007971388
   7.0012898311   18.1682577085    8.6547482973
   0.6690402667    4.2260228055   16.9171070498
   3.2570502207   16.9849339140    2.2205624940
  -0.6612586828    7.2375686818    6.9896352533
  13.2134874358   11.1027879849   16.7261356541
   2.1749795116    3.4705402850    5.7142413724
   7.1985760597   16.5049732491    9.4972026883
   8.9750073804   11.1040762566    5.6582476977
   3.7382830310   10.3293208430    1.2757969793
   6.6347979752   12.9836807546    6.8727591221
   3.0447930887   10.1605532405   19.1571731498
   4.0518021313    6.4806652138   18.2909185903
  12.4301022742   13.6390695344   12.2522112337
   2.5587469206    1.7573120958   19.0786141263
   3.7869024842    1.5749684489   14.6147519801
  -0.4886281987    4.3691935588   18.3421749661
   1.5183851222    1.9681455231   16.2839764776
  17.1349158308    1.3657531178    3.9508341918
  16.4620104209    2.7197007502    2.9759503255
  11.5087597492    9.7568285954   16.1269791096
   3.6731662822    7.3782555946    2.3747194902
   3.4373722787    7.4862139455    0.6457756905
   0.4710607797    7.7869655821    5.8191170992
   0.8491464244    4.2528988476    7.4859726428
   1.7021778046   16.8271674529    1.5814510269
  13.0294453129   11.3009710018    6.3355525787
   4.2636729634   19.5716884594   11.6830463216
  12.2460482442   12.4517764949    7.3440818757
   9.8591743297   10.3832385240   16.3776738966
   9.5816423000   13.8444966485    5.1141112500
  14.2208647289   11.3232281990   14.6012349014
   4.3086314509   18.7502009717    8.6486985421
   7.2889187574   14.7184478564    3.4398906722
  -0.7809883175    4.9912002312    7.6678537274
   0.9482495140    7.6238732755    7.4710635107
   6.5920548917   15.4661961476    1.0230652945
   6.3398240578    2.2551340645   10.8321545810
   1.3900009293   14.6259923866    1.3687567733
  13.4040218524   17.6198323845   17.4441262359
  14.2874269819   16.5062740626   16.5159369501
   4.6609026624   15.2329125124   18.2913071520
  14.9021781620   15.5007623681   12.6130788689
   8.7654873779   13.8237830390    3.2680043771
   4.5531332910    2.4531725283   10.4629711501
   3.1954740983   18.3268361883   11.0840652807
   5.4910392092   11.9700291403   17.2207323666
  -1.5897284851   14.4979402714   12.1283965734
  14.1232151195    1.1133503394    3.1868298740
  14.9127572987    1.9776565536    4.5647303057
   5.0417893264   17.0086634885    3.9058131048
   6.8379769184    0.4605068109    6.9968024356
   7.2401849508    0.4913408256    1.3418644104
   1.5992398685   15.1041272040    3.0934728988
   6.0871002254    1.5532208218    3.9594940641
   2.8868775599    1.3091565466    1.7175345476
  -1.9953318436   17.8979645289   11.5710943657
   1.8859430333   12.5661035628    3.1567920164
   2.0713319806   12.1942718288    1.5462843797
   7.1636191234   12.9559115333    3.6550218580
  12.6055853276   14.6435290809   17.7441925260
   4.8940378955    1.6705633067   11.8976694994
  13.5828035634   15.5975279234   18.7828181151
   6.5788092788   13.4528850609   16.7764907209
  12.0650143801   14.6403345501    7.8338279875
  13.5482344533   16.5695309183   10.9840754501
   5.5772069318   14.1324977882    1.6015074840
   2.8051069916   15.8647793668   11.6720857095
   5.8815197396   18.4299599001    4.4182902872
   4.0396639098   14.6017337370   11.8454966966
  13.3688407913   15.2844299044    8.8946307060
   3.9551891795    2.7926106658    2.2080736790
  -1.4516223254   16.1756841926   13.0019839084
   6.3866699691   15.1194560285   18.5110235664
   3.5693280594   11.9491376365    2.7996720678
   6.8053855808    0.7922995796    5.2211786703
   5.3522619974    0.5718169541    6.1962073875
   4.6793878687   13.5853127393   16.7661955045
   7.2782466447    3.9739996798   17.1355750435
  11.8422168974   18.9493994723   12.5719722309
   3.5121387931   14.7948552572   15.4604620729
   4.8679889326   14.7592195163   14.3081984135
   9.8018544558   14.3490873077    9.1271088103
   4.4352866695   16.1491489082   12.2386881412
   6.3116656347   17.5970377759    2.8290013229
   8.1232497240    0.8542948886    2.8237056533
  -1.7521031909   17.6886569769    9.9462301675
  14.2421970569   18.1050158274    4.2804277256
   6.4897932034    2.4401103748    2.5843206987
  12.9007179186   18.2545890945    3.1763165842
  12.6329389350   17.6013839649    4.8828258954
   3.5110551406    1.5662061062    3.4657995155
  11.6950088998   16.1394637763    8.6345629556
  13.7870186197   17.8653245207    9.6975145527
   9.5009278298   14.2354207386   12.1245471789
   1.4555207097   18.5521602398    9.1919028621
   2.7986154531   12.3027595292   11.2044072435
  11.9422435987   12.4757771817    3.4895495539
  13.5836139759   12.3998984002    3.2728627154
  11.3760732412   18.4479879162   10.9689922500
  12.0282086946   16.9737522760    0.5879240815
  12.1141958997   15.2096185738    1.1537355429
   1.4703912064   13.4111709739   11.5268493270
  12.0161053762   17.2455887795   12.1728652578
   1.1395451787   11.8883581626   10.4960763876
  12.8182344166   13.6759983859    2.4790790898
   4.1118560590    2.8995851603    6.0538360362
  10.0392669060   15.8849356329   10.0513863424
  -1.6826062770   13.6430926012    7.6922492548
  10.0239402639   11.0776766162    9.7421820970
   4.8929668080    3.1650644895    7.6945250519
  13.6271976634   16.2511513702    0.6088115842
   5.9014861711    4.9512587122    5.5686556048
   6.0150812899    5.0956403433    7.3164828011
  14.7686778893   11.7913974433    7.5906697452
   4.8222356000   19.5682491435   13.3912266331
   0.6218516145   19.5777953666    8.0409065175
   1.8621126305   18.4351321691    7.4364853627
   8.4185739195   14.3454451225   10.7836361510
   4.5388891708   16.8939518003   16.0047349788
   2.9053115414   16.9914075824   15.2355421927
  -0.2600211393   12.8549396206    8.0680201235
  -0.6254999224   11.0588561673    7.5638673940
  10.6928376210    2.0326836604   14.3312400677
  14.0461946371   15.4525030853    3.5537935696
   5.6703773555   19.1616262774   15.1517071736
   9.0399620927   12.4773890708    9.2522549982
  15.2936208280   11.0529198792    5.7268852767
   3.8457245634   19.4072859287   14.8801296429
  -0.8762970600   18.8037066424    6.3097216368
  -2.0305916419   17.4424190383    6.1122511453
   8.3673032501   11.2844603324   10.2329207120
   3.6905556897   12.5536183049    9.0332627844
  -0.8010257495   14.1272486827    9.2398733587
  14.1001673952   15.5244488978    5.1605901135
   4.0370673411   13.9436686952    9.8028716413
   0.9216823260   17.1724270466    6.1191975234
  10.8026373553    2.3451877999   18.9998381442
  14.6743309795   10.8675881048    9.0566361403
  -0.0981265759   15.9870524178    6.7246499868
  14.9077445726    9.2732790802    5.2241822507
   3.4035046560    5.7658560901    4.7493949728
   7.7023688259    8.5555849323    4.7142218467
   4.9090569005    6.7378847770    5.0450001436
  -1.1360461924    9.8505559713    8.8467188222
  15.4525700246   13.5033521736    5.5681617901
   1.1444460628    7.3238332805    3.6430162313
  -1.3656315186   10.1120807180    4.9378857396
  -0.0537495547   18.2480236749    2.6457581495
   1.2650883082   17.7759173965    3.6956167024
   3.1351724208   15.3260106211    7.6296641859
   0.7838703833    7.8096953682    2.0181756478
  -1.7530539239   14.8964419952    4.5259912456
   4.5413179096   14.1032126411    7.4108042108
  11.4840857614    5.6681750229    4.1734333815
   7.1736155935    7.0691177110   17.2280681403
   3.5065062560    7.3052997126    5.7209008320
   0.8774765212    9.0983486382    3.2119053012
   7.0224803678    7.3194805788    3.4872710694
   7.8933674462   16.2181224525   17.4908843527
  10.8933756494    4.4027031886    3.1028952026
   7.2667555682    6.9224588748    5.2281759236
   0.6683583451    4.2165132347   11.7946919591
   7.9527043793   18.0482500511   11.1583244110
  11.2803515158    8.9840012344    4.3745546336
   8.6039564873   15.4233001188   16.3273296475
  13.5921024765    6.1444847986    7.2911945266
  12.2433072157    7.6686322018    3.3679453229
   9.1603008367   19.4656014509   11.3196039952
   0.3811479559   19.2992102885    4.0203075978
  13.8468995026   10.5636459167    2.0696093557
  13.1614682485    6.0895087844    1.8817949095
   8.5837755523    5.3739849266    2.9465582742
  -0.2377030861   12.2772615953    4.1106296782
  12.6143627981    9.7056503691    1.8618288565
  12.1244683079    4.8509204032    0.9737323981
   9.6183104330   15.7907426001   17.6733829491
   9.0686822868    5.0333516772    4.6774774923
   9.6712050916   17.8547084041   10.5674774002
   2.6519525698   15.1919770853    5.4840988169
  -0.0699654598   14.0297802601    3.5394385476
   9.3546838052    9.3506661046   10.8657470493
  14.9747799329    7.3210107510    6.6341078682
  -0.5496374373   12.8536389123    2.3409523156
  15.2681197857    7.6851662038    3.8155366110
   3.9085146569   14.1081736454    5.1145873593
  14.7992082972    5.6400303388    6.1344778327
   7.9911387394   18.8459966963   13.3913252509
  16.6275419419    6.4846802201    3.9971685220
  11.6364445171    7.6459686174    5.9001045361
  14.0272667254    8.6200545544    1.8175561600
   2.0562580715   13.7269666130    4.7957516777
  12.9432215643    8.7700523065    6.2119790825
  12.0360440365    6.4912927796    0.3942111758
   8.8654123832   12.7641429567   16.9429064260
  -0.9965759475    7.7581117330   14.0566370035
   9.1260290230   11.1474038851   18.6334552845
   8.1757364438   17.1383753828   14.1692392327
  10.1333389588   13.3722651896   18.1719554820
  14.8495928892    6.3639896195    1.9709192461
  10.6163207512   18.2301215649   14.8240074020
  16.0472836512    7.1161780132    1.0634009758
   7.5928594578   12.0432223291   19.1856232216
   1.8949458425    9.6032520472   16.8137098186
   0.8344390729   14.0558895585   16.1486396347
  10.3220339536   17.4224152383    5.5965289448
  11.0130588426    0.8715600764    5.9308652615
   5.2264343255   10.6250287409    8.5519832369
   4.5291349036   11.1346240928    4.6146456031
  11.1817711815    1.1344801011    7.5780986712
  -1.1092468789    9.6021576420    0.9424920110
  15.5720720406   10.8192554305   18.6969665826
  14.4601224522    4.7230886329   12.1478020861
  16.0541587295   13.1348436797    0.7648272972
  14.6208222581   12.8686938165   18.9417635273
  -2.0165613545   19.8473708042   11.8019710740
   3.0413282245    1.3697519146   12.7992175182
   0.1368895059   17.5333706240   13.1817873176
  -0.2117209255    0.7951946950    9.7990924615
   9.2891132151   18.5103899318   15.8611780739
   4.7701004229   11.5747378905    7.0378474196
  15.6441852193   12.8815170312   14.5353912154
   9.2179251566   17.9623835511    3.6294740616
   2.5946730567    9.9056366605    8.7803087900
   2.8291022263    9.1785354676   15.4739521110
   7.8906781929   18.4498229316    5.2027623813
   0.8768919743    7.3706297638    0.1126752662
   1.7422384535   13.4533090554   14.6783216891
  10.1397139657   11.0612278905    2.7144067086
   2.5482323947   11.1589706824    7.6124880782
  11.7955830463   19.9947888021   14.0829545494
   5.5099025775   10.1234534001    3.4163181125
   1.9799305287   12.2893620587   17.1728186502
   1.7705132770   17.8530075014   12.7099071503
   1.3621699703    1.2510913440    8.7847906747
   9.5354790721   16.0979821463    6.4707564953
  -1.6637886598   12.7861381802   16.3003784995
  16.0537202305    3.9800651893    0.4391809866
   3.4879933698   10.4756653601   16.7539158063
  15.3392775985   11.5857188202    1.1688031004
  12.5502532381    0.4694821693    6.5479011103
   4.5812095273    9.5204590367    5.0240853247
  10.2162399335    9.7361136753    1.7063204979
  15.7999033237    6.1828569259   19.2013413479
   7.0102685753    9.9538204337    7.2148395441
  13.2707485746    2.1350297984   14.2240702812
   0.1709909218    7.6426709018   17.7653144977
  10.6348405139   16.9669479419    3.5530003234
  -1.3951713636    8.0630486635   18.4187125893
  -0.1197288307   19.5321972353   13.7139459427
   0.5905320813    1.8699626896   12.7759015703
   0.7547634475   17.1690411887   11.4264600669
   0.2759999347    2.4925599776    9.5298184985
   1.4122952218    9.7423539528    0.6647590507
  -0.4348905129    3.8964608374    0.5782019353
   0.0358158086   11.6521637434   18.8107639200
   0.5324337926   11.5929354810   16.5938925761
  13.5621479300    1.2859382526   15.7675101299
   9.2036351098   16.5676064245    2.5289715208
   1.8587440519    9.3601778541    7.2673424102
   7.3610364192   17.3199890199    6.4777742072
   5.7404601289    8.7841327593    6.6958673203
   8.7131470227   10.6364099650    1.8626502111
  -1.6099156921   14.4058410737   15.3886722805
   5.0928265797    8.7013183049    1.3517283571
   8.6043883664   13.9502161732    7.1073095803
  12.8056324967   12.7706284834   13.9823745521
   3.3991884646    1.7302089903   16.8651509981
   1.3288387491    3.1561156096   18.6888881561
   0.6243267833    5.9002950874    6.2626342776
   4.5835422998    4.9944714316    0.8223335150
   0.2274814645    3.3988547476    4.9437368117
  11.0052076591   11.4877412827    5.8505737976
   5.4519715751   17.4899525174   10.0246448910
  16.6104105304    0.8275881347    1.9824877479
  11.3831519536   11.8154623918   16.3496592093
   3.3567568834   16.1584343862    0.4775430322
  12.1285643347   16.8650390884   16.0885900096
   5.4034704519    0.6039119407   10.0481133190
   3.1083434410   13.9332228411    2.3779655308
   7.5882210004   13.6062627649    1.5507282232
  12.8694776397   19.5852437443    4.7146872682
   5.5273359670   13.3218620432   18.6213456664
  -1.9927707691   15.9320679605   10.9428274054
   4.4902967355   18.6446627190    2.9207087912
   4.8893174252    0.9397370098    2.1911732129
  11.5055752737   16.0373904106   18.6610261627
   6.3264072640    2.4665619410    6.2684871511
  13.4806280956   18.5921540108   11.4625063930
  11.7807694867   14.6684085406   10.0187409781
   3.0219337580   15.1985226737   13.5683660560
   4.7614438451   17.5296114552   14.1159540311
   9.4715486268    3.1847806622   15.4988352957
   8.9836051529    3.1467779931   17.9210218561
  -0.0307106583   17.6356243700    7.9470997330
   9.7098264327   12.6612633360   11.1076840076
  12.9479801584   13.9518682924    4.5992174077
   1.9827502421   13.5014169606    9.5712646966
  -1.9563465430   12.3994862658    9.1739553260
  16.0578482556    9.4816589583    6.9587399841
  11.1396487987    2.4360436439   17.0301215630
   4.1050541947    5.5053925679    6.5644435293
  -0.8437447822   17.6838268594    4.4778541578
   9.0982445552    7.1029148390    3.9673887029
   7.6853153997    6.4966113208   15.2851488170
  15.9196726034   13.2838034074    3.4237237880
   2.5243310855   13.5521305447    6.7020189014
   9.0454137296    7.4296079089   11.5810688512
  13.3856295341    6.7876472013    5.4235849906
  -0.7690605728    8.2390555854    3.1705594854
   0.1243343316    6.1721890672   12.1412531055
   8.2212667870   14.3695706741   18.1971771954
  11.0601768110    6.2241257262    2.0934904700
  13.3865376763    9.4643527091    3.7212274903
   9.3899178348   17.6631582316   12.5476952265
  16.2957435033    4.8836993311   11.3001788180
  15.8030241929    6.9135570924   12.6050585347
  16.9201072633    5.5022740979    1.9096121848
   2.0383095392   11.0473191609   15.3843462086
   9.6827480375   20.0306406195   14.5417728071
   6.3155572069   10.3494982073    5.3467127460
   8.5016471230   18.7400696560    7.2248129997
  10.3332181261   11.6475021033    0.8631879274
   0.0450300966    9.7335117436   18.1467920218
   0.2804111468   19.0658976251   11.7787095746
   1.5896693213    1.5698534305   10.8094986144
  -0.6529723674   11.6354976839    0.5159421823
   9.0677654179   16.1734853396    4.5487464374
  -0.2726923305   12.9604970116   14.7127976148
   3.8802462133    9.6219970949    7.2665979381
