B2 C140 Ca1 F48 H298 O66 
1.0
1.8115661284343499e+01 -2.4820606432193097e-16 1.3616875449374401e-17 
-2.2785200646519970e+00 1.9558140255122492e+01 3.4708574795056388e-17 
-8.6495073966971736e-01 6.8841075861984929e-02 1.9439331034721338e+01 
B C Ca F H O 
2 140 1 48 298 66 
Cartesian
  10.1037925992    2.3010006870   16.8773870147
  -1.1337568728    5.7141526424   11.9958502837
   0.0851618052    0.6911995483    1.4924046324
   7.5504237068   13.8405795978    6.6168073613
   5.4328777541    6.3871992372    1.3218529497
  12.9238038833   12.6357574129   12.4976094161
   3.8681772234    1.6114077701   16.0658124103
   1.7703449126    0.7613396613   18.8398491161
   1.5059857672    2.5181769178    5.3080229762
   2.4268087292    0.4487003605   17.4934661772
  -0.5531086335    3.1789834635    6.2862201346
   3.5158090189    5.2890387736   18.9932405344
   2.0669179510   15.2716284708   18.4989683038
   0.4212618890    2.7154813783   18.2902014336
  12.1067812616   15.1316425465   15.4547236786
   4.3783011910    9.9046911369    0.7410844765
   6.1883546438   16.6279842625    8.8706330814
  13.2498638078   11.7368160225   16.0174744096
   9.4891272014   11.6260699537    6.2779113548
   9.7830360988   13.1761726886    6.0306358639
  13.2647993381   11.4128893738   14.5358405391
   4.4622727019    7.6303370676    1.6052528607
  11.2796828338   10.6718625554   16.6993444799
  11.6442937819   10.9363652556    6.9489673827
   0.0009740675    4.4062189298    6.8981864457
   0.0708097216    6.6954331532    6.7590134532
   5.0263033717   18.6409368730    9.5296832850
   2.5880012558   16.0941839482    1.3042574748
  16.5216965468    1.3949493264    2.9539128579
   3.8157432763   18.9530310626   10.3715463906
   2.2159789935   14.8529840554    1.9294838801
  13.4347741798   16.1698806522   17.1732100531
   5.3080748224    1.3949648835   11.1425754360
   8.0023598301   13.0846459464    3.0888113180
  15.1951220631    0.9730014254    3.7154160182
   6.7875408880   14.1869826518    1.3710033317
   5.5670542586   14.2391152523   19.3235345592
  -1.7804150826   15.0924832052   12.2842040198
   3.3221755746   12.6266993395    2.7400874663
  13.0584879482   15.3373027756   18.4113609613
   5.7214832247   12.4353280082   17.6930286397
   5.5515569202   17.6995708799    3.9941554157
   7.1567167482    0.1235991485    2.5721417156
   6.1352843392    1.2162462443    2.8510902984
   4.0162246385    2.1330816774    2.2854705747
  -1.9749192269   17.1556707702   11.0407221613
   5.9109170685    0.7797975987    6.4765472801
  12.7061506048   14.7996983343    8.7958369014
  14.6609102088   17.0943714338   10.7552180351
   3.4768061491   15.2239704817   12.2477093053
  13.0509797625   18.1299311273    4.1910927970
   7.0164051646    2.0512959087   18.1017519784
   7.9213828743    4.0589065364   19.1469058586
   8.0950084282    3.1267348774   17.9120231509
   4.2474824899   14.9091740039   14.5043747023
  12.5894507433   17.7870289196   11.9777459075
  10.5897847184   14.4897792685    9.9375852278
   9.3185421047    2.2587062661   13.2156094668
  13.0002444054   16.3571281861    0.7141509629
  13.3875359025   12.7510254183    3.7709445437
  10.0633972434   13.8089862332   11.1778591684
   5.0407629584    2.9716810306    6.4677551814
   1.9245148200   12.4220947859   11.0007411465
   4.8715221637   16.2198537563   15.1655543864
   1.2462029893   18.4044395352    8.2063758776
  10.3905134547    2.4245807097   14.3525132876
  11.4412254140    3.5009675159   14.0943832836
   5.2497053459    4.5785078845    6.3237449132
   5.3037866015   18.3565747646   14.1117412952
   9.6794003262   11.7833751755   10.0612758418
  -1.1975491530   13.3080195322    8.1540476710
  15.7919128474   11.2509750876    8.3728449132
   0.3487256168   17.1101105717    6.6362897987
  -1.3214438529   10.2068992070    7.7646042672
   5.4452553551    6.3441629652   15.4423908365
  14.6330382638   14.7281072819    4.2936532953
  -0.6791751700   17.7560643842    5.7811330990
   3.6756446370   12.6211022024    9.2517662359
  16.5239642944   10.2304825172    5.4332113626
   3.6687891033    6.3409435102    5.5347021968
  11.7287564901    1.5723379997   18.4219418816
   1.9802444677    4.5970016565   13.1818014940
   9.7410081458   19.5268427497   18.5929057104
  16.0609505347   14.3516196715    4.5154474415
   6.8353147614    6.8081807340   16.0318845975
   3.6536676804   13.5668303903    7.9968853356
   8.1733563664    7.4944593284    4.6701921926
   0.4028919483   18.1390570764    3.8955010995
   7.1419368832    8.2809091841   15.7358995021
  10.1660345881    7.4070386766    9.6875179019
   1.0013699377    7.5062603778    2.7342355120
  12.9667425907    2.4476539149   18.7117026569
   1.9373685664    5.2783340007   10.6585153446
   1.1572066744    4.9966389648   11.9483962655
  10.7475342730    5.2237957222    3.2721986169
   9.4088346232    5.7580776319    3.7956330469
   8.7823400542   14.9481318207   17.3821165614
   9.1786482166    7.9216173597   10.7947688440
  12.5845285346    8.3731995606    4.1132587619
   8.8129170776   18.6353650861   11.8997878375
  -0.3336738129   12.8243887180    3.7639917528
  14.1558463609    5.8175323639    6.6375571500
   7.7423261942    8.3572193337   10.4790483171
  13.5486383118    9.4507875302    2.1280270709
  12.3681657064    5.3863340058    1.5621707324
   2.6073595439   14.0367647211    5.9965540565
  13.0145938013    7.6650856834    5.4909309468
  16.6727834498    7.1022550928    3.0853681750
   9.0222617500   17.4596836798   13.8887810879
   9.3121728846   12.7996335723   18.3731146610
  15.2758004878    7.7349556475   14.4476749173
  16.4017082606    7.5485701737   13.3593891179
  16.3532088192    6.1056898003    1.9698689723
  15.0774788895    2.6890613310   11.3114612643
   8.6599183015   11.5554235377   19.1707366929
  15.2896885593    4.2307345293   11.2803790574
  10.0430568355   18.1769037634   14.7942193027
  14.7836511632    4.8821838328   10.0030701618
  -1.5332337414    8.8816009357   12.5386874172
  11.8540974170    0.1030681428    6.9847249667
   2.9374549552    9.5987873536   15.9792272931
  -0.5622295847   10.4905369579    0.1443486304
   1.1656506319   12.8600215165   15.6579823324
  16.1308227359   12.3000050288    0.3238922577
   4.8888590991   10.1143042714    7.2062683233
   5.5566809834    9.7156247945    4.1889425949
   9.8242420268   16.5576694688    5.7000155483
   8.6523120977   17.5341224921    6.1562718595
   1.8214419895   11.5890621222   16.2040822719
   2.3253495481    0.0963968481   12.4541701396
   1.1670766641    0.7915730373   11.8370309312
   1.2934227618   17.6420762649   12.5762385425
   0.4420290080    1.1438453715    9.4603217700
   9.7963510505   10.3253228011    1.7016975627
   2.4736219824    9.9719025131    7.0478056971
   6.2152530132    9.6850619885    6.5584315450
  13.5588653914    0.6142961836   14.9325999462
  -0.1498905146    7.8833424030   18.4270065358
  16.4793175820    4.2403953670    0.6690897759
  -1.2010994462   12.4653124753   15.6097772710
  -0.0636411449   10.1745135567   19.3793118935
   9.5860125096   16.5446658074    3.1946800907
   8.9355272231    5.9379637538   13.5521524668
   6.7098073312    1.6504795217   16.8861323699
   8.9053284612    4.9654174151   19.0685278319
   8.9614508211    3.5396343108   12.7193011916
   7.5829672911    1.0018947231   18.7845878014
   9.1696117652    3.2733316192    0.8117219517
   5.8040798024    2.3868831002   18.7446355818
   6.8082764633    4.7916624627   19.2833609647
   8.2389607958    1.6600151468   13.7673382525
  11.8418027062    3.3553508401   12.8109877878
   9.8074648375    1.6369950400   12.0849572425
  12.5816570737    3.4408373738   14.8516321326
   4.4162370770    7.0590142146   15.8432600638
   5.3585311178    4.9978932336   15.8999738820
  10.9947568739    4.8455291788   14.3027479354
   5.2072248687    6.2188369613   14.0941825741
   2.6908812063    3.4765842461   13.0672796480
   8.5417405386   18.8069069801   18.2166302367
   2.8737039108    5.5795486711   13.3869343037
  11.4501636534    7.5409168131    9.9872427356
   1.0470926364    4.9276841367    9.6960151744
   7.5414606815    8.6042896496   14.3936694348
   8.1897283783    8.6871846966   16.5105276717
   1.1353434342    4.2158719983   14.2311472443
   9.8910628330    8.1894794581    8.5364621773
  10.9751013232   19.1476044310    0.4033908161
  14.0926738208    2.0828504171   18.0854887232
  10.7436772367   19.1854765363   17.7940380456
   3.0323961807    4.5169247702   10.6265919703
   9.9912928388    6.0835195540    9.2085764830
   7.1571819280    8.8595368210   11.5478943488
  13.9830947270    2.3303215078    0.6923417140
  12.7393963903    3.7328083584   18.3823027001
   6.1314865238    9.1736544077   16.0082669120
   2.3582082092    6.5639477361   10.5680436854
   6.9572373924    7.2928599450   10.0135030590
  15.4331632509    8.7031916926   15.3492711593
   7.6212314492    9.2486267439    9.4838019995
  13.7106591440    2.5253744847   10.9907653762
  14.0979426694    7.7247672231   13.8083485210
  15.1453398226    4.4207778620    8.8023755046
  15.7813128546    1.9712314469   10.4674471412
  15.1954375358    6.2008091518    9.9859222243
  15.2746680027    6.4984485972   14.9947632797
  -0.7835793382    8.4829842030   11.4884255758
  15.2930531771    2.2430283691   12.5770705327
  -0.8117239060    9.7707759732   13.2903008659
  13.3981236200    4.7837699864    9.9543723287
  15.4643057267    9.4863458448   12.0630961154
   0.7203771837    0.3863506763   18.8395537405
  13.8231838650   12.5692662246   16.2323575359
   2.0422062802    2.2299106553    4.2712468806
   6.1256903624    6.3330140656    2.1984124966
   5.4357304526   16.5822721415    8.1422456738
   9.0566359763   11.5673966310    7.2736448629
   5.9448190900    6.6428365987    0.3976453733
   4.4301464858    2.5209045206   16.2273553544
  16.4758840419    3.2640693465    5.9714253421
   0.1472348752    1.7567759593    1.7266169821
   0.9736684481   15.4011659714   18.5810460441
   0.0815041759    0.5591291913    0.3626054974
   6.9982479984   13.6657559183    7.5493188512
  -0.0715824999    1.9480063539   17.7801920746
   1.0170538558    0.1475225464    1.8242613313
  11.8173370714   12.4238056756   12.3770161686
   0.1974533072   18.9632031924   17.1714488963
   7.4184848826   14.8664524057    6.2601785261
  13.0253092708   14.7499347574   14.9395407870
   5.0864143210   10.7382158191    0.3583209695
  13.5087508416   12.0569767256   11.7342990367
   2.9885257674    4.3168961307   18.7963158407
   2.7004927585    6.0575693021   18.7791974007
  11.8195687423   10.0604196118   17.4868992788
  11.7410557839    9.9547099442    7.3169174143
   1.5971757304    1.5980958257    5.8625330572
  -0.4269908152    2.3425335960    6.9900454306
  10.8007321996   13.5801367079    6.2543764943
   2.9380179130    1.9727355678   15.6084830436
   5.7655911095   19.3582999749    9.6928995421
  11.9351458708   14.1684137192   16.1335473096
  12.5267284640   10.7570838203   14.2632618127
   2.4640363701   14.2451025139   18.5094825742
   2.4216727685   15.7379088108   17.6069805229
  11.3213817260   15.2428768861   14.7729705264
   7.2004791594   17.0178951515    8.4797444082
   0.7274571296    3.5199821960   17.6399990900
   3.2439308453   16.7655954061    1.9427637406
  -0.9607912748    7.0816854770    6.8979298370
  13.7012907806   10.8507292146   16.5670821089
   2.1271699911    3.2541075205    5.7700509927
   6.3851195896   15.6248496408    9.2444601416
   8.5318990716   11.3841644898    5.7057987122
   3.7971898551   10.3060564789    1.6642820498
   7.2733482698   13.0552314236    6.0028288824
   2.8488885845    9.7613235686   19.3297681627
   4.3507834514    5.5438538471   18.3725968393
  13.1117411153   13.6549103673   12.1909027013
   3.2513830918    0.2804507004    0.3716735228
   4.3980863056    0.8699652465   15.4675652145
  -0.0784494042    3.2245713539   19.1212845560
   1.6743343446    0.7937665482   16.8307983003
  17.2794084737    1.6099692906    3.6909460399
  16.2320864995    2.3287221460    2.5017162109
  11.3488953016   10.2264347744   15.7303630267
   4.3276681102    7.9040023993    2.6658463805
   3.5401031625    7.3733936811    1.1567847826
   0.6606641133    7.4792572064    6.2054291905
   0.9495333782    4.3648798966    7.4421177868
   1.7085983940   16.6867662572    1.0201684491
  12.5274635095   11.3431024562    6.4929422704
   4.1647172701   18.8976287957   11.3912688040
  11.4994239748   11.5802588697    7.9248805812
  10.2746255719   10.8456943629   16.9970702168
   9.5741142190   13.4411524033    5.0199063548
  14.1349690869   10.7876136667   14.4119189694
   4.6776978778   18.7563526652    8.5201650853
   8.3088490415   14.0057951139    3.7163302883
  -0.7826191729    4.6233369763    7.6910657783
   0.6579083238    6.6229163764    7.7401027742
   6.8743161153   15.2125497484    1.6896292176
   6.2397805673    1.9239275744   11.3706658470
   1.5609071369   14.1073752316    1.4484048271
  13.6357398872   17.3437511037   17.3748006956
  14.3369143241   15.6949837504   16.7050151338
   4.5840954426   14.6466613500   19.0116293609
  15.3147257191   15.3510780060   12.6024153514
   8.7532282769   12.3172210289    3.1596533553
   4.4740891350    2.1358027701   10.9593410507
   3.0459070562   18.1758246966   10.1356916962
   6.0184297782   11.3875812634   17.5653978730
  -1.9313415197   14.0409142215   11.9599829969
  14.4525790516    0.7433992411    2.9837139958
  14.8571097245    1.8162804816    4.4547532056
   5.1952829282   16.6729299466    4.0254319822
   5.3695814390    0.5253370240    7.4353384982
   5.0142842791   19.3587853751    1.5485006831
   1.5498321917   15.2599273523    2.8675065865
   6.1472060326    1.4369117641    3.9204732488
   2.9062482702    1.9387523969    2.0653299625
  -1.6065574097   17.6708895361   12.0737808939
   2.7487480927   12.4198207571    3.7085935088
   2.8353687252   12.0949638716    2.0695027573
   7.0716769051   12.6739589785    3.2866415909
  12.9217458304   14.2653045918   18.1405458366
   5.2114779315    0.8525263887   12.0481914864
  13.9082497836   15.3910053437   19.1540021071
   6.4655914101   13.0234283369   17.1647286369
  12.3645415836   14.4115645747    7.7785634464
  14.2642394242   16.1520554011   11.1435357561
   5.8562456180   13.7697428897    2.0037521735
   2.6657772150   14.6731948753   11.6479205022
   5.7912777127   17.9769488715    5.0436837913
   4.4475693704   14.7947536979   12.0175398768
  13.8681229489   14.6756371585    8.9442137891
   4.3069637746    2.8620141094    1.5279117585
  -0.9976387731   15.0427836231   13.0416081185
   6.4400037031   14.5255586153   18.7012853852
   4.3497555871   12.2841776271    2.8429080882
   6.8786708393    0.1612928617    6.3908374352
   5.2870887198    0.3930208540    5.6151392356
   4.7006418089   12.5542747598   17.1240848735
   7.8568415776    3.6862754752   16.9865063446
  12.4511108536   18.5332638183   12.7168017034
   3.8825783689   14.1974503280   15.2835774863
   5.0296970797   14.4014363524   13.9057054211
  10.2386451121   14.2461978356    8.9990950984
   3.3727682364   16.3802987502   12.0959429298
   6.4724254557   17.8807330595    3.3856123730
   8.1362379694    0.5384758723    2.9938637702
  -1.3000588654   17.3656564847   10.1909920253
  13.5289823413   17.9500326656    3.1896005898
   6.4451328168    2.1257121815    2.3487961188
  11.8865926149   18.1315563398    3.9611205632
  13.0755658600   17.3412890749    4.9547252990
   4.0752338993    2.6316424335    3.2553444772
  12.6632678888   15.9339127800    8.8141563282
  14.4939135460   17.0464835683    9.6492943052
  10.5996507207   14.2296209771   12.1041692290
   1.2872938161   18.7917530761    9.2601903599
   2.2193999866   12.6468592857   12.1216187191
  12.6220882507   12.0266003607    3.9548757472
  14.3890673784   12.1896901180    3.7303187287
  11.7795467142   17.7734720207   11.2569761935
  12.1068405797   16.5484635851    1.3284727526
  13.7981037350   15.9778129649    1.4596297659
   0.8505500918   12.7125916649   10.9030278290
  12.6775136781   16.8445579873   12.5242882758
   1.9880795585   11.3607612252   10.8802615933
  13.1390256568   13.1825134657    2.8026284205
   4.1182855233    2.9121225932    5.7933503722
  10.4401743674   15.5679797378   10.0705427396
  16.0159924301   13.5681336115    7.5384577812
  10.1234827542   10.7987555189    9.9502085004
   4.6646036207    2.6099664895    7.4363678017
  13.4177994064   17.2759616784    0.4444926634
   5.8131779728    4.8019970470    5.3792014413
   5.9391806900    5.0129826849    7.0645022521
  15.1927958677   11.5452249898    7.5456600047
   5.5333367120   18.7358614559   13.1134901555
   1.3981090234   19.1436562048    7.4300608033
   2.2674527280   17.9369221233    8.0991584045
   8.9454937110   13.8682272576   11.2551749804
   5.5497549183   15.9355436274   16.0757634580
   4.0641749706   16.6525861036   15.7985359918
  -0.2986239311   13.0958485998    7.4839395333
  -0.4519679248   10.8434336811    7.4906085399
  11.0692401896    1.5267702848   14.3655623740
  14.4782593569   14.8309033970    3.2644458698
   5.8799539023   18.9164888971   14.8670727373
   9.7835086164   12.3552024351    9.1007651033
  16.0555799492   11.2029413414    5.2082672669
   4.2617804433   18.6516195203   14.3841506207
  -0.6242087853   18.8991697430    5.7897008252
  -1.6015730661   17.4712173059    6.2841600229
   8.4957450083   11.7267218068   10.1602104618
   3.3902320854   11.6993923058    8.8036946130
  -1.0127495444   14.2093848508    8.6860924876
  14.5666392731   15.5894200586    4.9850924223
   4.6971382522   12.6228291198    9.6783404603
   1.3419792236   17.3230333608    6.2576806658
  10.9687231567    1.7605141482   19.1575939347
  15.2149446921   10.8469389899    9.1926731887
   0.1870583139   15.9767659862    6.6383351752
  16.1694722629    9.5554025609    4.5564601849
   2.7251054227    6.2179411109    4.9201487422
   8.1148696783    8.5633616005    4.5990100493
   4.5315156886    6.4592465224    4.8658771303
  -1.0225571333    9.3140175456    8.4245352325
  16.2023167227   13.9105542246    5.5582789465
   1.3317703000    7.1352778399    3.6834186139
  -0.4143910516   10.2895814471    5.4709193297
   0.8095019412   17.6381898026    2.9621587604
   1.3077965423   18.3980601105    4.4222523201
   3.8631882438   14.6485951274    8.4199624075
   1.1711768265    6.7070777992    1.9822729244
  -1.4537164452   15.2986805293    4.4031473488
   4.5168072391   13.2215112470    7.3270978745
  11.6996845400    5.4047323602    3.7582956831
   6.7636642176    6.7180677101   17.0788498858
   3.4399448230    7.2610868631    6.2263325883
   1.4541431074    8.4553866832    2.5290396316
   7.3523902892    7.1708166491    3.9483967670
   8.5343821975   15.9605837445   17.7874359844
  10.5638908077    4.1249767171    3.1607721260
   8.0883579679    6.8971778144    5.5639360181
   0.6505010581    4.0579546331   11.8925682377
   7.7751102497   18.9571208228   12.2285453762
  11.9279318782    9.0985324973    4.5045857889
   8.1328219808   14.5431882219   16.6268464369
  13.2955469867    5.3256123769    6.9873445513
  12.0909591143    7.6434630879    3.4666978378
   9.3983927716   19.5189143684   12.1336493883
  -0.2327734676   18.9565949950    3.6824011172
  14.6098170029    9.4352429102    1.8097255108
  13.1112971306    5.7902720650    2.3375756139
   8.7062909079    5.7543002650    2.9859925696
  -0.1817731659   12.3746544182    4.7402659866
  13.1716210767   10.5272672885    2.1522141005
  12.5490661635    4.2592720962    1.7121884179
   9.8009123865   15.0104011052   16.9130258442
   9.0619168190    5.0531528143    4.5585050369
   8.8048425862   18.2497478241   10.8987974940
   2.3500931278   15.1398912824    5.9914106389
   0.3727737624   13.7743008935    3.6330929796
   9.7746911101    8.8329087263   11.0710741853
  14.3582811510    6.5791142000    7.4043739118
  -0.1542123794   12.0609218931    3.0076976518
  15.8233969606    7.7468902312    3.3217169129
   3.5938214599   13.8823141810    5.5630881595
  15.1233595025    5.1344512355    6.6333261132
   7.9702283324   17.7224295588   14.0853935689
  16.8443953042    6.4451815496    4.0326032257
  12.0267714939    7.4498339997    5.9863459282
  12.9943972620    8.8289295622    1.4493456521
   1.9973121470   13.3884497189    5.4019292201
  13.5220476498    8.5238551280    5.9300361963
  12.6320454540    5.7374149857    0.5112129266
   9.0434538716   12.6035856185   17.3430989753
  -0.7665136932    7.3885305326   13.9340287169
   8.5322051874   10.7611131615   18.3036774342
   9.0471840642   16.3536685466   14.2625735729
  10.3832108664   12.6170208918   18.3572632486
  15.2483542089    5.6624129493    2.2633376317
  11.0185969107   17.5920008256   14.7036818853
  16.3553236512    6.5837823866    0.9443815451
   8.5356302173   11.8224389715    0.1647324362
   2.0982584509    9.0767907125   16.5095186796
   0.8693929870   13.3804692686   16.6180772405
  10.8698232051   17.0807188866    5.7861775396
  11.2642548150    0.6409194724    6.2589213373
   5.0295012272   10.1941235468    8.2863819377
   5.7395779945   10.4577691988    3.2511941562
  11.7732740083    0.7097846782    7.9104066284
  -1.1444896146    9.7079639471    0.7091171661
  -1.9784739196   10.5980225761   18.6390617759
  14.7298271116    4.5345807047   12.2133359128
  15.8909934439   13.2540486978    0.6790597523
  15.2953628488   12.1782134456   18.6504755369
   0.1712252075    0.3664150324   11.7726948458
   3.2071348817    0.8391971103   12.5735969553
   0.7530842914   17.1543124738   13.3624778324
  -0.4021731564    0.6310973540    9.9274751297
   9.7706918903   18.2146430800   15.8300893576
   4.5930905650   11.1158412395    6.7921861030
  -2.0109570616   12.7178992408   14.8591984046
   8.5935952426   16.9282502217    2.8342209345
   2.1939137399   10.2447542937    8.0410751813
   3.6741332075    9.1633290516   15.3801277550
   8.3765403830   18.0162967086    5.2111076579
   0.6588276243    7.3297267394   18.8911848565
   1.8054307094   13.5450361934   15.1501223472
  10.5662944061    9.9855703166    2.3936422685
   2.6367250080   10.8039556874    6.4046823818
  11.8240525501   19.5348810003   15.7479700902
   5.9202240990    8.6565211157    3.8113836665
   2.6068939664   12.0132039347   16.9051529125
   2.1327803294   18.1186429951   13.0120660184
   0.9365215884    0.5103988941    8.7402270199
   9.9214039948   15.7095831692    6.4086196595
  -1.3577797098   11.4384392539   16.0027865339
  15.4276309905    4.5638835699    0.6650732169
   3.5247333890    9.9851465817   16.7274295445
  15.3670517815   11.5763258723    0.5930901658
  12.9279442999    0.1057564652    6.6941095498
   4.4064606478    9.7196105780    4.4319221700
   9.1556516867    9.4186024341    1.3676836405
  16.2231998968    4.5084944480   19.0632630499
   6.8854493166   10.3151432808    7.1809522927
  14.3818428831    1.0350395849   14.2724666775
  -0.2494025692    7.5334650291   17.3735431007
  10.3059845228   17.4826822445    3.1509813083
  -1.0768495635    7.6258444533   18.9625963473
  -0.3789966441   19.3810381054   13.5338288430
   1.0799646334    1.6380067040   12.6405835072
   1.3519888539   16.7845738047   11.8475907474
   0.0463094653    2.0830411106    9.0375886113
   1.2236424812    9.6177998375    0.8083698228
  16.7508678083    3.2298644652    0.8495949613
   0.5469566483   11.0176457257   19.1098624910
   1.0207480181   11.0312671884   16.8455023051
  13.1607333094    1.3451562383   15.5666677807
   9.9444602300   15.8879146918    2.4587147228
   1.6843396860    9.3494365686    6.5384971712
   7.7708280943   16.9687450074    6.4458075380
   6.2574011861    8.6274657050    6.7573144543
   9.1670271033   11.0623795889    2.2398114081
  -1.3684816676   13.2463493974   16.4006405262
   5.0956787548    8.8063815939    1.1193141820
   8.9570661509   13.9027614388    6.9401851659
  13.4241886006   12.6287035831   13.8538558175
   3.5633983429    1.1683625086   17.3919412837
   1.5463320431    2.1340507253   18.9075325410
   0.0560540243    5.4629067263    6.0037267240
   4.7243369084    5.2141667797    0.9670048687
   0.1545917669    2.8243539945    5.0198628470
  10.5824938035   10.8364600987    6.0194085414
   5.6096381915   17.4285870496    9.9744042971
  16.9409241419    0.3139556167    2.1560284921
  11.9458745808   11.9096385007   16.6973361085
   3.5245231070   15.9574291151    0.2611427002
  12.3915585547   16.2490784628   16.2942339799
   5.5296880751    0.5995725869   10.0171407785
   3.4383623228   14.0915017364    2.4535047930
   7.8547781979   13.3629439542    1.7155306807
  13.2536806039   19.4742510403    4.6060397717
   5.5872453376   12.8005601502   19.0160655617
  -1.4731579087   15.7335790929   11.0720279900
   4.5143997053   18.5289988227    3.4662336605
   4.7869441413    0.9188079671    2.3101299315
  11.8318049754   15.6273323981   19.0211946596
   6.1381517811    2.1874992528    6.0933766953
  13.8804604490   18.0888505707   11.4176271675
  12.0106816532   14.0563263943    9.8097813312
   3.0717652812   15.1984961327   13.6689187605
   5.3711335624   16.9375470861   14.1069003404
   9.7670579935    2.5385407595   15.5945025188
   9.4107004666    2.7743924317   17.9067777847
   0.1871194886   17.6142788101    7.9096392330
  10.2826478081   12.3461450659   11.1407032841
  13.5698002766   13.8023525468    4.7663470250
   2.6342945299   13.2099892286    9.9790676389
  -1.6548347102   12.3109494112    9.0804899996
  16.0561382385    9.6383507686    6.6089705566
  11.3399565138    1.7758482448   17.1232877527
   3.9585904833    5.1966431163    6.3133068266
  -0.4477522634   17.2421463331    4.4873412233
   9.4462267036    7.0997528201    4.2324530573
   7.6597319699    5.8589356264   15.4769266961
  -1.7023987991   13.2281149518    3.6646739784
   2.5685658194   13.4330407915    7.3043963968
   9.0857642109    7.1306349157   11.8606086066
  13.9069522771    6.4991752480    5.3675188479
  -0.3184310374    7.9561481245    2.7550386120
   0.2310604481    6.0193131894   12.2477782539
   8.7371120220   14.1592008174   18.6619802899
  11.0212704077    5.7259060271    1.9286135500
  13.7377919744    8.9344004645    3.4636204373
   9.2402904013   17.3691600239   12.5057071343
  16.6810120895    4.5488061050   11.3678159521
  15.9283227590    6.5847710531   12.4689108299
  17.1027271681    4.9849970830    1.7307224503
   2.3657951637   10.7503527401   15.1861537871
  10.3197649458   19.4532649717   14.1399228145
   6.3852823387   10.2522869661    5.2540252530
   9.0635659183   18.3651164668    7.1822729966
  10.4193838306   11.0705849433    0.6914603002
   0.0841416865    9.2728258576   18.2057035628
   0.4890743318   18.4988577923   11.7891807534
   1.4490266126    1.5611601537   10.5644753438
  -0.6379027127   11.7414131307    0.7431351562
   9.5491716527   15.8845361530    4.5126488624
  -0.0322159436   12.6792964057   14.8227550012
   3.7201329242    9.2314897961    6.9573833818
