B2 C140 Ca1 F48 H298 O66 
1.0
1.8156999389726920e+01 -4.2941687075304998e-16 6.1120528325846352e-17 
-2.2798433534212785e+00 1.9534424298675304e+01 -2.7254628076009554e-17 
-8.6578328111525593e-01 2.8046830178182765e-02 1.9413435497352094e+01 
B C Ca F H O 
2 140 1 48 298 66 
Cartesian
  10.1038143626    2.2579792093   16.8212847576
  -1.1083785679    5.7007825564   11.9999589314
   0.0696359689    0.6911104031    1.4483847237
   7.5867478132   13.8115946191    6.5864938700
   5.4350599357    6.4092871427    1.2993682892
  12.9955420547   12.6054477232   12.4767164846
   3.8381766244    1.5834375101   16.0442643086
   1.7885153241    0.6593688562   18.8195084922
   1.4833450973    2.4882618356    5.2772515571
   2.4284498150    0.4144859885   17.5238048481
  -0.5468976419    3.1709066720    6.2632334137
   3.4630913222    5.2268418116   19.0035563424
   2.0847478791   15.2240876792   18.4767248344
   0.4385586401    2.6610282886   18.2787677079
  12.1381856587   15.0425839937   15.4671138935
   4.3529080754    9.9045820531    0.7294141894
   6.2170093353   16.6150896935    8.8806423924
  13.2576622726   11.6837436690   16.0189259401
   9.5109102488   11.6419274791    6.2484260578
   9.7830608305   13.1195019027    6.0363377588
  13.2780954219   11.3792681976   14.5748302891
   4.4826271130    7.6192887281    1.5874947855
  11.3256875471   10.6780108686   16.7093389074
  11.6763850532   10.8720515067    6.9643968250
   0.0168431791    4.3560756458    6.8818039789
   0.0952978915    6.6340589745    6.7424831093
   5.0260774498   18.5992905258    9.5081330388
   2.6360250273   16.0431304134    1.2456357710
  16.5549694255    1.3880034311    2.9626717050
   3.8223046399   18.8896558878   10.3462155894
   2.2192285829   14.8151385196    1.9596283753
  13.4967509142   16.1241306812   17.1459295544
   5.3629195256    1.3663579706   11.1281725127
   8.0389723141   13.0746932833    3.1074170440
  15.2598548507    1.0044079954    3.6925298607
   6.8156667801   14.1519131560    1.4208241536
   5.5965342188   14.1799745812   19.3236735279
  -1.8163631761   15.0075604834   12.2566091041
   3.3503657455   12.6288219384    2.7806852884
  13.1044995340   15.2911362928   18.3940965945
   5.6882402099   12.3890821497   17.6876277906
   5.5351342192   17.6560224888    3.9811304322
   7.1784955608    0.0891435440    2.5985162885
   6.1464516635    1.1911700738    2.8270324740
   4.0432936246    2.1425759244    2.3041079848
  -1.9370705827   17.1272407364   11.0525551254
   5.9056586007    0.7532743575    6.4351930275
  12.7223979330   14.7605896045    8.7588310680
  14.7256928903   17.0185756961   10.7519557344
   3.4749276958   15.1969190969   12.2260271709
  13.0714196005   18.0738348798    4.1744621149
   7.0331588941    2.0471236320   18.0327270042
   7.9362176026    3.9915998260   19.1036488794
   8.1077605096    3.0822517550   17.8590468867
   4.2561580310   14.8820471932   14.4792573435
  12.6569456202   17.7622981094   11.9653199756
  10.6567949164   14.4450774869    9.9145668793
   9.3227568121    2.2209328427   13.1754159001
  13.0518229935   16.3531599191    0.7156843775
  13.4363409328   12.7249673354    3.8213092336
  10.1195028220   13.7772122455   11.1550059425
   5.0014758342    2.9491173752    6.4575221513
   1.9464072531   12.4096260910   10.9878694146
   4.9074898205   16.1554798078   15.1405253834
   1.2616549340   18.3871092140    8.1882417689
  10.4189432145    2.3838008524   14.3343009419
  11.4853975799    3.4402880237   14.0540310633
   5.2879664417    4.5248311128    6.2940894625
   5.3230031323   18.3075532509   14.1263435155
   9.6878323334   11.7668074302   10.0337308284
  -1.1989311841   13.3240401398    8.1477029079
  15.8254318461   11.2118312568    8.3837088444
   0.3577919373   17.0463904000    6.6087071050
  -1.3168703041   10.1773156369    7.7455502400
   5.4739355854    6.2802764768   15.3778406626
  14.6829182969   14.6726428999    4.3121946426
  -0.6570312878   17.7043442827    5.7926731446
   3.6891948467   12.5722397455    9.2780912266
  16.5603916542   10.2091532635    5.4005552070
   3.6551202540    6.3020416107    5.5701269794
  11.7607101293    1.4894492702   18.3965591251
   1.9636007577    4.5875191917   13.1321563395
   9.7609358035   19.5021912539   18.5844830377
  16.1343080086   14.3567451192    4.4916323922
   6.8472993088    6.7422173049   16.0194088635
   3.6846145777   13.5286217931    8.0440702088
   8.1787345071    7.5018679083    4.6664366489
   0.4029178687   18.1419313667    3.8492835253
   7.1663794372    8.2186355176   15.7049312994
  10.1703816908    7.3751178110    9.6646613102
   1.0201746099    7.4656929591    2.6879283962
  12.9573893797    2.3824090866   18.6798873662
   1.9320639886    5.2443771966   10.6357518072
   1.1304118450    4.9526259071   11.9112348909
  10.7491497184    5.1963992888    3.2900651135
   9.4619054879    5.7377535145    3.7734139241
   8.8134199225   14.8520876155   17.4333056645
   9.2212146282    7.9074729833   10.7972107019
  12.6422160768    8.3242601634    4.0857430435
   8.8093553029   18.5980745683   11.8912492150
  -0.3105125599   12.7682925740    3.8186634191
  14.1869270922    5.7958815152    6.6177201886
   7.7588074197    8.2987264202   10.4922385505
  13.5555828178    9.4435424036    2.1343209099
  12.3635770389    5.3609944996    1.5379031275
   2.5959753956   14.0024824788    6.0418741809
  13.0490605008    7.6374364702    5.4426791828
  16.7072447622    7.0630645984    3.0722842706
   9.0447476204   17.3806706053   13.8907211465
   9.3237302666   12.7907912815   18.3689865105
  15.3118524999    7.6864147297   14.4175332907
  16.4292532770    7.5404723790   13.3546807590
  16.4025703522    6.0802989927    1.9462993370
  15.0623799894    2.6671986770   11.3361197512
   8.6704476818   11.5185021436   19.1111849680
  15.3236346363    4.1837384456   11.2367518155
  10.1037350735   18.0919410471   14.7922015121
  14.8545787570    4.8285623872    9.9718160490
  -1.4943357421    8.8355658317   12.5576134194
  11.8921457965    0.0800040330    7.0068977205
   2.9321799452    9.5772166281   15.9509996924
  -0.6041959004   10.4558586263    0.1545042739
   1.1777576343   12.7914886155   15.6288359696
  16.2044185311   12.3030667356    0.3099333818
   4.8860191084   10.0835270189    7.1884678760
   5.5554573920    9.6560636092    4.1704101834
   9.8469793141   16.5730648874    5.6996964347
   8.7109676768   17.4808782826    6.0944360987
   1.7954653906   11.5287982967   16.1554124063
   2.3260581646    0.0722537611   12.4797230773
   1.1520970850    0.7636568536   11.8435095489
   1.2760675891   17.6006036254   12.5316364200
   0.4525985526    1.1288368969    9.4444732145
   9.8167632936   10.3201514624    1.6932124192
   2.4685620480    9.9347948784    6.9883892044
   6.2178996196    9.6481551169    6.5545951520
  13.5970884715    0.5858246415   14.9141375153
  -0.1719054435    7.8503750076   18.3793301298
  16.5248638151    4.1963419535    0.6690072799
  -1.2172669657   12.3857982177   15.6042920719
  -0.0559010477   10.1259857678   19.3370561042
   9.5965340136   16.5414832770    3.1799092830
   8.9817956135    5.8998750681   13.5319197667
   6.7435526703    1.6322858258   16.8572144925
   8.9527955558    4.9206129555   19.0435096601
   8.9815358146    3.5026262888   12.7269479333
   7.5969870030    0.9728765019   18.7224131096
   9.2044642348    3.2687190348    0.7877699343
   5.8257850973    2.3767977366   18.7070596182
   6.8591960894    4.7725175935   19.2749677807
   8.2639748044    1.6349868726   13.7662972339
  11.8484669191    3.3200599784   12.8144681978
   9.8372712089    1.6014181000   12.0802144398
  12.6341786684    3.3905147975   14.8242799364
   4.4180883012    7.0208021505   15.8178783412
   5.3377076105    4.9887768670   15.8547693897
  11.0269251198    4.8181989490   14.2863870951
   5.2662018606    6.2066636604   14.0372292070
   2.7031912899    3.4382371537   13.0309352766
   8.5549780927   18.7538553515   18.1681905151
   2.8630851288    5.5743856979   13.3562593161
  11.4439359443    7.5212243671    9.9895037281
   1.0465236215    4.9114943397    9.6850239226
   7.5665197074    8.5588808211   14.3770776951
   8.2385976705    8.6548566262   16.5080703529
   1.1454776821    4.2061333809   14.1684371949
   9.9001841701    8.1697074300    8.5337823387
  11.0110034997   19.1371161868    0.4036019471
  14.1150136058    2.0475255225   18.1114710707
  10.7617964931   19.1263668830   17.7841710717
   3.0441996307    4.5000095972   10.6121814501
   9.9949895739    6.0947237045    9.2221652188
   7.1827388084    8.8166066827   11.5384455846
  13.9966256422    2.3537839800    0.6635110766
  12.7618073957    3.6997205425   18.3175822637
   6.1337621548    9.1008133448   15.9967221371
   2.3545675789    6.4849051034   10.5622119964
   7.0182704166    7.2982784920   10.0224925523
  15.4467373302    8.6327632814   15.2994135422
   7.6501004154    9.2208350652    9.4717401061
  13.7477720012    2.5107703878   10.9922842928
  14.1171208752    7.6976279386   13.7432782647
  15.1733036869    4.3870439932    8.7928414526
  15.8038405686    1.9247752767   10.5028371174
  15.2511495519    6.1662843004    9.9921138576
  15.3305440654    6.4612477437   14.9707341943
  -0.7465446026    8.4241312995   11.4663486843
  15.3377699902    2.2080799986   12.5417802185
  -0.8243554879    9.7262106314   13.2661917961
  13.4258995472    4.7533303098    9.9298612837
  15.5024971234    9.4519386063   12.0188245585
   0.8068351020    0.3403008930   18.7302536840
  13.8599941075   12.5480354188   16.2688325009
   1.9944838609    2.1851476835    4.3688987790
   6.0964679015    6.3170084850    2.1387834298
   5.4471264255   16.6293820312    8.0900054325
   9.0786742351   11.5360413869    7.2582052927
   6.0208637342    6.6492360323    0.5055320874
   4.5187099154    2.3887755406   16.1653019518
  16.5472168568    3.1734179357    5.9415004486
   0.2302087677    1.7144558352    1.7884397379
   1.0161319161   15.3127090309   18.5313113680
   0.0659781304    0.6157936098    0.3732617757
   7.0391693467   13.6560354022    7.6020817430
  -0.1785829011    1.9731225788   17.7575370604
   0.9505620075    0.1374650900    1.8167776849
  11.9640049808   12.4159240073   12.2960525848
   0.1898047740   18.8765527731   17.0354056318
   7.4122096293   14.7747340315    6.2785114931
  13.0871369069   14.8095150131   14.9985829757
   5.1233440116   10.7248595613    0.4049628634
  13.5994534362   12.0369829617   11.8122623976
   3.0162446344    4.3148020418   18.7770792812
   2.7972956450    6.0770441035   18.8226063454
  11.9312718567   10.0962550386   17.4625477092
  11.8081375195    9.8142161659    7.3298267548
   1.5801855723    1.5594509236    5.9055911776
  -0.3685741070    2.3035115980    6.9993718449
  10.9194125722   13.4929399768    6.2043934724
   3.0047705248    1.9646311076   15.5399522837
   5.8924977895   19.3793526763    9.6276474342
  11.8637403076   14.1715392053   16.0817146661
  12.4588064726   10.6692985950   14.1550961438
   2.3395872508   14.1856122192   18.4867073687
   2.5323729885   15.6345576368   17.4995140012
  11.3210898203   15.2580649726   14.7681041736
   7.2341102428   16.9534442252    8.5559059432
   0.7247258971    3.5392861328   17.5866617274
   3.2385928439   16.7056202047    2.0475628159
  -0.9324418386    7.1603309508    6.9319131783
  13.8358785547   10.8953041535   16.5190621647
   2.1263844833    3.3022290313    5.7436495800
   6.2621505825   15.6223758883    9.2973805635
   8.5641191026   11.4212748913    5.6871944645
   3.7615442544   10.2719227165    1.5681007719
   7.3229554384   13.0149398188    5.8778665938
   2.8372330163    9.7706470105   19.2956850225
   4.4076059279    5.3995803548   18.3362344670
  13.1653776776   13.6389558703   12.0587460301
   3.1934926378    0.3353625395    0.3625353449
   4.3382603743    0.7674008143   15.5451360616
  -0.1380827684    3.2584201236   19.1736840805
   1.6296439993    0.7603149044   16.8226497391
  17.3275273807    1.6667068770    3.6994113973
  16.2767774277    2.3884778933    2.4088329929
  11.3179413184   10.0762850687   15.6457850637
   4.3341101152    7.9241977573    2.6479419674
   3.4809077772    7.2836979359    1.1774621693
   0.6000782560    7.3934403119    6.1800974674
   1.0289118936    4.3933747455    7.3781540066
   1.7389981849   16.6024261870    1.0508198564
  12.5691219194   11.3995574047    6.5090067422
   4.2032280060   18.7878585527   11.4341251033
  11.5012586908   11.5802489041    7.8445071721
  10.2618715781   10.7830907371   16.9964466687
   9.6992073542   13.3653051899    4.9691262706
  14.1390515325   10.7180874567   14.3071865101
   4.7218240464   18.6572037133    8.4772293870
   8.2134594279   13.9094229640    3.7470319702
  -0.7568351037    4.6208310211    7.6835092428
   0.5902552075    6.5113486375    7.7654487819
   6.9617213347   15.2209596651    1.6793052949
   6.2912514669    1.9073395832   11.3902119734
   1.6212864801   14.0295665624    1.3399362039
  13.6212134234   17.1923167177   17.3698255737
  14.3668274031   15.6870310382   16.6110630804
   4.6195589716   14.5724130939   18.9756542243
  15.3590092772   15.3275470220   12.6392183268
   8.7710753817   12.2628806331    3.1721803224
   4.4530838093    2.0130540589   11.0521778940
   3.0015459104   18.1216886466   10.1468487155
   5.9993070881   11.3524877660   17.5514874545
  -1.9004296591   14.0350846185   11.9910032441
  14.4317924834    0.7227409660    2.9367326258
  14.8652836208    1.7976127458    4.3344438682
   5.1630111317   16.6086529391    3.9974691956
   5.3462789222    0.5730747755    7.4052754535
   5.0236411716   19.2777766572    1.5530678303
   1.6339627369   15.2568868940    2.8183191331
   6.1797441267    1.5088531130    3.9626160243
   2.9888998041    1.8722406259    2.0150045967
  -1.6163240713   17.6022660722   12.0007722222
   2.7691198596   12.3361797579    3.6768122871
   2.7353317891   12.0759286930    2.0349605298
   6.9792526241   12.6855674882    3.3879240200
  13.0448154571   14.2579237969   18.0651917786
   5.1591108712    0.8219098195   12.0842584179
  13.8726634239   15.3075364106   19.1854433753
   6.5000383029   12.9896354510   17.2071813258
  12.4070024573   14.4231006879    7.7972806182
  14.3037270525   16.0775695889   11.1750146367
   5.7948683663   13.6510870161    1.9305342259
   2.7273822673   14.7067561395   11.6351220119
   5.7611084573   17.9266640567    5.0461962912
   4.4956309265   14.8038880908   11.9801551988
  13.8384482430   14.6961011469    8.9098974576
   4.3795527712    2.8278454396    1.4873383561
  -0.9499690869   15.0026289794   12.9104364057
   6.4154001858   14.5213371648   18.7121957939
   4.3892853284   12.3549198143    2.8353116684
   6.8719264922    0.2854476107    6.3868400963
   5.2641326963    0.3149153492    5.6085722627
   4.7243507941   12.5068689131   17.1702195211
   7.7830260642    3.6411760208   16.9461249250
  12.4042572141   18.5251181806   12.7564774617
   3.8845893695   14.2187632511   15.2581744777
   5.0922814709   14.3568570389   13.9274484645
  10.3157744743   14.2620557203    8.8878870877
   3.4025701667   16.2944585766   11.9620970390
   6.4677309645   17.8401323034    3.3870539777
   8.1554954656    0.4946770212    2.9615699410
  -1.4155408330   17.3760531474   10.0881930383
  13.4475958386   17.9953616782    3.0999970436
   6.5090127952    2.1715896919    2.3838400288
  11.8650111521   18.0516846187    3.9661281373
  13.1422906903   17.2378421351    4.9023797462
   4.0397517168    2.6415435361    3.2794595450
  12.6964400789   15.8752142432    8.6579756105
  14.5965267566   16.9867088800    9.5661182801
  10.5864195141   14.2495430806   12.0276541011
   1.2854195788   18.7375512458    9.1979484250
   2.1304680276   12.6823316359   12.0357278287
  12.6034570108   11.9721260861    4.0127688034
  14.3685451050   12.1693008916    3.6941070687
  11.8043329178   17.6839097528   11.2079239784
  12.1205018448   16.5251107112    1.3047487875
  13.8547667681   16.0001486257    1.4346619260
   0.9010183437   12.6539915842   10.9484425461
  12.7749898266   16.8678007358   12.5255170230
   2.0015461812   11.3321799237   10.8845383479
  13.2334156828   13.1412432959    2.7273701592
   4.1491274459    2.9027068922    5.7732644775
  10.4918658086   15.4986797660   10.0940065535
  16.0973541734   13.5246145067    7.4668944334
  10.1586027425   10.7268612917    9.9528354816
   4.7277181112    2.5903169369    7.4555754055
  13.4244168266   17.3295944483    0.4987796012
   5.8759430295    4.7567897193    5.2942768539
   5.9581376724    4.9903326000    7.0626896093
  15.1246804281   11.5100028328    7.5786778612
   5.5143055325   18.6722909347   13.0890991213
   1.4033155475   19.0290117302    7.3587922196
   2.2600121693   17.8414797303    8.0883595777
   9.0423618039   13.8818701840   11.2284682788
   5.5004441608   15.9365882793   15.9715250965
   4.0754093672   16.6385179541   15.7066194253
  -0.3508537051   13.0482751977    7.4736851483
  -0.5329071228   10.8251714596    7.4581873088
  11.0872950089    1.5280456065   14.3330317075
  14.5261906550   14.8182560780    3.2541801511
   5.8762049785   18.8142800774   14.8650831688
   9.7903321739   12.2449777382    9.0750043656
  16.1303834730   11.1890223942    5.1498136817
   4.3297449877   18.6215818027   14.3791491573
  -0.6479069635   18.8176164836    5.8405004402
  -1.6070146081   17.4044275923    6.1611478694
   8.5185112749   11.7063268084   10.2030098702
   3.4053919962   11.5360952405    8.8024496681
  -0.9794135250   14.2955984961    8.6979577640
  14.6178370483   15.5808723795    4.9209593843
   4.7397183774   12.5106017026    9.6943577133
   1.4236400768   17.2465428189    6.3448424519
  11.0041857943    1.6632167214   19.1255777146
  15.1870072992   10.7016148725    9.1223058074
   0.1887679716   15.8990682886    6.6334771405
  16.1871148487    9.5865573872    4.5307186352
   2.6887856130    6.1940584270    4.9468503825
   8.1672976317    8.6167844901    4.6916330170
   4.5654257571    6.5065073032    4.8511138204
  -1.1034838256    9.3965300467    8.4714156101
  16.2443549324   13.9519334556    5.5137755661
   1.2809433997    7.1057014877    3.7996510046
  -0.5222300654   10.2655293557    5.4980923637
   0.8334725635   17.5746366954    3.0039344141
   1.3576422444   18.4132174884    4.4174123438
   3.8710993970   14.6790107078    8.4041962677
   1.2165192628    6.6814776125    1.9352697865
  -1.4895720444   15.2946014897    4.3789638145
   4.4956434570   13.3144551552    7.4258383792
  11.6604590147    5.3989547107    3.7431945559
   6.7327766277    6.7159966626   17.1478060416
   3.5403197161    7.2291325516    6.2097800692
   1.4958986210    8.4775486441    2.4767529294
   7.3748923160    7.1614352435    4.0091312074
   8.5484212376   15.8715164143   17.7913938604
  10.6178276825    4.1161196269    3.1679521110
   8.0862807698    6.9694931226    5.6795730097
   0.5772052792    3.8741560831   11.8134673438
   7.8679259675   18.8972222925   12.2997502147
  12.0979900331    9.0751778539    4.5656695262
   8.0602517561   14.4888878542   16.6025483383
  13.2096076349    5.1918367344    6.9618417458
  12.1355614906    7.5462329950    3.4885594700
   9.4952524302   19.4529233175   12.1423436522
  -0.2774289159   18.9883010219    3.5599730559
  14.5549461973    9.3703088921    1.7720809608
  13.0791528556    5.8095957510    2.2144690839
   8.7475805880    5.6734041240    2.9999628130
  -0.2087074950   12.3494867794    4.7836227514
  13.2790028516   10.4926362870    1.9894503660
  12.6527436462    4.3250521129    1.5883516036
   9.8055272567   14.9760835105   16.7496282694
   9.1003310003    5.0355478307    4.5287490607
   8.7017967192   18.2330993215   10.8548037020
   2.4151178365   15.0214033395    6.0095037114
   0.3599592825   13.6725381132    3.6370992563
   9.7433723537    8.8554026058   11.0661735122
  14.4102290323    6.5664147075    7.3454802219
  -0.1574350874   12.0212892798    3.0651926212
  15.9493287099    7.7593564467    3.3854733691
   3.6517463069   13.8305783096    5.5007619525
  15.0734267088    5.1344387026    6.5148385977
   7.9833252589   17.7674507802   14.1016432489
  16.8540070628    6.4134670072    3.9269400264
  12.0868068219    7.4700445078    5.9297438388
  12.9097061454    8.8502947189    1.4012628558
   1.9366551012   13.4496665062    5.3337135701
  13.6276804045    8.4301307028    5.9999581776
  12.7454679917    5.7720383290    0.5729650254
   9.1358588703   12.4790907004   17.3011046997
  -0.7939775154    7.2740144200   13.9569710583
   8.5302106757   10.7575398364   18.3320908691
   9.1042547154   16.3640821992   14.2854519383
  10.4636354105   12.5819682664   18.3423173430
  15.3990230742    5.6263647901    2.2469024628
  11.0636889637   17.5751491615   14.6929473483
  16.3153030917    6.6163389071    0.8606084948
   8.5869401703   11.8064914064    0.1068182774
   2.0986147750    9.0640397332   16.4883868646
   0.9247074580   13.3563035201   16.5533656874
  10.7807904697   17.0635939769    5.7225650882
  11.2413742906    0.6819772455    6.2667895459
   5.0012781992   10.1775560332    8.2881303567
   5.7900798732   10.2901700366    3.2934964164
  11.8121636257    0.6491656077    7.9049455037
  16.9351170312    9.8537437615    0.6617027499
  -2.0267131622   10.5256782901   18.5981395712
  14.7682911933    4.5166621414   12.1406076584
  15.8919188581   13.2740827963    0.6961831421
  15.3365779135   12.1787411590   18.5993780083
   0.1652723023    0.3601456188   11.7906435820
   3.2327664228    0.7263579904   12.5402555753
   0.7161061579   17.1825088579   13.3428883965
  -0.3354418693    0.6356734552    9.9840919745
   9.8605479566   18.1498080464   15.8431279623
   4.6033448011   11.1040520936    6.7474927136
  -2.0057316430   12.5567198624   14.9098167687
   8.5647794300   16.8295619334    2.8237919778
   2.1264229709   10.2899945698    7.9518810247
   3.6855019251    9.0050740062   15.3624630350
   8.3909184234   18.1169941325    5.2452848554
   0.6942867186    7.1710588917   18.8673569508
   1.8113486868   13.5318582193   15.1774569841
  10.5280801190    9.9375121639    2.4131414388
   2.7420808210   10.8110814362    6.3606865615
  11.7925023143   19.4615251181   15.6817783625
   5.9965449844    8.5738767333    3.8582835028
   2.6678506699   11.9770463848   16.7981815768
   2.1456744669   18.0973323850   13.0174958640
   0.9822223831    0.4266501261    8.6795625528
   9.9737450003   15.6783686929    6.3909726295
  -1.3476837443   11.3415799438   15.9454878886
  15.4917665230    4.4950660382    0.5676079815
   3.5801846863   10.0409344266   16.7380231475
  15.4084605536   11.5730007659    0.6397827954
  12.9255650293    0.0512527435    6.6590651755
   4.4591610912    9.8062444580    4.4261445767
   9.1225280444    9.4039833723    1.3628461991
  16.1538281300    4.4816805645   19.1376728403
   6.9073266974   10.1768945516    7.1829925676
  14.4136649630    0.9161450221   14.2672885563
  -0.2930548680    7.5375498672   17.4051857680
  10.2048263819   17.4211018292    3.1043257407
  -1.0467172498    7.6087045269   18.9969175105
  -0.3725274401   19.3354431496   13.4620378911
   1.0399581275    1.5821708388   12.5310955719
   1.4843621400   16.8145972044   11.7667206127
   0.0247300685    2.0459064750    8.9943394578
   1.2561433618    9.5961524822    0.8533930720
  16.8110527539    3.1831305208    0.9109506335
   0.5915413376   10.8906730023   19.0058786187
   1.0397077245   11.0362367163   16.7670802019
  13.2261925412    1.3801067479   15.5488476077
  10.0644746458   15.7847316421    2.5204039891
   1.7742732579    9.1945128233    6.5394789127
   7.8256499286   16.8538535366    6.4076790613
   6.3286809760    8.5764089892    6.7467385888
   9.1147161820   10.9959317956    2.2531254848
  -1.3735932859   13.1106765597   16.3486009499
   5.1054654205    8.7951335554    1.0963687151
   8.9628475328   13.8861464523    6.9036606179
  13.4659692208   12.6158428631   13.8434688905
   3.5756536051    1.0984763866   17.4032589647
   1.5627396176    2.0778146736   18.8933657607
   0.0238941513    5.4406826232    6.0129490805
   4.7684551659    5.2179777482    0.9743655203
   0.1644898630    2.7978853675    5.0330232410
  10.5709938798   10.7889994924    6.0108005478
   5.6134149401   17.3862583255    9.9930933582
  16.9693917859    0.2654345585    2.1473551200
  12.0191114493   11.9060275258   16.6488804120
   3.5045044407   15.9389523828    0.2155854267
  12.4069814635   16.2006864150   16.2344007259
   5.5337333354    0.6093232164   10.0022962211
   3.4488789264   14.1035628688    2.4356128609
   7.8928654122   13.3311337207    1.7222305691
  13.2656059792   19.4451519471    4.6045019344
   5.5781841812   12.7403266748   19.0084604670
  -1.4802899726   15.7141296413   11.0784512260
   4.5139938656   18.4959330188    3.5113766187
   4.8027246966    0.9482755596    2.3182505199
  11.8737835382   15.5858469231   19.0124340506
   6.1606872726    2.1667683198    6.1078998707
  13.9214111265   18.0297025362   11.3985261018
  12.0582599731   14.0138011252    9.8134580030
   3.0743501588   15.1489849199   13.6804852543
   5.3974385778   16.8593786760   14.0814453089
   9.7778403797    2.4865490354   15.5855434778
   9.4533311419    2.7427684387   17.9018182937
   0.1732902571   17.5641894540    7.9343774445
  10.2941099578   12.3249280823   11.1245409421
  13.6022201177   13.7727931213    4.7715218335
   2.6366629290   13.1673526460    9.9839807444
  -1.6199579233   12.2629751982    9.0578110601
  16.0930783780    9.6375974250    6.5923847021
  11.3197890161    1.7006471303   17.1177889315
   3.9484821045    5.1669376278    6.3078886798
  -0.4391483204   17.1963853845    4.4873360439
   9.4650398391    7.0448212234    4.2284093788
   7.7069642686    5.8151358570   15.4799111025
  -1.6806173584   13.1875604042    3.6476262979
   2.5267448711   13.4049473068    7.2678207807
   9.1129905193    7.0547203658   11.8348812297
  13.9561137297    6.4817452576    5.3611979218
  -0.3041322388    7.9084393388    2.7300196673
   0.2488677884    5.9801984443   12.2223758516
   8.7669398771   14.0906706606   18.6198732452
  11.0653335298    5.7110828436    1.9322194398
  13.7714326864    8.9236519569    3.4585943114
   9.2711726900   17.3416470440   12.5204332552
  16.7121866569    4.5199125807   11.3873201542
  15.9765679422    6.5642305510   12.4751370756
  17.1436376365    4.9493533819    1.7452984207
   2.3824222652   10.7386253890   15.1897235041
  10.3967663216   19.3944169975   14.0985175090
   6.3880861338   10.2184590371    5.2328304810
   9.1161687021   18.3075726662    7.1635484953
  10.4154619115   11.0380749867    0.6895723207
   0.1096048931    9.2576828351   18.1906034698
   0.4903422590   18.4717137781   11.8007163704
   1.4435321504    1.5539868171   10.5422696824
  -0.6583803883   11.7527121366    0.7342547644
   9.5808185531   15.8380091743    4.4962729029
  -0.0040549565   12.6406674600   14.8183850027
   3.7270097376    9.2352300793    6.9379861221
