B2 C140 Ca1 F48 H298 O66 
1.0
1.7839163377320880e+01 9.4694993081969743e-16 1.5490975707562392e-16 
-2.6873361256714237e+00 1.9228068854444395e+01 -1.4647502220835512e-16 
-1.0182924883975348e+00 9.4273742553071949e-01 1.9480234730139117e+01 
B C Ca F H O 
2 140 1 48 298 66 
Cartesian
   9.6889364872    3.0740029254   16.8685994319
  -1.2841215175    6.0986814319   12.1606955007
  -0.0836556983    1.0315962971    1.5715930693
   6.9120746658   13.7130815490    6.5882439510
   5.0644220890    6.2252046142    1.4067752157
  12.3483720823   12.5330273663   12.6060124578
   3.6969567695    2.3756524234   15.5015672884
   1.6815897039    1.8993782649   18.4374557548
   1.3916095322    2.8164224128    5.4575897004
   2.1270778352    1.3892337726   17.0910665735
  -0.6526602414    4.0208238499    5.8828953293
   2.9406157654    6.0745907811   18.9087069144
   1.7458611011   16.2998268209   18.7538046668
   0.3191495342    3.8464615324   17.6739668918
  11.7369683868   15.5758043257   15.2321395182
   4.3841884049    9.5999211523    0.5375449411
   6.4029208927   17.1936729246    9.3113833536
  12.4197726796   11.7340460365   16.2943066522
   9.7418333497   11.8837746781    6.4134633077
   9.3872985837   13.4240328917    6.2436966963
  12.7361734146   11.5084056512   14.7814623384
   4.1513627732    7.3592960738    1.2283512801
  10.7227291169   10.2166318307   16.8023442463
  11.9897126508   11.4637109213    6.5713865375
   0.0107058809    4.8712075165    6.9169376560
   0.5180763415    7.1819500308    6.8459583287
   4.4534616405   18.4686033797    9.6022079833
   2.5259303477   16.0328714241    1.6166081147
  16.2091059805    1.5698896276    3.2386628274
   3.5303584971   18.8995866674   10.7259222944
   1.7839446213   14.8135726503    2.0609616950
  12.9296593150   16.5904058459   17.0360701986
   5.2265021311    1.9264591314   10.8958913633
   7.3748233353   13.6819845706    3.1053497398
  14.9123764835    1.1180615788    3.7974933487
   6.2924127613   14.0084649371    1.0134342398
   5.2816919225   14.8030985978   18.9969212980
  -2.4842079436   15.3461970865   12.2538690472
   2.3686810090   12.5731625884    2.1289919893
  12.5148953926   15.5538990798   18.0907643879
   5.3844834555   13.1723000639   17.2743592275
   5.1832477940   17.7415781368    3.5290340894
   7.1240844892    0.4964391446    2.3999788311
   6.0681851464    1.4961406399    2.6807249970
   3.7110841686    1.7366460136    2.5867461548
  -2.5439387277   17.1004885639   10.6661177861
   6.5030316773    1.2528012869    6.2629895336
  11.9117485336   15.0109792161    8.9212765089
  13.7071017247   17.2489759510   10.6971937601
   3.5241374966   15.4454609772   12.0957086291
  13.0506207529   18.2288301543    4.0368294372
   6.7724187483    2.3477687269   18.3667430443
   7.3410146019    4.6775370959   19.2355530980
   7.5350985324    3.6691258978   18.1250240727
   3.5666718575   15.3892030717   14.5584570492
  11.8798796300   18.1147839134   11.8158536835
   9.8788224939   14.6116244058   10.0365645415
   9.0199760970    2.9508418790   13.1726925156
  12.2688068697   15.6161338186    0.4600848679
  12.4035314907   12.9938826219    3.3058044306
   9.2959211909   13.8993718764   11.1897283003
   5.1588546265    3.1385236093    6.6023325197
   1.5535843084   12.8046198220   10.8912669639
   3.5163108822   16.7883253208   15.0744165763
   0.7213690138   18.3233196549    8.2258572519
  10.0189015670    3.0998199508   14.4018428174
  11.0015292909    4.2882306488   14.1053413011
   5.3710158192    4.5661243384    6.4537958839
   4.4556727246   18.8758705144   14.8749210964
   8.7603530450   11.8457329696   10.2703130450
  -1.1774063714   13.3294943119    8.6999045803
  15.2197927213   11.4947136053    8.4729560057
  -0.3882843684   16.7904500190    6.7175113245
  -1.6210509270   10.4765620320    7.9354276196
   5.3619428594    6.7344143818   15.6957549442
  13.8373479211   14.6169346439    4.4501992955
  -1.1265222737   17.8186365562    5.8797083440
   2.8876109508   13.7480649342    9.0956034280
  15.5604459890    9.8080807495    5.7597876317
   3.8501715948    6.2092147455    5.5016351988
  11.3896435618    2.3265253755   18.4101548840
   1.7719716740    5.1328360156   13.3565995422
   8.9893677008   20.0363877158   18.5623321000
  14.9959267953   13.7407185041    4.7455020714
   6.8285414276    7.1390238218   16.1340412639
   2.8184496423   14.3488940050    7.6325759185
   7.5740959033    7.1566925889    4.0333360698
  -0.0358252320   18.0057217305    3.8708095682
   6.7897711840    8.6723475862   15.9465288118
   9.6063196103    7.7584423250    9.4560671199
   0.4333090664    8.0217089194    3.2910559250
  12.6077115056    3.3403860327   18.8047822987
   1.9105234755    5.5803732076   10.7613603171
   0.9913338937    5.1757278962   12.0375417296
  10.6598897929    5.6173006282    3.1840155185
   9.3834120363    5.6388912818    3.7693058862
   8.3786254079   15.5761823580   17.3407337287
   8.7767723192    8.3482237132   10.5993434313
  11.9791028077    8.5565671498    4.1397413417
   8.5199514600   17.7682788575   11.3577724318
  -0.9259999710   13.0040105886    3.5833221063
  14.1113614343    6.7135668576    6.4281995522
   7.3617871479    8.5675381992    9.9425577931
  13.1764054651    9.4488558598    2.1380675970
  11.8725003426    5.9135848944    1.2433646546
   2.7232575648   14.2122758950    5.2899360213
  12.4803259199    8.0693039657    5.4328153180
  16.1133757426    7.1650600145    3.4773733370
   8.1661004796   17.9407687321   13.7028433163
   8.8172428199   13.2133431877   17.9732118839
  14.6768959654    8.0470749112   14.6518621204
  15.7992834315    8.1169047194   13.6161858496
  15.7258755666    6.4757874554    2.1381463416
  14.9582037536    2.9872988540   11.0515862973
   8.5349051847   12.2865582801   19.0492182600
  14.8162124326    4.5184890075   11.2022997040
   8.9397817365   18.5714377151   14.8334678271
  14.0898694134    5.2012161270    9.9944877844
  15.6904836265    9.4056403186   12.7498529916
  11.3028289057    0.6258933953    6.9093216269
   2.4093049609   10.0344802110   16.1739887384
  -1.7474296203   11.0440691441   19.4629206251
   0.5958781485   13.1168527967   15.2545879426
  15.7084546853   11.9952798766    0.5545068780
   4.8111008236   10.4251302250    7.6183877081
   4.9448815345   10.4433529492    4.4899860410
   8.9063268536   16.7897603938    5.7886569817
   7.7934388852   17.7781559824    6.1343917338
   1.1699787810   12.0430464746   16.0897381079
  -0.5220913713   19.8156976588   12.9059210945
   0.9379075565    1.4058133612   12.3066083425
   0.6155532511   17.7027182177   12.4679903196
   0.6959649246    1.6477778912    9.8976039502
   9.4858524845   10.8024779044    1.9528179225
   2.4752621370   10.0860917668    8.0261315548
   5.9855897617    9.9432982818    6.7486975598
  13.3780478463    1.1733715074   14.5678054819
  -0.6574738427    8.3696321349   18.5063451731
  16.7880557402    4.5206244127    0.6672516644
  -1.7097198279   13.1210943933   15.3796832395
  -0.2591320455   10.6346599462   19.3202143135
   9.4630983253   16.7722765957    3.3987908549
   8.3898363455    6.4690009646   13.4340175322
   6.5689670688    1.7241035258   17.1933346343
   8.2870222349    5.7536482717   18.9132679515
   8.7888837956    4.1118651571   12.4214490707
   7.4297942439    1.4992181968   19.2108442668
   8.6652361431    3.1430218472    0.9100234544
   5.5397214281    2.6485330723   18.9578545419
   6.1128821121    5.1560584045   19.3334853041
   7.8051946316    2.5165911482   13.5183686138
  11.5320560357    4.1232260091   12.9473115485
   9.4845402724    2.1445205673   12.2745079960
  11.9741573747    4.2471947656   15.0471465252
   4.3433272641    7.3660835988   16.3176932741
   5.3484095318    5.3670195878   16.0790152541
  10.5897881357    5.7306388971   14.1560826939
   5.1179311784    6.9098069632   14.3441990959
   2.5471629318    4.1133568122   13.4251846785
   7.9275480473   19.3445803322   17.9935953069
   2.4061948605    6.3095177515   13.4725906866
  10.9690122431    7.6546417182    9.7380426753
   1.1444082296    5.5742902529    9.5778665056
   6.8993674335    9.0192071406   14.5430320465
   7.7861613008    9.3577858538   16.5431319320
   0.9041307459    5.0226187292   14.3901423213
   9.4694988238    8.3416019578    8.2316478377
  10.2172824502   18.6614871341    0.3228033477
  13.5648924768    3.3969043845   17.8353119171
  10.0860150893   19.6015890973   17.9342936213
   3.0549470355    4.8914835013   10.5081358754
   9.2928945497    6.4858094955    9.1917094624
   6.4845539328    9.0502067528   10.9254829797
  14.2970601631    2.1887104258    0.4900675523
  12.0230227286    4.5545672291   18.7886139391
   5.6401501240    9.1744636822   16.3936082265
   2.1925343699    6.9103994148   10.9085433269
   6.7095035223    7.4034386373    9.5791221393
  14.9121153174    8.9317897742   15.6592157500
   7.3810879495    9.4222734391    8.9039389183
  13.7033417386    2.5648678462   10.9017695641
  13.4605862669    8.2426430851   14.1347750121
  14.4110216221    4.8815939045    8.6940648555
  15.7448494642    2.8080457058    9.9380611387
  14.4581133963    6.6096559739   10.1316966594
  14.6308861331    6.8040344963   15.2087149887
  16.0300833148    9.1361987878   11.3976787896
  15.6055256886    2.3908388224   12.0453526442
  -1.3615974856   10.3886370096   13.2233560949
  12.7916862712    5.0493273630    9.9537482734
  14.3899062365    9.9356858345   12.5886055477
   0.6099039368    1.3699664398   18.6006554077
  12.5054144006   12.7787333131   16.7048303593
   1.8018323804    2.1385992111    4.7478652383
   5.1666190420    6.0120092275    2.4910258792
   5.8458496906   17.2084741283    8.3904147485
   9.8413003898   11.5178557126    7.4479381244
   6.0076242427    6.4342384424    0.8202215771
   4.7981478198    2.4063140217   15.4328306280
  16.3909435217    4.5905371729    5.3633209700
  -0.0333157773    2.1074791275    1.2870232805
   0.8975765291   16.9376615342   18.4373246177
   0.0075994154    0.3923966879    0.7554037636
   6.4206219000   14.6123293445    6.9434783212
  -0.4314307550    2.9803319910   17.6123551758
   0.5922616892    0.6008101512    2.2621966758
  11.5236859526   12.0702535096   12.0940776541
  -0.8572683729   19.5323767497   16.9191952827
   7.0122366896   13.7072257666    5.5129111149
  12.7077391037   15.0548982747   14.9313615010
   5.2348711651   10.2352670124    0.3409338490
  13.2414436675   11.9783777890   12.0848950684
   2.8630177327    5.0620995909   18.5803561396
   1.9133632306    6.4638182526   18.9469527468
  10.6660261400   10.1013287668   17.9251216113
  11.6639659271   10.6288742812    7.3292067123
   1.2354653699    2.2182448745    6.3750124731
  16.6739495841    3.1865422742    6.4118414427
  10.2348346221   14.0628437770    6.3709929877
   3.4092368748    3.4695285276   15.5985164951
   5.0265421479   19.2402517808    9.0187951121
  11.0564504986   14.9259086644   15.6842914410
  12.1179125743   10.6208310687   14.5157993206
   1.4687920432   15.2537109009   19.0697549786
   2.5523309355   16.1916434732   18.0016157872
  11.1616613888   15.7342662629   14.1774071490
   7.2145649158   17.8919312986    9.3389664978
   0.7055047244    4.2762866768   16.7300072197
   3.1775412313   16.3811493047    2.3152675544
  -0.6074028849    7.2458753614    6.9200461828
  12.8181883975   11.0909126327   17.0904984147
   2.1986353146    3.5601014635    5.6701470354
   6.8417974108   16.1776855038    9.5009399245
   8.9718997607   11.3774578015    5.9923749014
   3.5525927740   10.1359293493    1.0052526079
   6.4742621055   12.7296767608    6.8169852989
   2.9960732805   10.0553679833   19.0630275669
   3.6012301971    6.7835570627   18.3893458542
  12.1589719320   13.5342227438   12.2152593228
   2.3874705969    1.8780810489   19.2691513708
   3.2071856716    2.0644154144   14.6331993266
  -0.1417898374    4.6355196365   18.2181489552
   1.4938644558    1.8657214998   16.1541709408
  16.9926682657    1.3266259601    3.9652379382
  16.3862498931    2.6460534343    3.0967918513
  11.4628315143    9.4847639335   16.4784040106
   3.2370851586    7.3844579885    1.9923464283
   3.7118070337    7.4592287802    0.1815023786
   0.8227004293    8.0894965888    6.2399205798
   0.8292594740    4.3635671594    7.5295211727
   1.6675950496   16.8486788940    1.4221613238
  12.9275335964   11.1506187858    5.9670916627
   4.2160149684   19.2356906558   11.5418409547
  12.1283652440   12.4036794464    7.1107850412
   9.6443744466   10.0074538556   16.4122492417
   9.2804285949   13.5596789999    5.1589245351
  13.7697924291   11.1861333328   14.7830370374
   3.9072328596   17.8940625013    8.8026003307
   6.9317206528   14.7530778174    3.3395839216
  -0.8630748365    5.1564012709    7.5756058047
   1.0748798521    7.1603668237    7.8589329166
   6.2021146196   15.1291341351    1.3760553714
   6.2184939888    2.3780791517   11.0648010289
   1.0071574897   14.5977038318    1.3007080729
  12.9358752810   17.5745880238   17.5171716804
  13.9714644735   16.3700788853   16.6193132087
   4.4243945156   15.3317399388   18.6896756605
  14.3524507672   15.4234290102   12.5769975980
   8.3709473309   13.6665148164    3.5636237367
   4.6597989600    2.4246208136   10.2015204031
   2.9313063999   18.1038480642   11.0869417389
   5.6315326954   12.1036417041   17.2342958829
  -2.2144101272   14.3044684602   12.1858111169
  14.2611937939    0.7944179289    2.9500309657
  14.5004231294    1.9892586965    4.4237820934
   4.7354809134   16.9096417745    4.0918992340
   6.7368267557    0.8141386646    7.3072044651
   7.3255857428    0.3189394876    1.3495685513
   1.1237222308   15.2389495401    2.9039238603
   5.9839559352    1.7059374224    3.7231106185
   2.8086170846    1.3456374538    2.1723279911
  -2.3519677604   17.8389714033   11.6470184859
   1.3742438342   12.4648780314    2.6058134272
   2.2129413715   12.3293120065    1.0798709843
   6.8369554923   12.9203495399    3.6724841201
  12.2097762805   14.6080751232   17.5321903420
   4.6946568848    1.9313761445   11.8735943548
  13.3390295585   15.3018138818   18.7968891002
   6.2197125022   13.7207064107   16.7372985944
  11.5962815885   14.2396314103    8.1271050570
  13.3042863335   16.2547016520   10.9891844621
   5.3752489978   13.4991169084    1.3591135406
   2.6266987193   15.5698571423   11.4526951000
   5.5856608418   18.3972675480    4.3387714311
   4.0755267808   14.4542066918   11.8104977613
  12.9812865352   15.1929428744    8.9945747515
   3.7419206938    2.7621042349    2.1833231302
  -1.7395192145   15.7212190995   13.0718723164
   6.1978122858   15.2329635095   18.5107192303
   3.1855193596   11.8721886123    2.4342017879
   7.1792215495    0.7849197164    5.5825926311
   5.4661426528    0.8882022521    6.1293272806
   4.4469204438   13.2287331598   16.6807692356
   7.1226497856    4.1784490340   17.2092677190
  11.5041659034   19.1351413211   12.3075615250
   2.9806094010   14.8264229801   15.3435903648
   4.6041895347   15.0475593991   14.4541224263
   9.5731392714   14.2392269921    9.1101407079
   4.1368833929   16.4241153824   12.0540406433
   5.8520753594   17.5322704719    2.7244775369
   8.0519547199    0.9365187433    2.9694547011
  -2.0070160079   17.3293064530    9.6832335359
  14.0618842702   18.5397060354    3.9475453598
   6.4133587659    2.5038963714    2.2535864122
  12.6809754495   18.2399020978    2.9675485425
  12.9735345178   17.2555603441    4.5491168751
   3.6638641119    1.6002121581    3.6733164808
  11.6453072212   16.0053313843    8.5678009332
  13.2457925934   17.5658690791    9.8547140220
   9.7840655139   14.1229641209   12.1720001574
   1.0042132686   18.5363039900    9.2817426976
   2.3165248816   12.0030042811   10.9972811781
  11.3301112722   13.1564458336    3.0119953102
  12.6181925626   11.9413629001    3.6800003852
  11.3167600516   17.9519819838   10.8889379786
  12.1619471474   16.7065238734    0.5122694326
  11.4546189870   15.3019544007    1.0474430842
   1.8615607813   13.5838790004   11.5603297257
  11.6968988719   17.2351506542   12.4398820718
   0.4950545630   12.4676058955   11.1326427085
  13.0704850283   13.3140097039    2.4805107485
   4.3497339748    2.6664749652    6.1215457611
   9.4721982099   15.6313828271   10.1188346793
  -1.8195975588   13.4935923890    7.7820687598
   9.4463523314   11.0265982039    9.8472037231
   5.0443747283    2.8253511005    7.6843158273
  13.1656348731   15.1533309626    0.9882218324
   5.8420628086    4.7106734258    5.4553152299
   6.1660651187    4.9679345778    7.2036295671
  14.6501280409   11.9991361443    7.7233788626
   5.0169436345   19.5921011181   14.2026028815
   0.2521874365   19.3497020164    7.8041118686
   1.6334234902   18.1579611995    7.6118930120
   8.1970186100   14.3837319002   11.1434423015
   3.9514850093   16.8380692326   16.1141237392
   2.5367674231   17.2166749413   15.2549912493
  -0.2145117317   12.8218420491    8.3740226531
  -0.8144996115   10.9392029101    7.3300090082
  10.6523701786    2.1553172138   14.4370848342
  14.0110074440   15.2198320025    3.5320701693
   5.0483003497   18.7278054413   15.7403361743
   8.6310253574   12.6382570746    9.4655787814
  15.0133908252   10.7960331685    5.6987186023
   3.5837267842   19.3839988246   15.2281713758
  -0.6821695537   18.8343634745    6.0216446847
  -2.2188639419   17.9289490585    6.2372011561
   7.8304168149   11.4774921215   10.4917307287
   3.4591894418   12.7732585406    9.1904218460
  -0.9714726050   14.1607209507    9.3636847970
  13.7614617034   15.2673886275    5.3396418346
   3.4233520635   14.4559948103    9.7888664569
   0.6152306929   16.6218537889    6.1439543592
  10.6246553017    2.6240813520   19.0693702095
  14.5542508813   10.9274984305    9.1247823273
  -0.9179169890   15.8887296625    6.7219149487
  14.9203909410    9.0921941213    5.2067841875
   3.4704597168    5.6834162987    4.5610707069
   7.3029553132    8.2852922051    3.9083124888
   4.6738917783    6.9269875765    5.1561831004
  -1.0785750177   10.0622662827    8.7542414972
  14.8513102182   13.1553869999    5.5949339403
   0.7733746653    7.2466956773    3.9281291955
  -1.3047265270    9.8639076653    5.2901188941
  -0.2090122395   18.0159701229    2.8067250917
   0.8427921048   17.4372770500    4.1087731239
   2.2070322786   15.2424756847    7.5732207996
   0.6300860136    7.7550593050    2.2055841603
  -2.0298064569   14.4600417046    4.9747396722
   3.8358991901   14.6558616741    7.4793313759
  11.4377946954    5.9885923714    3.9183492939
   6.9797937000    7.1145136579   17.2379611790
   3.0076101017    6.8638111313    5.7799278043
   0.9164409194    9.0490798658    3.5507698639
   7.2255376925    6.5535791714    3.1904550361
   7.7629249217   16.4610601885   17.7782313027
  10.9743116082    4.5612170624    2.9557222553
   7.2013936347    6.7252713288    4.9113981011
   0.4783137755    4.1983520900   11.8508405598
   7.5216829904   18.0419797358   11.5263556952
  11.0757053995    9.2577064867    4.3130598336
   8.4143460161   15.5102701382   16.1847961726
  13.5399263214    6.9545263216    7.3839184238
  11.6782781267    7.8395540157    3.3868849253
   9.0371881944   18.5391599342   10.8131428820
  -0.0704621063   19.0835997192    4.2240448364
  13.1792295186   10.5037860130    1.9516197335
  12.7393139972    5.9478145442    1.8971613927
   8.7029853946    5.1914449955    3.0475927740
  -0.5532181343   12.2824618277    4.2845525498
  12.1701450660    9.2061553718    1.6659625735
  11.5882086294    4.9270428441    0.8536790123
   9.4521336219   15.7251826140   17.6496758222
   9.3919226086    5.0732208095    4.7202795345
   8.4734760685   16.8076900985   10.8249020236
   2.6180216856   15.3348276005    5.5541386452
  -0.5136205933   13.9698102846    3.6261408907
   9.1310829240    9.3890045218   10.7097557989
  15.2319645126    7.1844412874    6.3682070978
  -0.7375606535   12.6308921265    2.5893764440
  15.1753256161    7.1933254046    4.1394415166
   3.7602947583   13.9816399986    4.9352048393
  14.4500516005    5.6690506695    6.4813045551
   7.4502031365   18.6347659515   13.1923445683
  -1.0620768213    6.4728132511    3.9372169557
  11.5308190230    7.6873379583    5.9367492113
  14.0549593371    8.9407006610    1.7476391867
   1.8898665718   13.7740643379    4.5882420173
  12.8667191031    8.8694555134    6.1575790749
  12.0000197207    6.6695763290    0.4747173784
   8.6904809172   12.8627392846   16.9454490139
  -1.0888806150    8.0439149060   14.1445993755
   9.2251281691   11.3625078452   18.6838195518
   7.5080759859   17.1223286817   14.1870049908
   9.9127822176   13.5672441840   18.1202524589
  14.6430935637    6.1518182634    2.3086888101
   9.8914605656   18.0856280234   15.1173780418
  15.8051768220    7.0713484959    1.1609320769
   7.4870763096   11.9552537379   19.0614672038
   1.8304403098    9.8411893442   17.1220831900
   0.4300295179   13.9448469115   15.9460691185
   9.9081199066   17.2439594359    6.1249462716
  10.6169218776    1.2112990521    6.1870332332
   5.0838118863   10.2606812727    8.7041498662
   4.0175411167   10.9439969304    4.9303093724
  11.2073480133    1.1853058708    7.8073188809
  -1.0520722235    9.5181602240    0.8179986305
  -2.2747866452   10.8017567371   18.5591462566
  14.2152474341    4.8198075423   12.0249789144
  15.8455607403   13.1498047004    0.7932376512
  13.9889027399   12.9678045622   19.0800878050
   0.0048234806    0.7750293304   12.1315332504
   2.8680383057    1.4373265558   13.2895906726
  -0.1407649942   17.2975752072   13.1567031198
   0.0074939310    0.7963743536    9.7294906191
   8.4283442045   18.8966069160   15.7269126327
   4.6731088043   11.5024598374    7.4573003863
  15.1642772938   12.8747140285   14.8854140540
   9.7187479909   17.8575275724    3.3604663161
   2.8167448048   10.4187749824    9.0432282884
   2.7174191492    9.1955857575   15.5629950559
   7.6068418306   18.2268505489    5.1847124414
   0.1686551290    7.2745758507    0.0888984919
   1.2707600129   13.4809115858   14.4806267194
   9.6053222170   11.5639511263    2.8173744632
   1.9415482847   10.9934584464    7.6622026879
  14.1767693049    0.7445271470   14.1417760328
   5.3005375314   10.9319937387    3.5298155448
   1.8138200244   12.4878092061   16.8571486693
   1.6566924381   17.7998322327   12.9155095983
   1.4164003116    1.7156349211    9.0794044358
   8.8341994290   15.9648611345    6.5141096032
  -1.6810704695   12.3816056900   16.1900721914
  15.8747776677    3.8057278875    0.5193883567
   3.4244244030   10.4221944815   16.5026930759
  15.0919244573   11.4998641044    1.3642720079
  12.3205075399    0.7141864975    6.3931876860
   4.5358395637    9.3906553030    4.4272657268
  10.0965080164    9.8512222879    1.9983724859
  15.7088876871    6.1090269717   19.2159915721
   6.8957363476   10.2091750319    7.1943153943
  13.4591363863    2.2003434323   14.2561715869
   0.0938635233    7.6637609050   18.1413119542
  10.4652726425   16.2661125782    3.1511328898
  -1.6727488717    8.2566141717   18.0252874230
  -0.8825738487   19.2143894486   13.7824572442
   0.5791174145    2.2029386226   12.9827406704
   0.5816138398   17.1042284338   11.6037065281
   0.1374879000    2.6476454950    9.7766327901
   1.1039814203    9.3050918883    0.7779715007
   0.0314728637    4.0385151058    0.6597204000
   0.2561495946   11.5509832212   19.0819263240
   0.2637197107   11.5840440093   16.7474544143
  13.6437319762    0.9029767917   15.6282915992
   8.8153418512   16.6334420506    2.4301897741
   1.7254805837    9.3113218427    8.2711664448
   6.9171663711   17.1747482048    6.3456939622
   5.9687393164    8.8275381542    6.8347266499
   8.3040915749   10.5510478416    1.9420496190
  -1.9391132497   14.1942849491   15.6481757834
   4.9183783351    8.5386309804    1.2855396429
   8.2227277814   13.7763611839    7.1336967532
  12.3847548765   12.6374154740   14.0747228161
   3.4427831143    1.6350046023   16.7736224492
   1.4457188271    3.2862487684   18.4517459929
   0.6849888817    5.9026240197    6.2183408513
   4.4585196776    5.0468519028    0.8865997737
   0.2520434582    3.4903504739    4.8929022615
  10.8627308738   11.5584793660    5.7355873140
   5.3720491211   17.5265939902   10.2985670851
  16.4065315929    0.8587057002    1.9927580340
  11.0164079296   11.4614279992   16.3072564481
   3.3502726350   16.0241617632    0.4502724911
  11.9505001202   16.7413600429   16.0456856419
   5.3683095137    0.6887862421   10.1740760907
   2.7339789341   13.8498218588    2.4455820083
   7.5045344550   13.4535052037    1.7119401778
  12.2980697658   19.2998408809    4.7725602662
   5.2358656059   13.4511385788   18.6869204338
  -2.2402073636   15.7816464904   10.8880089576
   4.0358673986   18.5042009941    2.9887092877
   4.7944556866    0.9276602150    2.1753759712
  11.2323755286   15.8005037484   18.7347762108
   6.4514039060    2.7024214861    6.1015731973
  13.2998400899   18.3443085722   11.5332678753
  11.3599772513   14.7349906573   10.1576442893
   2.7677291021   15.0534851714   13.3827133851
   4.2803087202   17.6396919881   14.2588934523
   9.1953293347    3.3128116464   15.6721402195
   8.8900927449    3.2052520933   17.9844817909
  -0.2077458023   17.2745860492    8.0682185551
   9.2756665130   12.4758133236   11.3716804681
  12.6141551203   13.9193835580    4.4258616541
   1.5659828396   13.3932967583    9.5880927270
  -2.0037747074   12.3894640720    9.4391929402
  15.6929215354    9.3861418378    7.1426984734
  11.0483125753    2.7000906828   17.1334977875
   4.2125755679    5.3465484982    6.5933235240
  -1.2345842471   17.3557407118    4.4309870587
   8.9603764051    7.0542133098    3.9899453275
   7.7674337803    6.5752298994   15.3326560161
  15.4522800912   13.1046144512    3.5385321620
   2.4341086053   13.4900228997    6.5966371485
   8.7085217052    7.5473526829   11.7432660386
  13.3090311618    6.9261430606    5.2721316095
  -0.9256109732    8.3313211997    3.3561894531
   0.0719942942    6.2426816750   12.2816993541
   8.0010050989   14.4397302635   18.0443217372
  10.7459435574    6.4346790833    2.0319537618
  13.0586055638    9.3804162955    3.6545622779
   9.0779062897   17.5005966868   12.6330498054
  16.1004831471    5.0017493370   11.4414592948
  15.6809356708    6.9792277874   12.7698340195
  16.7718490923    5.4146769701    1.9327273832
   1.8118445458   11.0380246062   15.3649783435
  12.0370358978    0.7362569459   14.3843305386
   6.1115177752   10.3646292318    5.3730578605
   8.1200271995   18.6141359863    7.1926305913
   9.9223418486   11.7185206426    0.8602057442
  -0.1013861407    9.6963561103   18.2536073677
   0.1333925636   19.0166196034   11.9794902743
   1.5180805448    1.7484583261   11.0660933184
  -0.7968816864   11.4592270317    0.2792029962
   8.9358851932   16.1955645423    4.5677653716
  -0.6459286871   12.9672380930   14.4613561441
   3.6208561758    9.6427780328    7.3328212627
