B2 C140 Ca1 F48 H298 O66 
1.0
1.7874764460760570e+01 8.4020841873335966e-16 -1.4393010958279137e-17 
-2.7996322040913078e+00 1.9337480147606808e+01 -7.1453062517064933e-17 
-1.1644466699514997e+00 1.1456828951660067e+00 1.9415055899310666e+01 
B C Ca F H O 
2 140 1 48 298 66 
Cartesian
   9.5584226716    3.2453641931   16.8303769929
  -1.4026837137    6.3342121027   12.1477343999
  -0.1719903897    1.2139061680    1.4166485446
   6.8363920533   13.8281950119    6.6301447797
   4.9063074598    6.2842436004    1.3567162784
  12.3743049320   12.6527206390   12.6015155215
   3.7335463707    2.5952183319   15.6142094252
   1.5179465696    2.0043542557   18.3456048067
   1.3440597629    2.9545009585    5.3723930126
   2.1030135475    1.5404098186   16.9680220227
  -0.7640866923    4.1431620355    5.8016243830
   2.6824337005    6.3493187059   19.0112909278
   1.5285588077   16.7514415079   18.6339122845
   0.2448480849    4.0551240350   17.5631227009
  11.5229228888   15.7689683927   15.1620255885
   4.4683016838    9.8290981760    0.4353893213
   6.3272540985   17.4413717848    9.3321969931
  12.1470732317   11.9361215081   16.1125750193
   9.6149875888   12.0148082875    6.4480584701
   9.2429564780   13.5008250034    6.3251098925
  12.6857316891   11.8067532364   14.6903977682
   4.0542164919    7.5595272753    1.1381215861
  10.5525593403   10.1834464936   16.8017562541
  12.0669943102   11.5526315429    6.3846872918
  -0.0467093908    5.0362777645    6.7654851905
   0.5779622151    7.3729714240    6.9869056554
   4.2520184521   18.6122473882    9.6116537580
   2.3739721271   16.3787425927    1.4249515089
  16.0962365271    1.6704358662    3.2409925569
   3.3746607610   19.2082179056   10.6787911921
   1.6398228423   15.1269159966    1.9407010274
  12.6646431765   16.8319777554   16.9746256624
   5.2448712335    2.1274517788   10.8981246173
   7.3545533007   13.8098043027    3.1009981445
  14.7249533835    1.1908278956    3.7685670224
   6.2616408489   13.9522227477    1.0545799467
   5.1279578081   15.0597823772   18.9769827600
  -2.7659110782   15.3995761742   12.1315599615
   2.2759977404   12.7107292629    2.0073039340
  12.2373374962   15.7609610527   18.0065692705
   5.1384417274   13.3817576060   17.1554674156
   5.0669374577   18.0127098608    3.6693890991
   7.1589358668    0.5336644443    2.5099427864
   6.0622538111    1.5571139715    2.6047318715
   3.7712776525    1.8856976911    2.6296271868
  -2.7517914857   17.2922910614   10.6151285817
   6.5227589863    1.2684824128    6.3598681084
  11.8032518170   15.1342279345    8.9169748958
  13.5981267338   17.4737782848   10.5810545318
   3.3488548798   15.5905705226   12.0216428739
  13.0349148595   18.3396150209    4.1166196044
   6.6582565147    2.5297938378   18.3797903151
   7.2398616399    4.8631105064   19.0707587503
   7.3880595719    3.8439912451   17.9850294998
   3.3080796742   15.5783903713   14.4442120093
  11.7399005539   18.4169557822   11.7765956231
   9.7593783433   14.8381272265   10.0769679016
   8.9063898564    3.1926503467   13.1567228246
  12.2888710308   15.6372638556    0.5458336714
  12.2082445475   13.2014059926    3.2489766830
   9.1470800809   14.2829342505   11.4262711995
   5.2541055579    3.2589562325    6.4667988202
   1.3769556585   13.0279180604   10.8905789795
   3.2671069630   17.0389301155   14.8892973854
   0.4780294224   18.5500665705    8.2855673946
   9.8842127784    3.4736453019   14.3265083814
  11.0296988709    4.4759798584   14.0937395982
   5.3605162907    4.8155308396    6.3094343223
   4.2763013440   19.1660855646   15.0735694884
   8.4601017783   12.1173161312   10.2589468051
  -1.2370047522   13.5640630266    8.6981086389
  15.1691758326   11.5543844647    8.4947164335
  -0.6469634210   17.0097809216    6.8159094584
  -1.6604794539   10.6116148742    7.9261019040
   5.2792080026    6.7615686522   15.6267397082
  13.6894055941   14.8667412042    4.4422246850
  -1.3225191398   17.9698816814    5.9116747766
   2.6963609693   13.8397384360    9.0001505792
  15.5975382613   10.0708305994    5.7791524552
   3.7570886751    6.2515454390    5.4450907498
  11.3576472643    2.4877522013   18.4250121859
   1.6469760188    5.3262837430   13.2853622695
   8.8239195791   20.3290551600   18.5088095010
  14.8874318172   13.9873399993    4.9017237458
   6.6783579977    7.3491325081   16.1100118520
   2.6906506511   14.5353550098    7.7186432987
   7.4170531961    7.2303328002    3.9176666776
  -0.2714732146   18.0681820062    3.7739938050
   6.5604900978    8.9206041118   15.9281711165
   9.4463046342    7.7010855434    9.3932436680
   0.4174851480    8.1225318697    3.3315684256
  12.4806594630    3.5852165584   18.6204842320
   1.7766592022    5.7705105049   10.7557445159
   0.8139557351    5.4450127770   11.9140867711
  10.7131538191    5.7686151035    3.0924157051
   9.3624201374    5.8283478535    3.8168971769
   8.3169141413   15.8783934740   17.2702862487
   8.5852906456    8.4188899333   10.5206058338
  11.8673529076    8.8987617682    4.0357987460
   8.2540056860   17.7075482118   11.4502658220
  -1.0239865807   13.0117435678    3.5814917700
  14.1197502978    6.8456394103    6.2425621720
   7.1823547926    8.6327184924    9.9109286792
  13.0739782493    9.5300812810    2.0655327657
  11.8885636506    6.1357552261    1.1134377880
   2.6948023267   14.3557612133    5.3236391426
  12.3834874896    8.2449604899    5.3761600777
  16.1002041021    7.0821275403    3.4668954427
   7.9676038115   18.2281350739   13.6533041398
   8.7791103439   13.5243086360   17.8293334296
  14.5096084684    8.1873162002   14.6137233800
  15.6828916896    8.3173086061   13.5318819991
  15.8732539821    6.3641778102    2.1295800764
  14.9855545169    3.1327770704   10.9468857843
   8.3151060013   12.5434098421   18.9155155691
  14.7873665673    4.7007890785   11.1762359306
   8.6337362474   19.0689720993   14.6116871003
  14.0357829315    5.4902109196    9.9025830013
  15.5826147294    9.5951195581   12.6903878608
  11.1464931864    0.7996148891    6.9979139962
   2.2300433711   10.3145326558   16.0743893657
  -1.9620436963   11.3591923469   19.4042340533
   0.4669027593   13.3904233587   15.0181965948
  15.7254565842   12.0564679770    0.5574018230
   4.6468904413   10.5644180002    7.4930843927
   4.9074274770   10.7184053472    4.4482197067
   8.9075402512   16.9955146164    5.8286499987
   7.6896986682   18.0407538473    5.9623135416
   0.9758144459   12.3082776842   15.9573612496
  -0.8243538503   19.9678572114   12.9474552794
   0.8414195369    1.4071182291   12.2270674376
   0.4376059871   18.0278531601   12.4877045090
   0.7106032303    1.8223125005    9.8591975431
   9.4123052469   10.9508576455    1.8940832585
   2.4140141879   10.2791732071    8.1291886277
   5.8107843893   10.0968493318    6.6211388366
  13.3627579855    1.2417063578   14.6576837790
  -0.9039435287    8.6092726962   18.4022150826
  16.7785118793    4.6945308265    0.8048477064
  -2.0294546249   13.1503621468   15.3627704270
  -0.5504267426   10.7610209922   19.3246132416
   9.5127010939   16.8928071682    3.4505437436
   8.2215007605    6.6428298816   13.3583618763
   6.5365904217    1.9219239438   17.1297114980
   7.9740002846    6.0099957314   18.9993238146
   8.7156702061    4.3728271565   12.3564395622
   7.3429019612    1.6587820383   19.1028015288
   8.8483194605    3.1655370793    0.8059194150
   5.4337753754    2.7390147481   18.9427784506
   5.9842017693    5.3382358043   19.1499743421
   7.6530642204    2.6731122228   13.5787534192
  11.5734557957    4.3332439287   12.8577185622
   9.4421761038    2.2632648390   12.1769444125
  11.9435663124    4.4204393129   15.1046123492
   4.1691193119    7.3598706285   16.0993876135
   5.1885711803    5.4446401014   15.7836335543
  10.5931598192    5.7937000276   14.0593637638
   5.2058349572    6.9749381002   14.2826152852
   2.5373149691    4.3216546343   13.2223763223
   7.6879869749   19.7679023750   17.9036965925
   2.3485567893    6.5270265886   13.4602719319
  10.9047576465    7.7968885975    9.5782063691
   1.1175383025    5.5786561623    9.5465859808
   6.6945096339    9.0615381074   14.5395542835
   7.6876433920    9.5724320285   16.4314287934
   0.7768495972    5.2279911464   14.3294951159
   9.2732647276    8.5481512083    8.2979560158
   9.8965627542   18.6827605606    0.3874168070
  13.3713273017    3.5844999484   17.6256245040
   9.9185915448   19.9301625138   17.7474479337
   2.8663410866    5.0250049544   10.5762852090
   9.2310523769    6.3801829787    9.1694832338
   6.2511890667    9.2345007512   10.7432417005
  14.2553168294    2.1802847616    0.3761320116
  11.8969911343    4.8241030998   18.6998813609
   5.5720642530    9.5348210864   16.4240461835
   2.1145685370    7.0586389078   10.9227629935
   6.6411176412    7.4946807083    9.5126182092
  14.7964693539    9.0815679216   15.6403484381
   7.2305227851    9.4842133863    8.8466001419
  13.7377632596    2.6688220018   10.8192333019
  13.2335118206    8.4896435963   14.1403227069
  14.4817556681    4.9724571287    8.7274340881
  15.6301428944    2.8109942375    9.8101890516
  14.2567691403    6.7642989860    9.9973346853
  14.3861554220    6.8773714493   15.1106525547
  -1.8353171942    9.3048912103   11.4672493319
  15.6490371549    2.5353419652   11.9444820847
  -1.5265414551   10.5783725932   13.1324329433
  12.6497169216    5.2678903214    9.9962972679
  14.3177927361   10.0322421732   12.5845790486
   0.5876029377    1.5852540932   18.5331870481
  12.1874061413   13.0173914284   16.2132288265
   1.8629857047    2.2747743684    4.5894996650
   5.1322222266    6.0162379529    2.3990073806
   5.8422700570   17.4699325201    8.2745383280
   9.9973664667   11.9548158454    7.5024315934
   5.8430563685    6.4216720343    0.8047467751
   4.7258058753    2.4245632293   15.0620328049
  16.4939416752    4.6579866872    5.0486214729
   0.0423957770    2.2820687464    1.4238865214
   0.7901244863   17.5386835547   18.2459418899
  17.7099127965    0.8022986425    0.3241626779
   6.1627393553   14.5870796506    7.1794436796
  -0.7749740797    3.5408763783   17.6202126546
   0.6367642684    0.6516397913    2.0829927331
  11.5092377260   11.9609670145   12.2990361596
  -0.7774152592   19.7884710838   16.9279642444
   6.7672138413   13.8868668765    5.4557954053
  12.4124596682   15.2158170850   14.9567628332
   5.2696529772   10.5560463830    0.3157448653
  13.2713673592   12.1491583365   12.3896734279
   2.6803907788    5.2941514102   18.5642108746
   1.6793715148    6.7989554097   19.0737729641
  10.4265298252   10.2357245110   17.9129023387
  11.8984187819   10.8143040434    7.1350095241
   1.1682824410    2.2874516448    6.2481852894
  16.5140933579    3.2576241559    6.1671386054
  10.0955723549   14.0909056736    6.7736680382
   3.7892315297    3.6356820288   15.9476699736
   4.6665796936   19.4675552772    9.0977265721
  10.6288362856   15.2780961280   15.7175305578
  12.3766090839   10.7963513594   14.3875505414
   0.9198136400   15.8660053570   18.8479196024
   2.3927949928   16.6319251284   17.9721815003
  11.1390953745   15.9569887693   14.2394716915
   7.2251745609   18.0520070249    9.2643859920
   0.5261598709    4.3155960890   16.5089171879
   2.9265038783   16.9091139015    2.2741667937
  -0.4240112008    7.7688823670    7.0555235623
  12.8412315702   11.4613312158   16.8314314292
   2.0973598952    3.6384080769    5.7321857741
   6.4634124696   16.3747251878    9.6454788221
   8.6610762657   11.2753734958    6.2775075925
   3.4916663324   10.2711467214    0.8614972917
   6.4172182284   12.8849418733    6.9106558141
   2.9628027021   10.5243003209   18.9048642294
   3.3369593000    6.8867946085   18.3852397313
  12.1688421713   13.6003152676   11.9478637770
   2.4404611066    1.7967219812   19.0056925770
   3.0313030680    2.4237009095   14.7751007544
   0.0964493252    4.9942901789   18.1069132075
   1.3688129800    1.7941385027   16.2838133914
  16.8842534356    1.5705630935    3.9744037063
  15.9865110436    2.8007482651    3.0164893945
  11.3261178496    9.4614014109   16.5585597919
   3.2996094816    7.5641657843    1.8579038672
   3.5894537538    7.5873215027    0.1863493514
   1.3035356612    7.8119934845    6.3159016836
   0.6634057070    4.3706919181    7.2174246548
   1.7615169674   17.2119496406    1.0805408250
  12.9029109249   11.2635196904    5.7589533198
   3.8853135996   19.5146751711   11.5894766566
  12.3856729665   12.5658982698    6.7627720906
   9.6829270602    9.7956245766   16.3192884527
   9.1429671201   13.7621161569    5.2209718247
  13.8611860680   11.7652649192   14.7135201731
   3.7592303114   18.0154464707    8.8561753256
   6.9697511944   14.7711835971    3.3338489331
  -0.6872095446    5.5705553809    7.4964023374
   1.0177419116    7.1084760904    7.9476248306
   5.9750774993   14.9465460650    1.2505750528
   6.2372616446    2.5615852733   11.1177604400
   1.0722682075   14.6015574464    1.1324272891
  12.8906932966   17.8706279252   17.3796969045
  13.6272190556   16.4382060241   16.6798811685
   4.1582637935   15.6511681235   18.6630585676
  13.9978635823   15.7718233657   12.3810615200
   8.3740073534   13.5791215320    3.4251722041
   4.6479762411    2.9514028751   10.3553296519
   2.7106449954   18.4086384156   11.1053149510
   5.3352653886   12.2928300425   17.1600481594
  -2.5575387905   14.2472635735   12.2277205475
  14.1937628745    1.0357097325    2.8187974232
  14.0720859978    1.9232443943    4.3409458131
   4.7999067271   17.0613061364    4.1386970374
   6.3650471608    1.1251881568    7.4251994662
   7.4826480064    0.1154911228    1.5366721891
   1.0853252984   15.3828883397    2.8104920968
   5.9467562116    1.8858675605    3.6703798151
   2.8743298598    1.2513440432    2.3809867912
  -2.2255821741   17.9376831826   11.2087773667
   1.3142700266   12.2578216937    2.3175904893
   2.1568011627   12.6410924103    0.8657856362
   6.5941329001   13.0140197120    3.3895011321
  12.2019467573   14.7903227587   17.5444427009
   4.6684091432    1.9250045380   11.8782475496
  13.0238086355   15.6276093360   18.8044737545
   5.9544464660   13.9442915460   16.7254939886
  11.6634100613   14.3433783296    8.1816619120
  13.1957198116   16.5187302858   10.9614027359
   5.3883175891   13.3382609576    1.4100594956
   2.6158529072   15.7070392906   11.2148253633
   5.5764808208   18.5689105268    4.4451075636
   4.0866564856   14.8588375988   11.9743387928
  12.8577203247   15.1769106267    9.1888931082
   3.8351398219    2.8312853168    2.0329403172
  -2.2683948909   15.8945078541   12.8884962403
   5.9649663314   15.5756226068   18.5643513870
   3.0997414084   12.1768774676    2.4198695504
   7.5170233127    0.9644098654    6.0071588766
   5.7558737152    0.6208499253    5.8149084250
   4.1239482029   13.5823804246   16.7669408312
   6.9618571543    4.0450939061   16.9765412116
  11.2971399884   19.3749707209   11.9008178579
   2.8037862311   14.8183050349   15.0577778503
   4.3348242669   15.1524200954   14.2004755237
   9.4790247530   14.1004362695    9.1603931155
   3.8227967322   16.5077072542   12.2461690046
   5.6990331356   17.7337987438    2.7408677680
   8.0172379875    0.7765327713    3.0601053877
  -2.4662690068   17.5141964622    9.5964676804
  14.0834035266   18.6993268163    3.9877271526
   6.3059266587    2.4067362268    1.9979589078
  12.7334495188   18.1066034516    3.0682126045
  12.9746493629   17.5460566182    4.8753924742
   3.9082134140    1.9972535754    3.7496651065
  11.2936929289   16.0334011633    8.5270747103
  13.4137044933   17.6952477337    9.3937490810
   9.8822318754   14.6041213744   12.2450341038
   0.2882020143   18.7739891343    9.3006392164
   1.8408631095   11.9988511344   10.7932232081
  11.3104009583   13.4541560924    2.6262418693
  11.8729871803   12.3066100759    3.7742454071
  11.1190891882   18.0246175856   10.9878759341
  12.5562960876   16.6500523955    0.1614286779
  11.1584436364   15.5578007391    0.8520641846
   1.9419995503   13.4944515387   11.7338549518
  11.4765338786   17.7026265566   12.6478472735
   0.3261561892   12.9290294251   10.9522095081
  13.0870844079   13.0116144296    2.6447234087
   4.4294640536    2.7874922173    5.8576522138
   9.4501034449   15.8297864557    9.6275498018
  -1.7415738286   14.0016829821    7.8037608833
   9.0707148179   11.3070855235    9.9456204379
   5.1319281824    3.0658756285    7.5024670104
  13.0352825951   15.4035137746    1.2951866830
   5.7669116295    5.1174326789    5.3329017872
   6.0358165591    5.2336813518    7.0151304090
  14.7939332091   12.2537786775    7.5980869633
   4.8592651644   19.9371657611   14.6179349593
   0.0939412119   19.3575307415    7.7681597474
   1.5793262424   18.3112141158    8.1119805933
   8.1944920666   14.5346707672   11.7511707872
   3.6496899705   16.9569082518   15.9137828537
   2.1688542027   17.1939546378   14.9422406010
  -0.3483828368   13.0106049671    8.4143227645
  -1.0068558024   11.0385099119    7.1776080858
  10.3421786342    2.4275630525   14.3953231338
  13.9281859950   15.4970237799    3.5797867938
   4.6255253948   18.7479709313   16.0989674724
   8.0993169180   12.5770494369    9.3447120196
  15.0250676241   10.9767520244    5.6976212872
   3.2903119419   19.7519657563   15.2402874757
  -0.7942391934   18.9500223523    6.0391519575
  -2.3283255320   18.1638596144    6.2864657540
   7.5085836408   11.6197873331   10.6485867705
   3.3632393020   12.9614206319    9.0049105855
  -1.0954608301   14.3961710958    9.4820785836
  13.3985927484   15.6368203653    5.1819061973
   3.2475426050   14.5367044452    9.6354458191
   0.2054936998   16.6557185483    6.3030005279
  10.6678902399    2.8120158052   19.3000823397
  14.2492934515   11.0748309743    8.8959409199
  -1.2101363015   15.9702407276    6.9144154021
  15.3664187741    9.2567199019    5.1836543225
   3.6857474985    5.5788229990    4.5880168610
   7.1617053372    8.2882206741    3.7045190579
   4.4952241575    7.0191238587    5.3480385813
  -1.0640733510   10.1134766086    8.7106503368
  14.4324345456   13.1262764526    5.4957246451
   0.6871907466    7.3413085702    4.1175024196
  -1.2170467957   10.4378197102    5.5783870408
  -0.6528482044   17.9547624713    2.7387550657
   0.7968161121   17.5612931408    3.8421666798
   1.8000878194   15.3203593672    7.6598515159
   0.7326516781    7.6686109670    2.3793833777
  -2.2716551201   14.5583589053    5.5292982441
   3.7063905777   15.0124316180    7.6516000646
  11.5154720471    6.0755622502    3.7390641598
   6.7073441863    7.1064755569   17.2759783588
   2.7776961349    6.7571267747    5.6419107429
   0.9564102029    9.0078583761    3.5553562100
   7.0753425830    6.5086868790    3.1436934862
   7.7055981307   16.7352879380   17.5471683427
  10.9549630081    4.7145964923    3.0002315888
   6.8962491897    6.9123983643    4.9141846657
   0.3733217549    4.4283915080   11.6920098334
   7.2441901632   18.3808527641   11.4078728059
  11.0848630965    9.5773500936    4.2535471789
   8.0641027411   15.7739660416   16.2157845704
  13.4938310217    7.0161706430    7.0655339791
  11.5445582458    8.0621330692    3.3479304932
   8.9989461847   18.0121316205   10.6631156727
  -0.0507780390   19.1006271789    3.9060485850
  12.9019191950   10.5613518073    1.5782930089
  12.7391660949    6.0799444706    1.8341637707
   8.4968035997    5.3995129589    3.2738376897
  -0.6561191920   12.5421423212    4.5229058001
  12.1831012974    9.0129647264    1.6151309899
  11.8159399056    5.1015785357    0.6753769124
   9.3399143500   16.1411580265   17.3511999141
   9.4117944854    5.1440968168    4.7003843046
   7.9648341175   16.6875304713   11.1839349833
   2.3728414325   15.4021588776    5.3405360108
  -0.4281002923   14.0438192205    3.6606956003
   9.1241482287    9.3515864683   10.7128831734
  15.0161863150    7.3612182509    6.1965788378
  -0.9207579981   12.5304711394    2.5599442933
  15.1577447756    7.4289361721    3.7936464391
   3.6998532740   14.2672472184    4.9491425356
  14.3810963599    5.7270022667    6.2675479527
   7.1545155083   18.7859333786   13.2299492469
  16.5435714160    6.3108779397    4.2114261245
  11.6770878234    7.9867800069    6.1581167489
  13.9862353376    8.9012146820    1.8177403792
   2.1145911136   13.8715798398    4.5798346656
  12.9394673107    8.9222420981    5.9690502615
  12.1125210756    6.7601374100    0.2424508523
   8.5406427918   13.0392683718   16.8164865727
  -1.2095492475    8.3039735178   14.0205147916
   8.7524288849   11.5935112175   18.8572533370
   7.6492768256   17.3754760663   14.2467570446
   9.7768607454   13.9312522954   17.7828815232
  14.8976621384    5.8690686290    1.9902364412
   9.5471089524   18.5941471168   14.9566605219
  15.8543334791    7.2901035242    1.5597664608
   7.1787119998   12.3733873525   18.9614280019
   1.4992499615   10.0176855487   16.8841597540
   0.6310519862   14.4146422824   15.4381794046
   9.9421625758   17.4199792420    5.9163237376
  10.4960629531    1.5291368887    6.5551844542
   4.9847600269   10.3455570959    8.5304794479
   3.9235124734   11.0585590497    4.9344459286
  11.5814941794    1.3732541927    7.9310462357
  16.3223825484    9.6488049361    0.5833646995
  -2.4865453548   11.1618431051   18.3964733110
  13.9815550730    4.8094480284   11.9718583574
  15.6623121826   13.0931209018    0.7808371706
  13.7692964038   13.1724722678   19.2107661906
  -0.0570788747    0.8226204498   12.0796993109
   2.5151175197    1.4081296819   13.3891988862
  -0.3475604363   17.5192861612   13.1282891811
   0.3093979638    0.8677914053   10.1401465973
   7.9421617761   19.1068516919   15.5518177354
   4.4068706272   11.6490850789    7.4661739211
  15.1523778484   13.0799356636   14.5511613772
   9.8400796308   17.9288224553    3.6041002636
   2.6020887038   10.6716187654    9.1658122245
   2.3743095017    9.3967296469   15.4380999827
   7.5830693854   18.7936402175    5.1061548669
  -1.3110545512    8.4673134011   19.4145459090
   1.1781695801   13.3516077423   14.1056048836
   9.3732188987   11.4050276442    2.8802232292
   1.9628562238   11.1335312674    7.6352175906
  11.0744419558   19.6536389270   14.1611605847
   5.2306835069   11.2232762168    3.5696582462
   1.7036035423   12.7877940118   16.6409982289
   1.3547303622   18.0666193064   13.0218679743
   1.4354714709    1.8503908384    9.0536922608
   8.9011728899   16.1584192816    6.5543176129
  -2.0696136560   12.3145328631   16.0852628453
  16.0706533024    3.9074401568    0.8412431754
   3.1177695870   10.6542503490   16.5662904076
  15.4372088810   11.5067391272    1.3947883400
  11.9866127669    0.8668168298    6.2881432702
   4.6151474312    9.5897864397    4.2303396769
  10.1527499877   10.1636879279    1.8127571620
  15.5767680384    6.4375590136   19.3430842135
   6.7685689549   10.3590463276    7.1979643470
  13.7536909243    2.2848444073   14.2676056769
  -0.1343128317    7.8170283980   18.1733321432
  10.4197973529   16.3589357643    3.1316867693
  -1.8009405813    8.4940355034   17.8340013113
  -1.2713478716   19.3999587067   13.7662572553
   0.6132642994    2.2241879719   12.9808100579
   0.6419862263   17.4006165973   11.5800263443
  -0.0619796739    2.6009231494    9.6488090590
   0.9894940235    9.1665762817    0.8293221482
  -0.2792884647    4.1124089537    0.8509655929
   0.1514784518   11.6086465296   19.1338388127
   0.3200954552   11.8512630816   16.6360451369
  13.5232831381    1.1497009166   15.7431697322
   8.7675589130   16.9134719821    2.6623898724
   1.8354652604    9.3958738887    8.3720766714
   6.6647321017   17.5733465319    6.0416701219
   5.8046396930    8.9645349058    6.5712887096
   8.4618390573   10.6571099250    1.5885455902
  -2.1173133881   14.1501837657   15.8763159539
   4.8638515881    8.7260148155    1.3270126654
   8.1594959168   14.0757910661    7.1303926464
  12.1960895051   12.8603406446   13.9813944485
   3.4345266044    1.6884930762   16.7081576911
   1.3871279794    3.4342733915   18.3098480338
   0.5212388225    6.1143932209    6.0894428301
   4.4046404077    5.0505093937    0.9393809056
   0.1543002891    3.4472094432    4.8828807417
  10.7595632534   11.7082186796    5.6392246364
   5.3624877590   17.9138381804   10.2899275219
  16.3523490363    0.9767509039    2.0379836437
  10.7491549920   11.6245982896   16.3595157585
   3.3114088109   16.1810675751    0.4272986979
  11.8081133549   17.0239368829   15.8826323669
   5.2838985814    0.8417888314   10.1268613559
   2.5682139373   14.0656148379    2.3828402662
   7.4579682674   13.5952385490    1.6929279095
  12.0601281907   19.3598828792    4.5407705754
   5.0646014749   13.7173320186   18.5364341798
  -2.4831255500   15.8741147162   10.8198783639
   3.8530399289   18.6307845880    3.2170231853
   4.8016291372    1.1073072095    2.1259541331
  11.0340875180   16.0040840591   18.7423411442
   6.4736225753    2.6309159201    6.0261422542
  13.1098676319   18.4720499756   11.4740170772
  11.2244644513   14.9265314568   10.1711022929
   2.5493246498   15.4609284871   13.2301972682
   4.0017373808   18.0495336452   14.1873253920
   9.1738851671    3.5770002255   15.5759873471
   8.7738743337    3.5191024370   17.9545199044
  -0.3852694158   17.3171863187    8.0825533996
   9.2424948087   12.8258108476   11.3079291405
  12.3781201595   14.2712257213    4.2131463822
   1.4207730103   13.6799616386    9.5778339372
  -2.0982933796   12.5502265279    9.2508154097
  15.5599668198    9.5918538830    7.1670587079
  10.8457349354    2.7510227738   17.1623709344
   4.0517897426    5.3940120862    6.5432852765
  -1.3407420133   17.6645953091    4.5448947787
   8.8971146034    7.1692157783    3.9918279328
   7.6650648222    6.7221236562   15.4374842455
  15.4673474693   13.2873571768    3.7119640035
   2.4160789023   13.7017814584    6.5405614128
   8.4469256278    7.7841994258   11.7345619715
  13.2833230032    7.2106225571    5.1059389669
  -1.0119235154    8.3030256855    3.4358631659
  -0.0565835943    6.5157714438   12.0252069623
   7.9048907166   14.7479167358   17.9409475153
  10.6845162689    6.3861506062    1.7986061981
  12.9977484674    9.5528655996    3.4608901492
   8.8466834680   17.7305712706   12.6793311150
  16.1206148921    5.2106381462   11.4670917484
  15.5986138244    7.1222284706   12.7854603587
  16.8154959162    5.4544768373    1.9860405098
   1.5165925508   11.1440115586   15.1899705021
  11.9647241710    1.0556401683   14.2852195325
   5.9703858871   10.7018965398    5.3381720099
   7.8603809600   18.8202520055    7.2254255885
   9.7598144995   11.9023054694    0.8507514139
  -0.2452004576    9.8968717598   18.2752141701
  -0.0739159002   19.2763674181   12.0326957189
   1.4327923189    2.1181252866   11.0838368850
  -0.8235746768   11.6336682362    0.2040614559
   8.7985448984   16.3539525959    4.5954390167
  -0.8163670900   13.1796409973   14.5665357668
   3.4316857822    9.7820049869    7.3076420234
