B2 C140 Ca1 F48 H298 O66 
1.0
1.7798866331044650e+01 -4.9309500513859830e-16 1.9491026079664085e-17 
-2.6660625313236954e+00 1.9277125989663485e+01 5.2646121803233759e-17 
-1.1455653460955699e+00 1.0390909750162471e+00 1.9471068526938542e+01 
B C Ca F H O 
2 140 1 48 298 66 
Cartesian
   9.5887988094    3.1505595958   16.9424904987
  -1.3666901217    6.1915328906   12.1365920652
  -0.1873319910    1.1190819571    1.5188286602
   6.8920512902   13.7311017839    6.5963250619
   5.0388797153    6.2551327217    1.3777711297
  12.2774282932   12.5836464736   12.6261100211
   3.6293315966    2.5011800877   15.5795472011
   1.6002047366    1.9632082337   18.3887395513
   1.3787566685    2.8769881761    5.4787849371
   1.9878275674    1.3958533882   17.0521691483
  -0.6765211485    4.0153505639    5.8270785242
   2.7812937759    6.1795554285   18.9995550552
   1.6597877118   16.5006782143   18.8078708964
   0.2261019132    3.9508000010   17.6598840457
  11.5789079004   15.6867540903   15.2055410028
   4.3741195873    9.6256363233    0.4957988519
   6.3099007104   17.2835135195    9.3190286983
  12.2319314680   11.9049710901   16.2396118814
   9.6904088196   12.0020384155    6.4881108481
   9.2859934441   13.4644823134    6.2822461274
  12.6275137413   11.5819420116   14.8187057713
   4.0985704055    7.4116848318    1.2238725962
  10.5664307912   10.2405086681   16.8219160681
  11.9266107319   11.5127487854    6.5138230994
  -0.0365975966    4.8879572404    6.8767643486
   0.5266435680    7.2258069812    6.8633563532
   4.4229036148   18.5100852948    9.6308447397
   2.4852603633   16.2063226465    1.5653548945
  16.1362028999    1.6004085126    3.2670893274
   3.4492549679   18.9871597680   10.7181150232
   1.7648240436   14.9411997430    2.0504572388
  12.8200700989   16.6909117915   17.0261815550
   5.1784501681    1.9965686593   10.8881765536
   7.3502891038   13.7170355622    3.1156600401
  14.8009773461    1.1237975571    3.7898854210
   6.2992868928   14.0452395376    1.0471545990
   5.1353454979   14.9531806439   18.9607950753
  -2.5868536581   15.4240693860   12.2417747864
   2.3329385264   12.6015081688    2.0504344904
  12.3609111365   15.6514371547   18.0709508403
   5.2395121149   13.2765460523   17.2775133214
   5.1156979608   17.8458500587    3.5980910928
   7.0939490126    0.4679603183    2.4759258776
   6.0552374461    1.5442861287    2.6012808183
   3.7125783044    1.7656058081    2.6406046614
  -2.6024237046   17.2239010571   10.6402751089
   6.4636163989    1.2733469479    6.2992566149
  11.8190293322   15.1035571037    8.9173150728
  13.6481563446   17.3718736261   10.7216772140
   3.4386843383   15.5466353842   12.1017596503
  13.0107048146   18.3803652493    4.0206306950
   6.5924774129    2.4398373472   18.3619438434
   7.2384375718    4.8134665614   19.1866453994
   7.3901446682    3.7538421885   18.0306335000
   3.4146549462   15.4218089567   14.5311287329
  11.7572434759   18.2515523602   11.8019405323
   9.8336107007   14.7598102901   10.0416382163
   8.8635158652    3.0269995887   13.1147476925
  12.2657034664   15.6204048473    0.4971990101
  12.2950625926   13.0655895143    3.3187921843
   9.1852291990   14.0328953474   11.2626453986
   5.2128512505    3.1727902327    6.5902764026
   1.4728335521   12.8933919556   10.8764443137
   3.3823828664   16.8788579015   15.0496214015
   0.6255643884   18.4229594053    8.2654806129
   9.8123862223    3.2211504430   14.4058638651
  10.8924843096    4.4208395064   14.1351696831
   5.3544228247    4.6567158248    6.3882026568
   4.3611252413   19.0148711728   14.9653973572
   8.6133143143   11.9419127441   10.2645959473
  -1.2232563671   13.3642199296    8.6723923458
  15.1600533639   11.6015998023    8.4463439814
  -0.4302241347   16.8183256080    6.6621086509
  -1.6214990252   10.5299512645    7.8706967838
   5.2862005403    6.8060675931   15.7252162754
  13.7528796915   14.7107994494    4.4191750320
  -1.2176602991   17.9494555787    5.9096691421
   2.8184873909   13.8232342263    9.0875433131
  15.5399358425    9.9051144408    5.8299791189
   3.8132055662    6.2497603839    5.4779456547
  11.2929048227    2.4805351944   18.4595630163
   1.6574349851    5.2848013767   13.3013893789
   8.8486378527   20.1597169451   18.5228536982
  14.9570559143   13.8474494818    4.7297232182
   6.7307315002    7.2409471477   16.1555235248
   2.7366054621   14.4427020164    7.6408338850
   7.5423840061    7.1652586112    3.9806257804
  -0.0812857526   18.0750135831    3.7942553993
   6.7723262667    8.7164912640   15.8849369502
   9.5717742797    7.7910173136    9.4440936162
   0.4328645111    8.0902378344    3.3024793844
  12.4655299867    3.4410589480   18.7323952845
   1.8036328329    5.6520287113   10.7672110063
   0.8940374888    5.2441830889   12.0161217840
  10.7058092181    5.6381370668    3.1593507367
   9.3310137707    5.7109477166    3.7462690960
   8.3111133700   15.7558834831   17.2997243221
   8.7023519780    8.3950387177   10.6038810502
  11.8921134564    8.6621828656    4.1646792653
   8.3648541362   17.7204763503   11.3642265964
  -0.9809839180   13.0662138331    3.6140124148
  14.0494554583    6.7761839899    6.3565604557
   7.2473008596    8.6421912098    9.9467014873
  13.0591343831    9.4965501393    2.1365394722
  11.8254000982    5.9626018140    1.2107147891
   2.6827877540   14.2862013832    5.2712730280
  12.4076163209    8.1506409999    5.4310024813
  16.0675543460    7.1469937976    3.5055427376
   8.0274734059   18.0648189833   13.6708634073
   8.7249449840   13.4253536480   17.9192508584
  14.5290155431    8.1037028378   14.6651222015
  15.6815649112    8.1718924782   13.6433227821
  15.6843095671    6.5436591978    2.1525137196
  14.9027404274    3.1356524684   11.0316745249
   8.4100992381   12.3897287333   19.0604018665
  14.7684381240    4.6101711496   11.1925609838
   8.8211756127   18.8180189934   14.8224303996
  13.9870503988    5.2795488239    9.9855935192
  15.5684323393    9.4605514816   12.7342487527
  11.2035250715    0.7483811396    6.9005050243
   2.3172611652   10.1512358045   16.1864302287
  -1.8971900021   11.1694745110   19.4591018428
   0.5538870362   13.2445008840   15.1910372923
  15.6770054543   12.0658795750    0.5707459149
   4.7655210725   10.4815246607    7.6209744506
   4.9133603274   10.4596599998    4.5342063466
   8.8799885953   16.8786013721    5.8589797122
   7.7926860749   17.8769570472    6.1229980802
   1.0545881219   12.1171001005   16.0816453729
  -0.6548061294   19.9271727002   12.9025355034
   0.8702390541    1.4143955855   12.2600401951
   0.5299665604   17.8505482793   12.4918252228
   0.6581802235    1.7141598782    9.9219047124
   9.4522308471   10.9028546514    1.9065411653
   2.3988947184   10.1620787353    8.0950154009
   5.8835247135   10.0125936465    6.6947429333
  13.2849161301    1.1654403027   14.6171196742
  -0.8043337173    8.4832586344   18.4837069395
  16.7936402143    4.5418845144    0.6937762792
  -1.8539266392   13.1809148802   15.3466113695
  -0.3826487359   10.7364720097   19.3619990561
   9.4830972615   16.8714324128    3.3575891384
   8.2770573967    6.5595384844   13.4342401706
   6.4899906450    1.8230260218   17.1938487453
   8.0878065510    5.8708536104   18.9402556123
   8.7121083574    4.2340272626   12.3980756197
   7.3263303295    1.5466696601   19.2165623506
   8.6919848028    3.1341546541    0.8971055369
   5.4267544443    2.6944997784   18.9935803956
   5.9522831131    5.2502991282   19.2972215094
   7.6861146921    2.5842245625   13.5569369996
  11.5103070044    4.1905476154   12.8856124074
   9.3827955285    2.1954460332   12.2439964268
  11.8734554086    4.3271988194   15.0720563536
   4.1962771580    7.4223932114   16.2627430669
   5.2386210155    5.3906325364   15.9815895176
  10.5164698736    5.7872759823   14.1453865604
   5.0856329037    6.9612705951   14.3273273915
   2.4800908215    4.1842841174   13.3660263670
   7.8110778038   19.5114125358   17.9840984265
   2.3310963460    6.4144497928   13.4702741401
  10.8659252878    7.7047034694    9.6751722301
   1.1623483011    5.5965327982    9.5976701043
   6.7741659872    9.0522011912   14.5423300660
   7.6458156322    9.4506024423   16.5188335098
   0.8122348016    5.0948445676   14.3920185997
   9.3439912247    8.4406112299    8.2515224543
  10.1517632945   18.6526575971    0.3310048582
  13.4114048042    3.4965284559   17.7583511398
   9.9686815673   19.7559673781   17.9123957653
   2.9264444450    4.9561918780   10.4943640101
   9.2459418802    6.4724882686    9.1846426209
   6.3869323438    9.1078417872   10.8606290573
  14.2553004919    2.1998906744    0.4529078010
  11.8487331598    4.6809373777   18.7818763553
   5.5286985108    9.3407614556   16.4476254225
   2.1350343476    6.9898826468   10.9214903531
   6.6266049149    7.4341528158    9.5687368595
  14.7880740379    9.0133993853   15.6617708327
   7.3238532984    9.4448852240    8.8658656114
  13.6409429608    2.6233218796   10.8884060261
  13.3258424262    8.3113003884   14.1494336742
  14.3439109239    4.9379076549    8.6859673300
  15.6183067899    2.8518387546    9.9221167146
  14.3403127946    6.7175107319   10.0952091815
  14.4293120890    6.8902217978   15.1604651113
  -1.8469899181    9.2103016291   11.4214137089
  15.5560539422    2.4128513409   12.0555777467
  -1.4259009969   10.4789658624   13.1982083970
  12.6482130793    5.1177071514    9.9397772299
  14.3011612804    9.9923449749   12.5885760207
   0.7580853038    1.3904195934   18.5350404296
  12.4323092188   12.9039320069   16.6335176829
   1.6753866977    2.1940760161    4.6109269916
   5.1732780547    6.1817964218    2.4450158747
   6.0331653793   17.3371529377    8.2145970401
   9.7796953247   11.6682181702    7.5482447914
   5.9911482298    6.5156165023    0.9179401027
   4.7269760710    2.2220489794   15.4340760549
  16.4407482754    4.6753540700    5.2585917874
   0.1363681479    2.1542740588    1.3344039528
   0.8606835075   17.1480619858   18.3318294006
  -0.0673191276    0.5448992975    0.5026221869
   6.3565561586   14.6630512339    6.9943200238
  -0.5561978960    3.2088281680   17.4989087802
   0.6498477190    0.6627014854    2.2579081060
  11.4199106995   11.9522297705   12.1540652120
  -0.9462349152   19.6304606868   16.9862902825
   6.8994323127   13.9337165292    5.4627098149
  12.4701457149   15.0991920392   15.1265710243
   5.2176638581   10.3313621215    0.3304797903
  13.1762530995   12.1567271935   12.2725970665
   2.6736939847    5.0997858162   18.6119793983
   1.7487255971    6.5484423238   18.9792274534
  10.4497519835   10.2158496499   17.9175949923
  11.8234613672   10.8020186602    7.3068430566
   1.2073250733    2.2320025044    6.3748562452
  16.4795679668    3.3245354205    6.4924339138
  10.1953867998   14.0762960534    6.6007040303
   3.3776960959    3.5598454298   15.6864754106
   4.9202661173   19.2760412918    9.0208017809
  10.9209141804   14.8564240367   15.7149616752
  12.1462609495   10.6500387108   14.4717769357
   1.2997712440   15.5050327539   19.0637361660
   2.3911448728   16.2855505336   17.9957591599
  11.2036749673   15.9974219178   14.3047484210
   7.1154459629   18.0268738644    9.4669123253
   0.6100446069    4.3052817742   16.6952955976
   3.2609653109   16.4757405260    2.4050635735
  -0.4888823698    7.5604287027    7.0439720507
  12.7622943045   11.1738175240   16.8941085647
   2.0989529903    3.6609062814    5.6371883169
   6.7934609697   16.3380962090    9.5455852433
   8.8747045058   11.2496939139    6.0101730212
   3.5534373953   10.3009973174    0.9407151388
   6.4224884975   12.7911701086    6.9111266645
   2.9552782906   10.3054756597   18.9691014611
   3.3816841402    6.8818840163   18.4518151230
  12.3811716933   13.6691798811   12.2855566678
   2.0715856416    1.7844387929   19.4259828231
   3.0110876680    2.2063449899   14.6695750698
  -0.1266743032    4.8694601061   18.2528946703
   1.4818461016    1.9581598450   16.3536967281
  16.9930555236    1.3577384347    3.9464058970
  16.1998073353    2.7294680712    3.0985062849
  11.3610804669    9.5149431416   16.4925666463
   3.3068798907    7.4090610216    1.8609402170
   3.7675519211    7.3785445376    0.2140307913
   0.9181790927    8.1250794557    6.3975674155
   0.7035580412    4.4369715768    7.5020290257
   1.7179375738   16.9084354749    1.3350975919
  12.7414989508   11.2015607615    5.9167659053
   4.1677764965   19.4016243597   11.4341654123
  12.1698408240   12.4918808207    7.0387584449
   9.6446371412   10.0617276097   16.4213364279
   9.0118111787   13.7003740865    5.2186468910
  13.7652501178   11.3816815062   14.6342678610
   4.0058751904   17.8431437149    8.9171655709
   7.0496916997   14.6930544117    3.3106999710
  -0.8332409127    5.1559325473    7.5880190037
   1.0342328234    7.1964576017    7.7893249434
   6.2588624696   15.0357393129    1.3540343437
   6.1445366589    2.4886408820   11.0947983821
   0.9957207749   14.5868352740    1.2958419418
  12.8814107067   17.6482500262   17.6244488176
  13.7692354009   16.4502519311   16.5698194245
   4.1786564642   15.5246317727   18.5186572502
  14.0998213823   15.4342862550   12.6189306389
   8.3600177988   13.7359723571    3.5680431299
   4.6113179127    2.6701422233   10.1060558029
   2.8080267199   18.0939189667   11.0888703417
   5.5177776804   12.2219912035   17.1924469232
  -2.4066826536   14.2988749120   12.1547168483
  14.1565451429    0.7590944515    2.9837803482
  14.3027469008    1.9090030169    4.3747492126
   4.7744793974   16.9058246761    4.0345670437
   6.6359091426    1.1021908310    7.3438164720
   7.3412062515    0.3953652714    1.4096513927
   1.0655852642   15.3479373854    2.7672801799
   5.9426206443    1.7039300183    3.7224032582
   2.7339860742    1.3462982974    2.2690806493
  -2.1617514376   17.7196398434   11.4306394599
   1.3956805489   12.2735090286    2.5750509986
   2.3442203290   12.4811603402    0.9256367786
   6.7567117223   12.9885890048    3.7516761562
  12.1432050563   14.7962488721   17.4688365345
   4.6331517715    1.9500798533   11.8578227382
  13.2329432322   15.5207645975   18.7795314815
   6.0156369995   13.7759722512   16.7158103582
  11.6086148349   14.2867665331    8.2653592258
  13.1933975462   16.3634749916   10.8573569772
   5.4590403620   13.3999020448    1.4009763831
   2.6845537458   15.5753498722   11.3063753229
   5.6461402293   18.5527951552    4.2298064530
   3.9394737114   14.6937261127   11.8436335735
  12.9185210527   15.2159679474    8.9504536940
   3.7038508250    2.8392375314    2.2967978817
  -1.8743604773   15.7796339372   12.9323349646
   6.0390286567   15.4073486475   18.6195231205
   3.1153489890   11.9723785517    2.4352694417
   7.3013977064    0.8203132975    5.6900097663
   5.5075822155    0.7999485723    5.9549285558
   4.3346222811   13.3972788748   16.6535199584
   7.0480575739    4.1968219723   17.0694565321
  11.5639663239   19.1450876680   12.2450014763
   3.0035835025   14.8921467694   15.3970255231
   4.5155820476   15.1543381409   14.5844138665
   9.6106689897   14.1317059541    9.0583996858
   3.9796473469   16.4572469384   12.0450257081
   5.9172741059   17.6613433975    2.7724963429
   7.9537492525    0.9186109108    2.9062098963
  -2.1139776636   17.3510734645    9.6876056331
  14.1013245653   18.6909869810    4.0621708703
   6.3905366979    2.4587211300    2.1751615868
  12.6330295187   18.0095323986    3.0459575968
  12.8575302880   17.4522950007    4.5322452651
   3.5574663150    1.8901049728    3.7646435779
  11.5989501299   16.1003862358    8.4184214416
  13.1475004247   17.5359104498    9.6006877781
   9.8332201640   14.3071233694   12.1396348805
   0.8309527931   18.5852657015    9.2957871162
   2.1107214251   11.9872544326   10.9503832818
  11.3162873783   13.2700852004    2.8424028894
  12.3533098239   12.0887272941    3.7734132358
  11.2501304861   17.9760961211   10.8667861839
  12.2995153024   16.7357250803    0.3603090671
  11.3582672240   15.4817975285    1.2421410064
   1.7434975471   13.7031102421   11.5988010451
  11.7159140592   17.4145894671   12.5802955258
   0.4856843468   12.7085176460   11.2461443104
  13.0200383107   13.1546375830    2.4910755395
   4.2791079226    2.7123226884    6.0451473088
   9.3777070010   15.8030715005    9.9744590021
  -1.7219208073   13.7902568769    7.7793474493
   9.3171002499   11.2138809049    9.9259694878
   5.0133566348    2.9805616524    7.6389149430
  13.0380256416   15.2523151988    1.1308365983
   5.7860944317    4.9596013689    5.4421164131
   6.0459582821    4.8539416479    7.1537524871
  14.4866658117   12.1042174466    7.6317540323
   5.0323574870   19.5529353663   14.3554154278
   0.3072429376   19.2969353486    7.8160660642
   1.6320243301   18.2528706265    7.8023131528
   8.2341352518   14.4308512630   11.4219036677
   3.8059109143   16.9719905246   16.0699402504
   2.3651192284   17.3509238169   15.0377891255
  -0.2073967706   13.0659117362    8.4644987496
  -0.8364905309   11.0795218567    7.3308157592
  10.6032266057    2.4271540247   14.4619817463
  14.0335473194   15.3124555535    3.5235468147
   5.0238005801   18.8392299619   15.9344092997
   8.5790623767   12.6549461011    9.4543709230
  14.9478874476   10.7956110983    5.6985100459
   3.3683579111   19.4926046391   15.2777280939
  -0.5999837278   18.9026615935    5.9664950177
  -2.2285574225   18.0778312410    6.1641401580
   7.5924446724   11.5255731510   10.6385852924
   3.3871660628   12.8871353511    9.0433561927
  -1.0198241359   14.1672015144    9.4409795053
  13.7172648693   15.2384970155    5.3830500253
   3.2750375564   14.6195487437    9.6686316734
   0.5109240791   16.6697846537    6.1878194617
  10.3920837039    2.6203787252   19.1759803020
  14.5657459605   11.0490296334    9.1797768245
  -1.1001229170   15.8458389765    6.7620679461
  15.0178892350    9.2402718618    5.1111127357
   3.5325235518    5.7072347840    4.5898467615
   7.2234570295    8.1722933432    3.7880536569
   4.6193489963    6.8986528626    5.1942849161
  -1.1347667529   10.1593498637    8.7996856443
  14.6288891326   13.1079640258    5.5930966507
   0.7270138218    7.2698451465    4.0731343536
  -1.2033757829    9.9528171790    5.4362282266
  -0.2217702515   17.9785879337    2.7191099499
   0.7748806393   17.4017904696    4.1470110757
   2.0792347901   15.4195637490    7.7961095483
   0.7032572954    7.8158600699    2.2916102560
  -2.0791349974   14.4957586359    5.1529590514
   3.8660049451   14.7688519407    7.5372166267
  11.3799299935    6.1528148332    3.7953244418
   6.8903558744    7.0689256919   17.3156191872
   2.8996398661    6.7919609461    5.7691857642
   0.9508350790    8.9749260803    3.5255545805
   7.1511634161    6.5737105034    3.1165271277
   7.7110809048   16.5083279816   17.7809348496
  10.9693388586    4.6126465661    2.8751085283
   7.0569696568    6.7959347469    4.9932533764
   0.3576213389    4.2930480007   11.9191555874
   7.3508261443   18.2978244152   11.5108206883
  11.0523751803    9.2766043388    4.3386791685
   8.2292508999   15.6511266312   16.2262655273
  13.6838963367    7.0598598627    7.3258730009
  11.5335841321    7.9074796767    3.4308665949
   8.9398191838   18.4593935668   10.7492378773
   0.0507352279   19.0666291740    4.1300002532
  13.3176728047   10.5825018726    1.7933542517
  12.7267777245    5.9377595180    1.8825411348
   8.6661677452    5.1225210095    3.0400621498
  -0.5432884516   12.2694973049    4.2839304641
  12.1836570673    8.9659220003    1.7373282367
  11.6081279503    4.9398202164    0.8335579493
   9.3225211732   15.9514521728   17.5953772603
   9.3132100698    5.3041282630    4.7578933757
   8.2374077893   16.7524856141   10.8495514265
   2.5742656136   15.3641965691    5.4606152161
  -0.3566552816   14.0772099356    3.5500648849
   9.1680000555    9.4116956625   10.7282571439
  14.9319224427    7.3040607052    6.3837198186
  -0.8122878497   12.5062820756    2.6531769190
  15.2073537330    7.3199576311    4.1068991779
   3.7277461734   14.0897976955    5.0398109119
  14.2655051759    5.6763166198    6.3162662573
   7.2131047966   18.5785817326   13.1398725451
  16.6891554437    6.3697339898    4.0871042697
  11.4743398305    7.7740381444    5.8458233975
  14.0192805177    9.0401067505    1.6992405415
   2.0461434707   13.9566614761    4.5540531748
  12.8487485625    9.0106717100    5.8471691646
  12.0289394715    6.7243989567    0.4520438261
   8.5694559703   12.9179701019   16.9168159766
  -1.1984109082    8.4013828466   14.2300343018
   8.9663841653   11.5580841335   18.7044321174
   7.4490862320   17.2390440407   14.0870278297
   9.7542753252   13.6219238524   17.9874575201
  14.6669186498    6.1340702554    2.2647260281
   9.6632891109   18.1554644686   15.0253438487
  15.7644568516    7.1708701997    1.2680005056
   7.3062377986   12.2220818632   18.9571352371
   1.6688098529    9.8062177660   17.0783337040
   0.4658544473   14.1342010572   15.8576166127
   9.7823861440   17.4223007076    6.1393312393
  10.4194479844    1.2473256471    6.3687366091
   5.1037916498   10.3593611760    8.6538859244
   4.1822024453   11.1306783084    4.9563125933
  11.2996545356    1.0731882329    8.0324779903
  -1.2106742830    9.6095343672    0.8880817826
  -2.2694153532   10.9259894292   18.4008312091
  14.1709369111    4.7496928862   12.1489183235
  15.8111589078   13.0467057792    0.8773483120
  13.9656041763   12.9242184816   19.1560959590
  -0.0800275803    0.9649669050   12.0474288218
   2.7066110643    1.3743595010   13.1849163154
  -0.1596636753   17.2888268214   13.1685562278
   0.0140004523    0.8416580451    9.7066837737
   8.2050310575   18.9930492269   15.7655337082
   4.4920173236   11.5569766867    7.4777616713
  15.0622257658   12.8934617461   14.7709297432
   9.7716434857   17.9117196433    3.4448647152
   2.8944407363   10.5184324676    9.0119906609
   2.5851581823    9.2590585251   15.5725270399
   7.6288317889   18.4821150135    5.1297460579
   0.2149459743    7.2808229545    0.0982774036
   1.1736418383   13.4377966964   14.2796409460
   9.5907792471   11.4515412811    2.8004946188
   1.8377689297   10.9914914015    7.6228196617
  11.5644749198   19.9254929783   13.9732414449
   5.2664338710   11.0097886204    3.6766855276
   1.8778039599   12.5488126949   16.7082576444
   1.4888504379   17.9936756472   12.9251196224
   1.3476115078    1.7119541318    9.0857213710
   8.6553088873   16.0872732400    6.5900350960
  -1.7910991338   12.4118657863   16.1533914639
  15.8911225552    4.0190903852    0.7145611063
   3.2693684091   10.5799815928   16.4632614886
  15.1536703623   11.5459066421    1.3491282644
  12.1905724647    0.6841288341    6.4415419049
   4.5298973535    9.5224987211    4.0394885165
   9.9904403101    9.9675985916    2.0951029998
  15.5678973694    6.1916087313   19.2617750883
   6.8737046421   10.3857227998    7.1840329365
  13.3450180507    2.2464603228   14.2722733955
  -0.1200080012    7.6448414076   18.2094134619
  10.3618716421   16.2558307296    3.1467257228
  -1.6339932328    8.3290235373   17.8368618814
  -0.9655657045   19.3151228215   13.7479039668
   0.5749941415    2.1833724007   13.0676717795
   0.5421412797   17.2256364151   11.5312875966
   0.0384345428    2.6098955621    9.8592686246
   1.0835022431    9.2519613324    0.8824587248
  -0.0797808299    4.1287871511    0.6428848565
   0.2743229430   11.6149103770   19.0407600202
   0.2174027580   11.8395092638   16.6361733696
  13.5025960093    1.0871984169   15.6702555092
   8.8171831122   16.6502291203    2.5626452537
   1.6034036289    9.4222729278    8.2696550223
   6.9225613047   17.1832804460    6.3082999545
   5.8834524405    8.9054359840    6.6417612828
   8.4822788047   10.5121591426    1.8610855887
  -2.0787310057   14.1638481635   15.8210660061
   4.9378409302    8.6017223016    1.3120642917
   8.1890250018   13.8784360653    7.1114714632
  12.2634652954   12.7541028134   14.0296098737
   3.4125158671    1.7200450591   16.7091228381
   1.3390556096    3.4081779711   18.4068200737
   0.6396716155    6.0048986808    6.1906534973
   4.4212613206    5.0417272461    0.8510855582
   0.2050510236    3.5113012858    4.8757699143
  10.8860722702   11.6239710779    5.6610917551
   5.3405171606   17.7120965876   10.3097456273
  16.3614654034    0.8791690159    2.0035121666
  10.8442363277   11.5106415016   16.3239166345
   3.3834136984   16.0537744852    0.4194384500
  11.8297298455   16.8621813040   15.9562479176
   5.2757135130    0.7915335100   10.2159461641
   2.7047541031   13.9411968255    2.4215573521
   7.5186990993   13.5174180144    1.7286114087
  12.2261242926   19.3207570324    4.6860374359
   5.1324074452   13.5637157047   18.6712909816
  -2.3015058105   15.8464966658   10.9025930482
   4.0003655959   18.5830125576    3.0475329239
   4.8139481188    0.9674205552    2.1299582270
  11.0915718756   15.9013743645   18.7389860085
   6.4217335551    2.6868573141    6.1104108655
  13.1967280363   18.4182852520   11.5330714648
  11.2425015664   14.7962231695   10.1866271002
   2.6560083212   15.2082053639   13.2967019362
   4.1484791678   17.8375725472   14.2276396527
   9.1009699997    3.4223345186   15.6478265686
   8.7140893354    3.3375817697   17.9864578499
  -0.2143305258   17.3421464599    8.1158688854
   9.2076311051   12.6130156041   11.3551048030
  12.5357761013   14.0494905120    4.3479694729
   1.5165964528   13.4921920700    9.5949320712
  -2.0128316333   12.4694709724    9.4416386159
  15.5786592261    9.4431623707    7.1581254768
  10.8518036502    2.7658450125   17.1177716321
   4.1463076742    5.3793816512    6.5977706994
  -1.2264405760   17.4564862426    4.5149300691
   8.9128645799    7.0907830082    4.0258276869
   7.6779098527    6.6609647653   15.3481340828
  15.4305503992   13.2030164557    3.6714132697
   2.4652285551   13.5542267844    6.5729301166
   8.5577436152    7.6680651620   11.7453576804
  13.2743896485    7.0051926955    5.2192794681
  -0.9718279879    8.3364440556    3.3859391603
  -0.0351800402    6.3575349987   12.2301371483
   7.9089750715   14.5333561383   18.0442231378
  10.6979202379    6.4550414630    1.9628532860
  13.0036167138    9.4510666251    3.6159581776
   9.0030721739   17.5989404336   12.6784597592
  15.9839750012    5.0535587810   11.4548376394
  15.5765325573    7.0826211198   12.7817047628
  16.7716640547    5.3726878130    1.9296705511
   1.6833722424   11.1395332339   15.3220130498
  11.8910633261    0.8841603998   14.3408169780
   6.0500338071   10.5100776242    5.3867263238
   8.0196132373   18.7046566874    7.1669127314
   9.8568910533   11.7917982035    0.8745536909
  -0.2059942239    9.7445264590   18.2511717823
   0.1097098206   19.1182935076   12.0211475879
   1.4397898333    1.8784970283   11.0839117827
  -0.8070673713   11.5327182768    0.2601413137
   8.8992924660   16.2875199621    4.5294719754
  -0.7474966054   13.0625097599   14.5019196949
   3.5638666338    9.7185590359    7.3235526595
