B2 C140 Ca1 F48 H298 O66 
1.0
1.7950873238131056e+01 -4.6082045740863638e-16 1.1823582847062650e-16 
-2.4519791295538549e+00 1.9503241432293745e+01 -5.1366376342930177e-17 
-1.0200054182899689e+00 7.6422638307446389e-01 1.9440566172518523e+01 
B C Ca F H O 
2 140 1 48 298 66 
Cartesian
   9.8585480415    2.8600687783   16.8973457120
  -1.2591081659    6.0570450369   12.0455750428
   0.1283574442    0.7414503763    1.7901704870
   7.2127546448   13.9581962994    6.6533161258
   5.1560558674    6.2216478659    1.2935441588
  12.4101749708   12.6382640217   12.6244476149
   3.6102295378    2.2917175300   15.5972413871
   1.6495682813    1.8226522272   18.4451907977
   1.3825863247    2.7509511202    5.3734964086
   2.1086180060    1.4111957992   17.0095692452
  -0.6779769727    3.8930014593    5.9985046425
   3.2081090779    5.8767839210   18.7899472982
   1.8317456943   16.1525916797   18.7999124432
   0.3268976228    3.6404479845   17.8191845632
  11.9859696915   15.7000690830   15.2585163614
   4.4744344283    9.7916788970    0.6864965765
   6.5058752858   17.1988047584    9.0938869521
  12.6670501141   11.8184570023   16.0621490413
   9.7414028471   11.8389103781    6.2559260386
   9.5156934137   13.4304970405    6.1732190431
  13.0743651032   11.5741076890   14.6558666816
   4.2736682338    7.5444306092    1.4492414575
  10.8838278307   10.4959234880   16.7321815416
  12.0490943186   11.4949873632    6.8581774684
   0.0238865482    4.8052486795    6.9698875091
   0.3526082577    7.2565072103    6.6747408468
   4.7922335233   18.7927547858    9.6828647146
   2.6033758551   16.2874593912    1.6344791372
  16.3904278146    1.6107837458    3.1332752704
   3.7524248103   19.1739423264   10.7360183680
   2.0874945012   14.9645357178    2.1699509393
  13.2072474659   16.6928992930   16.9955526009
   5.3158165618    1.7982370195   10.8921665829
   7.6545798254   13.7979024104    3.0523117915
  15.0161034272    1.2092387251    3.8841917516
   6.4657832617   14.3120735375    1.0181348951
   5.4381364130   14.7458470952   18.9678585165
  -2.0363368232   15.5098671265   12.2608309670
   2.6870283739   12.5793276765    2.4599348743
  12.7752263877   15.6840263924   18.0470512112
   5.5566633752   13.1245956937   17.2025286879
   5.4670644280   17.9398543263    3.5030037260
   7.1673239091    0.5450894343    2.4058505274
   6.0882234490    1.4720050722    2.8058106523
   3.7292094991    1.7115330865    2.4133767535
  -2.3344251955   17.3095658369   10.7844053498
   6.3441613752    1.0397378418    6.1654037789
  12.2348250218   15.1882643441    8.7608022456
  14.0992582821   17.4710243511   10.6627848664
   3.6029605224   15.5323912399   12.2723402470
  13.1261326815   18.2745825713    4.1808898815
   6.7268658594    2.2512976360   18.2976447769
   7.5065492717    4.5541256253   19.2116110494
   7.6472185538    3.5087141390   18.0170549106
   3.9229143032   15.3172488835   14.6370866921
  12.1470361035   18.2570399824   11.8291010145
  10.2611491529   14.8226858419   10.1275878601
   9.1055941330    2.8313740727   13.1894268991
  12.5248866116   15.9176058806    0.4814828588
  12.7507106179   13.0973424893    3.4403040267
   9.4146475657   14.0238025255   11.1222271376
   5.0805296103    3.2051804642    6.6346778360
   1.8332418848   12.7261437867   10.7874646723
   3.9687616710   16.8136540998   15.0603647661
   1.0551344669   18.6426655522    8.1516443748
  10.1071534156    3.0406623118   14.3305388400
  11.1269901685    4.1664320003   14.0441291129
   5.3555438200    4.7989626551    6.5051600700
   4.7596918831   18.9788797846   14.4342483739
   9.2664400122   11.8808984594   10.0606024897
  -1.1050624664   13.3473973494    8.5580527148
  15.4219734016   11.4140728702    8.4715063008
  -0.0241066417   17.0831268895    6.6683482011
  -1.4693703441   10.4805270574    7.9694762029
   5.3163361654    6.6977405359   15.7785901805
  14.1360616198   14.7511039743    4.4044685942
  -0.9966772931   17.8272079807    5.8677458851
   3.2416329298   13.5977853138    9.1177431598
  15.7079694706   10.0146292997    5.6314012155
   3.9176924657    6.3738776476    5.4200975096
  11.5999999058    2.1895739592   18.3232261106
   1.8076348252    5.0149225458   13.3295253897
   9.4166575334   20.1948344294   18.4821897422
  15.4550943074   14.0308574625    4.5364327844
   6.8077098258    7.1682116824   16.1073610440
   3.3414924473   14.2023768447    7.7236988875
   7.6516782030    7.5207042813    4.3552748618
   0.2208210754   18.2610295385    3.7754190160
   6.8429637672    8.8078413487   15.8067455393
   9.7781889017    7.7491699638    9.4769791819
   0.5754482119    8.0733478602    3.0132621219
  12.7956417639    3.0768778544   18.7838051788
   1.9286346824    5.6778008680   10.8114436073
   1.0826501063    5.2285706332   12.0451463409
  10.7606778591    5.4930075104    3.2757152683
   9.2878687669    5.7280161448    3.7912213370
   8.5650230974   15.4968557222   17.4463291732
   8.9409395933    8.3376023508   10.5974926997
  12.2694247084    8.5248890220    4.0821031948
   8.9554868510   18.2917436086   11.3497777722
  -0.6687911700   13.0508241926    3.3561639593
  14.2675639701    6.5356884054    6.4714750650
   7.4908200350    8.5543751774   10.1570942723
  13.5288194346    9.5540695046    2.2771214179
  12.1620807079    5.9083767358    1.3677455642
   2.8282998319   14.1740917343    5.5003069960
  12.5726874121    7.9635663772    5.4807957902
  16.1940493019    7.2507271870    3.3301792197
   8.5912454386   18.0118162824   13.7234432503
   9.0294901723   13.2175425267   17.9814929414
  14.9737327793    8.0018616613   14.6432393770
  15.9729904043    8.0060074109   13.4891711180
  15.9243136227    6.5177973417    1.9938447860
  14.9838428548    2.9538067693   11.0587685380
   8.6907101077   12.1038389419   19.0183841001
  14.9165318427    4.4661684045   11.2126691690
   9.5301646219   18.6554415706   14.8440240471
  14.3216250802    5.3392041035    9.9671580788
  15.8874558303    9.4324358036   12.6282245069
  11.4987478128    0.4549393524    6.8130718292
   2.5509682854   10.0213098947   16.1499709110
  -0.6407737032   10.1919922167    0.1254424863
   0.9018729417   13.1979700921   15.4042142547
  15.9948816854   12.1089704008    0.4916581459
   4.9178717034   10.5711335558    7.4883886003
   5.1197565786   10.2935171298    4.5035041080
   9.3358086605   16.9657680816    5.7624641504
   8.2304569513   17.8721852152    6.1382521852
   1.3812185562   12.0444528676   16.2342373865
   2.3157763469    0.5700122903   12.7719741552
   1.0922031382    1.1419847764   12.1006787325
   0.7190386000   17.8892057802   12.3650997583
   0.6361716630    1.5094874465    9.6996435427
   9.7601174051   10.7049957249    1.8537752459
   2.5927829991   10.0612358748    7.7223903278
   6.0481720765    9.9127691969    6.7097735331
  13.3288799810    1.1216607276   14.6191582926
  -0.3333801171    8.3635919281   18.4519375403
  16.8223672147    4.7343705304    0.6193162400
  -1.5992938059   13.3126486674   15.2763620978
  -0.3310708848   10.6780165372   19.1873866890
   9.5484231287   16.9608247752    3.4641862002
   8.5955102099    6.3990979443   13.2330646544
   6.3747417111    1.5917102017   17.1495330865
   8.4597653011    5.5422731433   19.0178703418
   8.8111828078    4.0766311096   12.4893959129
   7.3799274058    1.3540169593   19.0993208518
   8.7357021929    3.3689630987    1.0067753828
   5.5272557950    2.7214151911   18.8893850771
   6.3483807802    5.2400057406   19.2425159630
   7.9123645994    2.2906888265   13.5205333805
  11.6200399139    4.1240368476   12.7044160485
   9.7101275895    1.9730286813   12.1976429912
  12.0780110996    4.1836793430   14.9569391535
   4.2303623506    7.3951749981   16.4128441433
   5.1934886170    5.3937063462   16.1371094180
  10.5028491240    5.3949725488   14.1492454935
   5.0807829761    6.7409171053   14.4182298259
   2.6997557713    3.9890989775   13.4262998024
   8.2860511418   19.5215396390   18.1209335372
   2.6536319470    6.0839800690   13.6249753003
  11.0336493882    7.8103038805    9.9810010689
   1.1289870698    5.3965334367    9.7116548798
   7.1316843930    9.2180505395   14.4902402653
   7.9452489193    9.3171494317   16.5584680902
   0.9126717525    4.8494341352   14.2268830531
   9.9221277428    8.3165988740    8.2518022204
  10.5583939936   19.2476769648    0.4117791577
  13.9214269811    3.0667416037   17.9630455867
  10.3773038548   19.6427181972   17.7008888371
   3.0098974249    4.9350875822   10.4561767819
   9.3428071755    6.4520169623    9.3230277936
   6.7534506635    9.1262120766   11.1631328098
  14.1791242159    2.0390631833    0.6342980656
  12.3105534555    4.3874377898   18.7903432080
   5.7909960119    9.5653909938   16.2245881873
   2.3217483973    7.0023351708   10.7394940278
   6.7864721645    7.5748414855    9.5276532740
  15.2809237165    9.0308929091   15.4726738320
   7.5328727165    9.5826036997    9.1383195201
  13.7551753351    2.4708723317   10.8431129936
  13.7025456893    8.2242208217   14.1995729122
  14.8534448887    4.7293296563    8.8563956402
  15.6747524330    2.6023477464    9.9917221870
  14.5996501680    6.6210696173    9.9809704538
  14.9894200271    6.8556285986   15.3292933022
  -1.5751108818    9.1538339638   11.4129685810
  15.3619587634    2.4192643284   12.2487024055
  -1.2458703796   10.3338770137   13.1555398883
  12.9203893041    5.2386197835   10.0735491973
  14.6633807351    9.9661733467   12.5607561628
   0.8066530007    1.1861771044   18.6593852237
  13.0745845072   12.8207087412   16.2323252290
   1.7934644507    2.1085211862    4.5172943753
   5.4945345968    6.0055693299    2.3676223272
   6.0916948389   16.6496109893    8.2098415803
   9.6669369947   11.5325274254    7.3282328410
   5.9881215319    6.5013923746    0.6367368907
   4.5017070294    2.9048151654   15.5939382545
  16.3430252283    4.2845471015    5.4768209401
   0.3921616608    1.6546955094    1.2894558573
   0.7517428913   16.1181957353   18.6936299280
  -2.1184939372   19.3348036981    1.1458994342
   6.7258886609   14.9351098397    6.9856268043
  -0.3479801881    2.8523800431   17.5836898305
   0.7725945505    0.4889700623    2.7369119244
  11.2708968264   12.3308235265   12.5024286360
  -0.6395348573   19.8635030462   16.7610027625
   7.3515905099   13.9231267911    5.5516906933
  12.8621539958   15.5367074520   14.6835759136
   5.3784022167   10.5005340697    0.5670523287
  13.1191043497   12.0081266845   12.0992971848
   3.2901704074    4.8900231928   18.3481746561
   2.2234283081    6.3535989692   18.6513931621
  10.9466651073   10.1170669351   17.7522779710
  11.7175346996   10.7013916070    7.4763629279
   1.2056612729    2.1258337146    6.2543216164
  17.0115869989    2.9443999797    6.5839951671
  10.5323519185   13.8778028850    6.5264270102
   2.7529558894    2.9881644080   15.3927009247
   5.4981755005   19.7407118417    9.6633877016
  11.6791034516   14.9234901834   15.9354329541
  12.3674367259   10.8383614937   14.1302700571
   2.1824187651   15.1162696048   18.9079550480
   2.3679008416   16.5840559717   17.9339631426
  11.0635856877   15.7637777560   14.7314864057
   6.9874763584   18.1993587928    8.7293721119
   0.6618516276    4.2272961681   16.9121981712
   3.3151042235   16.9979352528    2.2325034948
  -0.6744564558    7.2792858325    6.9559071584
  13.1393903955   11.1153871344   16.7458223301
   2.1536108746    3.4275492226    5.6858321544
   7.2028827056   16.5220303584    9.5584318956
   8.9738114510   11.0781847011    5.6421142594
   3.7158087468   10.3400654252    1.2485810673
   6.6201582745   12.9746173371    6.8802792121
   3.0516143690   10.1929583538   19.1960746734
   3.9928931636    6.5195257757   18.3694415997
  12.3468154130   13.6437601628   12.2588348799
   2.5936648592    1.8243733157   19.1301392267
   3.7294724700    1.5829835600   14.5836744302
  -0.5326756299    4.4204643534   18.3147453126
   1.5155423760    1.9075673961   16.2453102576
  17.1034369831    1.3512825992    3.9741960167
  16.5026785528    2.7376406462    2.9628342150
  11.4940821250    9.7557875581   16.1431629920
   3.6342651185    7.3865054731    2.3403389947
   3.4730087943    7.5021176227    0.6362507428
   0.4542374486    7.8341414842    5.8378902969
   0.8692966099    4.2950231890    7.4774812008
   1.7205564820   16.8990619601    1.5522213333
  12.9982971741   11.3079193569    6.3379270230
   4.2256474743   19.5661465741   11.6560501954
  12.2282204444   12.5089652543    7.3275261417
   9.8807089306   10.3741512085   16.3751346159
   9.5815526198   13.8458855346    5.1550015786
  14.1818236330   11.3707082571   14.6147788844
   4.2686751136   18.7188745626    8.6815967087
   7.3041957669   14.7069299477    3.3931793225
  -0.7950697100    4.9770996192    7.6372691801
   0.9603301856    7.5964784955    7.4639431112
   6.5757281123   15.3925407256    1.0212646543
   6.3337615608    2.2709035012   10.8629077667
   1.3717495753   14.6444010913    1.3399575681
  13.3458516541   17.6502856345   17.5386175438
  14.2084995622   16.5057045519   16.5466450218
   4.6428410038   15.2536373992   18.2945691713
  14.8127684537   15.4936750819   12.6609664512
   8.7566927462   13.8463711805    3.2875360826
   4.5171788387    2.4854374771   10.4396274744
   3.1815734525   18.3214533734   11.1460899535
   5.4780361106   11.9976619509   17.2321214042
  -1.6106282196   14.5297530349   12.1361787591
  14.0726069750    1.0468304445    3.2114942146
  14.8668298537    2.0005149861    4.6302154439
   5.0320470610   17.0467939564    3.9562108547
   6.8393895857    0.4782893049    6.9874965627
   7.1868847651    0.5033240765    1.3425752036
   1.5857937346   15.1124918559    3.0893198005
   6.0630341439    1.5601558009    3.9580122497
   2.8627344955    1.3076409737    1.7129549347
  -2.0338204293   17.8479874088   11.5944785051
   1.8044535719   12.6188973186    3.1622194936
   2.0434213654   12.2019150044    1.4800941433
   7.1824594534   12.9619259468    3.7231233153
  12.5796392138   14.6730246835   17.7461347832
   4.8729860103    1.7041032596   11.9087522696
  13.5618114188   15.6166046878   18.8203846290
   6.5104824537   13.4771434964   16.8066490081
  12.0533976384   14.6736299738    7.8772882615
  13.4929794872   16.5885275856   11.0093927861
   5.5605339838   14.1187574893    1.5635316313
   2.7571171706   15.8453677564   11.7016260790
   5.8432455581   18.4253637519    4.4164707790
   4.0004609222   14.6173300315   11.8776609200
  13.3497131505   15.3325375725    8.9034890616
   3.9467655798    2.7669580266    2.1912102441
  -1.4675871862   16.1372893119   12.9835446355
   6.3640455082   15.1149203328   18.5541912529
   3.5703466193   11.9193808641    2.8069222885
   6.8309321585    0.7877383816    5.2072013375
   5.3675993601    0.5325985231    6.2284438436
   4.6744326424   13.5725793902   16.7691978587
   7.2691449479    3.9834826597   17.1520741092
  11.8173879090   18.9528533602   12.5418344845
   3.4477681178   14.8049244337   15.4325510302
   4.8904876351   14.8026680006   14.3627220302
   9.7924705457   14.3354992030    9.0761683247
   4.4083546828   16.1938469574   12.2531291733
   6.3111060287   17.6170124880    2.7836469433
   8.1123190490    0.8534809314    2.8177313650
  -1.8328430926   17.6700988551    9.9136380392
  14.2621081593   18.1262598877    4.2530572403
   6.4876362828    2.4627229809    2.5977938972
  12.9255290051   18.2439072340    3.1284559354
  12.5922191348   17.6568636497    4.9170346279
   3.4759802833    1.5363769274    3.5096580771
  11.7202726233   16.1769227974    8.5822282519
  13.7191146256   17.9345711323    9.7283771513
   9.4861509198   14.2113161296   12.1688773355
   1.4673200485   18.5479962680    9.1854327080
   2.7926341071   12.3384588275   11.1926196500
  11.8741595518   12.5102580520    3.4573075769
  13.5713956389   12.3832401384    3.3069075075
  11.3421156522   18.4407603006   10.9577055565
  12.0162921306   16.9514414668    0.6119406559
  12.0711037500   15.1921078183    1.2019771799
   1.4806722971   13.4542000082   11.5269405892
  11.9881362264   17.1953822079   12.2141719672
   1.0923482648   11.9528691632   10.5352876195
  12.8292947592   13.7127005193    2.4541874042
   4.0936785618    2.9131564615    6.0579103473
  10.0290255948   15.8834789439   10.0473115365
  -1.6855768073   13.6180536263    7.7026101122
   9.9693203834   11.1107759242    9.7659603152
   4.8875530885    3.1607784284    7.6713469642
  13.5919349808   16.1592997624    0.6236323589
   5.9088876696    4.9624671807    5.5343873158
   6.0346668634    5.1241055363    7.3001546525
  14.7527750008   11.8440384569    7.6082847582
   4.8104036284   19.5840248111   13.4646184188
   0.6286755088   19.5873379841    8.0211008741
   1.8503225592   18.4696134741    7.4287665420
   8.4225221879   14.3331184185   10.7902392988
   4.4641339400   16.9281258602   15.9917250437
   2.8724998101   17.0540372591   15.2716125392
  -0.2868493281   12.8637577919    8.0973653585
  -0.6762765328   11.0553306492    7.5627600981
  10.7238750550    2.0642010892   14.3346297177
  14.0161948156   15.4274882921    3.5696923184
   5.6111314348   19.1926498861   15.1888268783
   8.9941827017   12.5178498199    9.2758417028
  15.2647669123   11.0061501226    5.7060930449
   3.8227600946   19.4434428862   14.9297029423
  -0.8863723549   18.8040520158    6.3316764232
  -2.0087309778   17.5190526322    6.0868666393
   8.2753675103   11.2748002897   10.2383203438
   3.6772511371   12.5777060532    9.0665147649
  -0.8267279891   14.1004243645    9.2843020667
  14.0884784820   15.5301065022    5.2030403661
   3.9946424068   14.0203446645    9.7964757184
   0.8752487905   17.1455267092    6.1206934643
  10.7824783468    2.3637834151   19.0679761184
  14.6389590667   10.9040024054    9.0725772033
  -0.1665106643   15.9207659045    6.7064898615
  14.8728598226    9.2887024036    5.2526229350
   3.3664344797    5.7738279212    4.7256965456
   7.6949550613    8.5180884939    4.6706220920
   4.8886855608    6.7653365061    5.0516193313
  -1.1433206648    9.8538997320    8.8446921116
  15.4218778490   13.4917071705    5.5597249138
   1.1330132429    7.2937309354    3.6808556364
  -1.3797678238   10.1005990394    4.9797059928
  -0.0648364905   18.2512479871    2.6523411035
   1.2731240199   17.7260217670    3.6895955888
   3.0455112396   15.3970330490    7.6383072998
   0.7469991809    7.8217887715    1.9721713544
  -1.7567290036   14.8422851720    4.5175592929
   4.4386339359   14.1290684077    7.4449487736
  11.4477676892    5.6950283728    4.1343028559
   7.1410029583    7.1186820323   17.2932641072
   3.4717833974    7.2869488834    5.7199873782
   0.8870956516    9.1116303653    3.2516508589
   7.0469420962    7.2778199448    3.4687019325
   7.8352684553   16.2786708363   17.5492148881
  10.9107462335    4.4431984935    3.1060091683
   7.2347343328    6.8940500812    5.2219036385
   0.6352584794    4.2350390287   11.8033278733
   7.9034589905   18.0676972843   11.1652616645
  11.2922351455    8.9817976696    4.3428074221
   8.6260470385   15.4068613277   16.3303135546
  13.5909307115    6.2011816302    7.3090855342
  12.2011299427    7.6477165380    3.3673349868
   9.1310700693   19.4413203089   11.3105624100
   0.3699596820   19.3129425817    4.0333867849
  13.8090541438   10.5633461363    2.0492244487
  13.1276339727    6.1231500293    1.8643365324
   8.6079675373    5.3590459020    2.9425602500
  -0.2660120140   12.2948472500    4.1144305057
  12.6039016722    9.7188690031    1.8618728057
  12.0922704873    4.8905884858    0.9751039691
   9.5661134361   15.7670132963   17.6853664256
   9.0650783247    5.0354963260    4.7496454472
   9.5879081481   17.8169863111   10.5812352810
   2.6775683547   15.2438139577    5.5126100592
  -0.0921055059   14.0682288617    3.5403116751
   9.3419531806    9.3583077862   10.8611538744
  14.9857853399    7.2680712399    6.6059369804
  -0.6202125096   12.8769749965    2.3663163875
  15.2878816689    7.6239452328    3.8093226838
   3.8872844794   14.0930677254    5.0945597639
  14.7986329254    5.6479993368    6.1496411165
   7.9350759306   18.8542291302   13.3883462507
  16.6211878807    6.4947835862    4.0379917246
  11.6183743439    7.6185762176    5.8734462278
  14.0419316636    8.6482901713    1.8122104565
   2.0685519391   13.7400342021    4.8188368155
  12.9020984652    8.7540169930    6.2298801944
  12.0437967394    6.5278547578    0.4062629731
   8.8274484174   12.8012530958   16.9684043583
  -1.0077590724    7.7817011748   14.0354346768
   9.1021515517   11.2024082631   18.6758216278
   8.1259204863   17.1592552520   14.2040636801
  10.0802634252   13.3994820916   18.1908482835
  14.8810787545    6.3903107280    1.9907198990
  10.5951120931   18.2598863026   14.8953962707
  16.0083189517    7.1162383807    1.0906331902
   7.6121626728   12.0614353696   19.2251525151
   1.8102111390    9.6520423652   16.9301246078
   0.8079025577   14.0432765338   16.1467865533
  10.2678193867   17.4103815276    5.6160957580
  10.9615737192    0.8940205840    5.9440424656
   5.2365296073   10.6086059405    8.5597372266
   4.5069664271   11.1384054798    4.6549834990
  11.1291849032    1.1637313627    7.5995143361
  -1.1324055125    9.6213597029    0.9462552461
  15.5292340185   10.8272306400   18.6970872098
  14.4592423606    4.7620118904   12.1774192884
  16.0327965007   13.1238448395    0.7587050905
  14.5603997963   12.8538616617   18.9057724214
  -2.0329306554   19.9330305446   11.8186559641
   3.0151452435    1.3900934020   12.8424719014
   0.0922607413   17.5731909497   13.1779720590
  -0.2376166026    0.8030192907    9.7908938220
   9.2674478639   18.5776566820   15.8823549502
   4.7399451459   11.5666792527    7.0687622685
  15.5964354108   12.9229460434   14.5902398429
   9.2418911313   18.0192687110    3.6384215539
   2.6051673540    9.9401059357    8.8025742254
   2.8587279518    9.1539694012   15.4679356610
   7.9057562188   18.4397041898    5.2366690426
   0.8249734633    7.3472555753    0.1242294273
   1.6925636177   13.4803313288   14.6815971548
  10.0789767901   11.1201652832    2.7151287536
   2.5094319532   11.1698237141    7.6335799503
  14.2660761665    0.5558332329   14.0970727857
   5.5145071304   10.2348936035    3.4483907993
   1.9625608590   12.3394084260   17.1600269498
   1.7554494058   17.9191565252   12.7212095461
   1.3642941597    1.2839352579    8.7975699891
   9.4731299995   16.1114597352    6.5078721938
  -1.6459867626   12.7800121859   16.2914756230
  16.0228484982    4.0028686605    0.4624153358
   3.4628285109   10.4767771692   16.7438775941
  15.3247635984   11.5696624746    1.1738905408
  12.5415862012    0.4733337210    6.5193092917
   4.5057782399    9.5738621968    4.9976772824
  10.2457525051    9.7151200418    1.6774026380
  15.7515582042    6.1998410817   19.1999415411
   7.0214521717    9.9961220600    7.2521623417
  13.2401791069    2.1682121812   14.2138432855
   0.1744767494    7.6379514463   17.8189451134
  10.6117065537   16.9356615788    3.5072342111
  -1.4111872783    8.1075623777   18.4356667579
  -0.1747245543   19.5397167696   13.7171085392
   0.5950298771    1.8429332214   12.8202545717
   0.7114422861   17.1806120599   11.4139803449
   0.2788607574    2.5562879541    9.5453833687
   1.3856126752    9.7472019549    0.6766634215
  -0.4061244070    3.9553099106    0.5326444406
   0.0209742565   11.6684110288   18.8175059150
   0.4599313528   11.6425674281   16.6096417788
  13.5483018115    1.2373299214   15.6942920716
   9.2206247685   16.6255137737    2.5321105988
   1.8329884740    9.3456745726    7.3335169735
   7.3231746373   17.2913633209    6.4808686583
   5.7644884236    8.8031917770    6.6876989083
   8.6662202343   10.6536234589    1.8561038772
  -1.6503496637   14.4251366126   15.3789796413
   5.0873637831    8.6909419970    1.3545361496
   8.5717381335   13.9453400428    7.1133662036
  12.7767331024   12.7673614599   14.0174389590
   3.3640235812    1.7383096672   16.8996695927
   1.3253835479    3.1771922884   18.7077763246
   0.6316841339    5.8927923619    6.2775551783
   4.5778005460    4.9972464178    0.8322904440
   0.2239316065    3.4196620907    4.9422393063
  10.9855196005   11.5017498851    5.8563921878
   5.4463102186   17.5008511440   10.0438897274
  16.6031320015    0.8293795675    1.9737795256
  11.3372769676   11.8143824649   16.3621405933
   3.3537709738   16.1689670764    0.4924179682
  12.1038998048   16.8850700059   16.1085479211
   5.3916605581    0.6036402191   10.0461351451
   3.0912495470   13.9195613394    2.3768471369
   7.5902996125   13.6102521526    1.5580863249
  12.8390362458   19.5892879436    4.7149212619
   5.4924024621   13.3520872307   18.6243864523
  -2.0038625587   15.9429818118   10.9400521275
   4.4719089676   18.6535226791    2.9132837167
   4.8815515777    0.9310723728    2.1860761591
  11.4689518428   16.0543367928   18.6663912701
   6.3226821743    2.4834259050    6.2677874341
  13.4577206585   18.5993660300   11.4707665969
  11.7613423014   14.6853943836   10.0344471701
   2.9838138792   15.1962072559   13.5618342769
   4.7160660229   17.5544711357   14.1402092773
   9.4272289504    3.1956886435   15.5113494351
   8.9776011705    3.1627504395   17.9372477938
  -0.0588114928   17.6359381304    7.9492802769
   9.6641984333   12.6559117598   11.1223105141
  12.9201648847   13.9563367737    4.5959660479
   1.9537538724   13.5077925963    9.5753660634
  -1.9650814394   12.4099242670    9.1952850614
  16.0340131915    9.4931638991    6.9656750556
  11.1133797765    2.4554005066   17.0642844600
   4.1089467247    5.5018595786    6.5759832609
  -0.8575603077   17.6719617803    4.4645532855
   9.0829314416    7.1124557823    3.9671816894
   7.6673669445    6.5139673517   15.3070482206
  15.8818848435   13.2848346293    3.4283779390
   2.5172032259   13.5650470196    6.7126071968
   9.0172678300    7.4377223915   11.5827588699
  13.3743534559    6.7939260139    5.4268028751
  -0.7645373268    8.2524136420    3.1780553857
   0.1121462503    6.1843799877   12.1491747410
   8.1801090980   14.4062651413   18.1994303826
  11.0329910247    6.2500781530    2.1078631901
  13.3636611643    9.4805521480    3.7432290297
   9.3659291518   17.6642103780   12.5526294983
  16.2621722340    4.9045074447   11.3208179134
  15.7784171362    6.9232211231   12.6141738437
  16.8874597736    5.5206657867    1.9238049138
   2.0196645271   11.0604409510   15.3961176489
   9.6540713273   20.0261384978   14.5573492089
   6.3047721486   10.3529916630    5.3604589656
   8.4667193118   18.7608469246    7.2296004481
  10.3055433132   11.6648867746    0.8561808715
   0.0252384108    9.7584899888   18.1591988337
   0.2563676979   19.0841123966   11.8080307951
   1.5771252940    1.5786944629   10.8333214438
  -0.6575984001   11.6248319979    0.5006097325
   9.0574948942   16.1608258809    4.5548812265
  -0.3012362394   12.9673633533   14.6972663954
   3.8648452134    9.6318966533    7.2822885374
