B2 C140 Ca1 F48 H298 O66 
1.0
1.7814754848411930e+01 -1.9892869834630622e-16 3.5387704273671557e-17 
-3.0946085472337188e+00 1.9374583773470633e+01 5.1947907765031028e-17 
-1.7776658990157121e-01 1.2490389266286808e+00 1.9578883700867749e+01 
B C Ca F H O 
2 140 1 48 298 66 
Cartesian
  10.5049483877    3.5811796876   16.7978193562
  -0.8608802976    6.3273944408   12.0944595994
   0.3736040314    1.6469320334    1.6245785787
   7.0306444550   13.7556623799    7.6254959959
   4.5421455994    6.6185562081    0.9263039748
  12.5797600934   12.5789098432   12.6510520850
   4.3619997530    2.8718271204   16.6641929226
   2.2148567725    1.8110191597   18.4041037470
   1.7800262671    2.4557110412    5.7862456925
   2.7461753654    1.1615536103   16.9904991859
  -0.1473008847    3.7848951129    6.0918752187
   2.9384246424    6.4304475694   19.2464256770
   2.2339710300   17.7129171206   18.3349786333
   0.9663290509    3.5024744094   17.3706388393
  12.0076308567   16.0905509841   14.8665213120
   5.4824930607    9.9297130700    0.9366167961
   5.8500589354   17.2343695176    9.5633242269
  12.0460658988   11.7208097762   16.2467076963
   9.6193435495   11.8476870964    6.9302101876
   9.3078675615   13.3592885768    6.7856153841
  12.7555541309   11.7113607209   14.9302230084
   3.9282300879    8.0369660873    0.8251215763
  12.1713423899    9.5050436891   17.0629949455
  12.0125241475   11.9096769693    6.6027298584
   0.0831708579    5.0733588175    6.9864472598
   0.4992904810    7.5381516142    6.8698196948
   4.8022661607   19.2472560280    9.7067405671
   2.0530854154   16.6119926099    1.1721763499
  15.9988725779    1.8006500605    2.6663446257
   7.1892674322    0.8554089599   10.5397458542
   1.4295778283   15.2497615955    1.4807795837
  13.1338720457   16.9185328125   16.7979012707
   5.5204067303    2.3749160413   10.5990007860
   6.8276006021   14.0907181329    2.9412806901
  14.8159266627    0.8537454103    3.1593896931
   5.7971437516   14.0570480007    0.8628358266
   5.7083344512   15.0851500676   18.9606557856
  14.8130155944   15.2405410059   12.1751040324
   1.8597368830   13.0248645070    1.9832410731
  12.9513299260   15.8994494303   17.8899054973
   5.9228747032   13.2693097500   17.4007533104
   4.8261710457   17.8409066393    3.9036592452
   7.2345678937    0.3149281933    2.5178822594
   6.4419781072    1.6828402028    2.5421153699
   4.2937137899    2.6259099592    2.1620451233
  14.8442895400   17.0105245281   10.5373149194
   6.8697228561    1.3471152070    7.0371577031
  12.2850766244   14.9366126939    8.7157984508
  13.4674215657   17.6489593857   10.3775240077
   3.6451389440   16.3562854398   12.1665856365
  12.9206351486   18.4870352326    4.3793608306
   7.9232869122    2.4159358841   18.3265046784
   8.1908439376    4.9824875875   19.2105738673
   8.4505505728    3.8516367161   18.0716332927
   4.0861312386   15.3437407123   14.3354319878
  11.9290918099   18.9233001280   11.6480867407
  10.1797331871   15.0695550844    9.9006713209
   9.7777266705    3.3847392757   13.2656357034
  12.0993284272   15.9557273147    0.0480558344
  11.8203021683   13.2993677407    3.3410654367
   9.5312453058   14.7154680322   11.3519315201
   5.4097761917    2.9254802369    6.0221951649
   1.3199571391   12.8426143419   10.9785103224
   3.9868893680   16.5775871635   15.1197054117
   0.2988956733   18.6330585793    8.7821649866
  10.6790992543    3.7214835149   14.3627452533
  11.6732303685    4.8710749635   14.0135033327
   5.3084234720    4.4023216543    5.6408571792
   4.6776499237   18.8514624412   15.1585625091
   8.5543226279   12.7128654339   10.9269122749
  -1.8344895874   13.3886577181    8.8574359643
  15.2628053567   11.1800502789    8.8597514096
  -0.5503137787   17.1250585158    6.9762469171
  -1.3988447447   10.4663237109    8.1041592156
   6.1275264653    6.6967107971   15.6783352158
  13.2204156808   15.0161200341    4.5117906096
  -1.5126890242   17.7198113033    6.0360673823
   2.8842826252   13.6242107824    9.4658746348
  16.0046842454   10.1234591426    5.7681105662
   3.8551157200    6.1772970422    5.3340335834
  12.0821502828    2.5754139174   18.3702345806
   2.1988392912    5.4707623855   13.5230054027
   9.0298645000   20.4006322277   18.7516181318
  14.4175161147   14.2766434682    5.0509004068
   7.3016301341    7.5309273169   16.3661882075
   2.9664463436   14.5446910130    8.1785239909
   7.5350014782    7.4420594146    4.1371299752
  -0.6577154202   17.8727815188    3.7909487860
   7.1397586953    9.0934556374   16.2437826890
   9.6849906481    7.6622968403    9.5311633750
   0.5587108245    7.6887275578    2.7616693472
  13.2806053463    3.4553060161   18.7760366033
   2.2498845170    6.2071336657   11.0245872285
   1.4239569777    5.6835197228   12.2046710661
  10.7991002013    5.9361872410    3.2021585362
   9.3279983587    6.0500988767    3.5849996895
   9.0583726076   15.6892606911   16.8967482781
   8.7927703633    8.3971194680   10.5424711775
  11.9141901926    9.4943464189    3.8270817519
   8.4014326957   18.0396643275   12.1194642914
  -1.4407833609   13.3767136902    3.9537144367
  13.5219106455    7.0535606997    6.0534248432
   7.3955926819    8.7416627016    9.9815460946
  12.3633158208   10.0723379159    1.4534416815
  12.2141476781    6.3080957000    1.2081259767
   2.8794469838   14.4836897796    5.7870195745
  12.7260809022    9.0249860957    4.9467764482
  16.2232304585    7.0924983637    3.0041507835
   7.9426399912   18.6725318343   14.2902498025
   9.7652224537   13.7465178888   18.2112846905
  15.0288168726    7.9867841219   14.6520830825
  16.1274586791    8.1046316225   13.5729715905
  15.5544149712    6.2701930847    1.9531361243
  15.0696540905    3.3669195242   11.0803258936
   9.1338655985   12.6971434221   19.2537482277
  15.2454249929    4.8590461878   11.1236546670
   8.6684026527   19.5220343338   15.3266988363
  14.6054786234    5.7251889332   10.0539609690
  16.0703936009    9.4538130116   12.6607433464
  11.5752578382    0.9977141177    7.2498273516
   2.4828780507   10.0994587043   15.7468441718
  -1.3404696237   10.2822237699    0.0197563164
   1.1319409470   13.5723690110   15.2277729208
  15.0772231271   12.1758130621    0.7855554064
   4.6301149887   10.6797444934    7.3408991412
   4.3421681180   11.1286785736    4.3636275418
   9.5297192649   17.7585181752    6.2534151273
   7.9720108804   18.2466016522    6.3389953601
   1.6657614844   12.2909084444   15.8197567810
  -0.7607468934   19.9515747618   13.1839532840
   0.9521406664    1.2162729828   12.6240431325
   1.0244972830   18.4040992845   12.8649959230
   2.0669030152    2.4593598936   10.8407539668
   8.9541479484   11.2347365791    2.1076041154
   2.8088158292    9.9987865506    8.5309217891
   5.5815242917   10.2451888079    6.0905569611
  13.9344930770    1.5758096580   14.7694235437
  -0.5395061174    8.8368187395   19.1110156668
  16.3033032489    4.5737060321    0.3789372274
  -1.2068596206   13.3209516970   15.4838577568
  -0.0593284836   11.2491493742   19.1873277458
   9.7654442529   16.8105069810    3.9898494835
   8.7965486156    6.8596802651   13.6868415356
   7.9902863966    1.9061598432   17.0093295566
   8.7599807579    6.1501090147   18.8243267601
   9.1041525932    4.5366393980   12.7108908782
   8.7147381523    1.6404314419   19.0809383065
   8.8156768987    3.4225120721    0.8060366057
   6.7084442291    2.3681987574   18.8235651939
   6.8526239103    5.2033559283   19.3729234727
   8.7841367959    2.6680163733   13.8602425734
  12.3478518653    4.5935719931   12.7979968829
  10.3697433198    2.8042496067   12.2967402967
  12.5937530069    5.0325656260   14.9996339020
   4.8890117005    7.1321912927   15.9748229563
   6.2803187494    5.3471366539   16.1317261698
  11.1102604404    6.1537152686   13.7057184560
   6.2173222403    6.5975708771   14.3053687767
   3.0039354446    4.3593485548   13.4314467787
   7.8997672627   20.0035728602   18.1609341693
   2.9041880349    6.5316867331   13.7916806332
  10.9636745622    7.8654208390    9.9559367959
   1.5925524641    5.8111281494    9.8989124999
   6.8463513018    9.4454788911   14.9654074521
   8.3373245637    9.7325609509   16.6073084061
   1.1860170843    5.4231304718   14.4471836711
   9.7250952984    8.1609637814    8.2498180463
   8.9898699469   18.8931004360    0.5078911518
  14.3381467371    3.3076773735   17.9355777017
  10.1029535050   19.7373566787   18.3783547692
   3.5530028164    5.9028195689   10.9225468190
   9.5066629359    6.2894043292    9.4071035227
   6.6087113020    8.8387345219   11.0937083182
  13.7447630721    1.8033556759    0.4711451541
  12.9312308780    4.7467620718   18.8260162769
   6.2249236418    9.5585339625   17.1024724910
   2.2613385621    7.5318896579   11.0052828903
   6.6943554671    7.7833951969    9.1853608754
  14.8524192224    9.1745663859   15.2033176941
   7.2670914340    9.9129160133    9.3650401066
  13.8177108514    2.9420946168   11.1554135022
  13.7444906284    7.8574891592   14.0658942679
  14.5696110730    5.1041430560    8.8649428341
  15.5753464423    2.9058663845    9.8418867472
  15.2415137802    6.9183619506   10.0517982488
  15.2907619532    7.0056556704   15.5249247509
  -0.9310998859    9.3213445138   11.5403221144
  15.7814296913    2.8186374870   12.0268093886
  -1.3708313927   10.5755217381   13.3363501557
  13.3397131832    6.0498222133   10.3568118538
  14.8382422965    9.6165114166   12.2904749388
   1.3102338269    1.2593914161   18.5818835370
  11.3662922931   12.5422749057   16.0841549540
   2.5930600179    2.5466482349    5.1200141162
   5.2691431140    6.5305990969    1.6962642990
   5.3222790505   16.5722918503    8.8882950264
   9.6395465332   11.6556079798    7.9739618486
   5.2358441453    6.4181915868    0.0528173798
   5.4133091307    3.1170055060   16.8105025186
  16.7841223192    3.8834199648    5.4637235207
   0.4979872766    2.6882212091    1.8840007331
   1.3715171194   18.4416506685   18.3003690661
   0.7191235133    1.4865457893    0.5914115936
   6.5597148186   14.1679110000    8.5992593711
   0.8356294010    4.5595674463   17.5140535372
   0.9233879071    1.1067309462    2.4256689354
  12.0402127543   11.8279862677   12.1188280375
  -0.3978009057   19.4695401310   17.2188707136
   6.6848852696   14.3840184632    6.7925661242
  12.9705457115   16.0788196575   14.3840643254
   6.0439142094   10.3008107282    1.7896138586
  13.6568662452   12.5175135979   12.5867770862
   2.0426154243    5.8491445694   19.3173433752
   2.8561888759    7.3566454911   18.6890222142
  11.5170712840    8.8425791945   17.6569105929
  11.9218230243   11.9150556090    7.6905671057
   1.2352414232    1.4775405066    5.8153231712
  -0.3305900598    2.9202645958    6.7857156420
  10.2254704998   13.9748468344    6.9553724765
   3.7705672745    3.1347994153   17.5748773062
   5.6284589442   19.6635873093    9.2296440528
  11.9017855148   15.1595044806   15.3495654009
  12.7994585391   10.6623008645   14.5389474709
   1.7763938417   16.6972354881   18.0808782609
   3.0016287353   18.0868869981   17.5989727487
  11.2235226900   16.3799434136   14.2204158548
   6.4796284880   17.9752288280    8.9625998112
   0.0112399198    2.9675312452   17.6826169252
   2.6532471208   16.8875886562    2.0274991784
   0.7722169254    8.2384554471    6.0999656823
  12.7649337739   11.9587232876   17.0078401323
   2.1597971954    2.7118302162    6.8021038408
   6.5385965473   16.5836546513   10.0962323951
   8.8019472357   11.2239353052    6.6053316118
   4.7784863054   10.6766561132    0.4695285023
   6.6739854755   12.7079970336    7.5176088151
   6.2135429985    9.5179229487    0.2059642712
   3.7234149057    5.7017661713   18.7649719574
  12.2875086084   13.5284586728   12.1084497707
   2.8354260341    1.6480022730   19.1969757185
   3.9651776035    3.4986742199   15.9117329985
   1.3462100875    3.0190805640   16.3509748293
   2.0548643812    1.5360764007   16.2922469411
  16.4633949813    2.1782419225    3.5544629649
  15.5993682437    2.6993120078    2.1360856913
  13.0714052469    9.9629712637   17.5128380723
   2.9087876642    7.8801738775    1.2250443050
   3.7936117441    9.6036825297   19.3313618774
   1.4211379903    7.2198184135    7.4798609884
   1.1667920268    4.8376933769    7.0833694493
   1.2864632772   17.4347539635    0.9759244293
  12.7871402811   11.3033571268    6.2264498942
   7.8755859405    1.5966646752   10.9525380531
  12.2830310736   12.8636986449    6.1599884628
  12.5417656506    8.8755701325   16.1893473474
   8.8134152366   13.4518280925    5.8031505367
  13.8215066661   12.0018690436   15.1034952386
   4.1813428986   18.8629266476    8.9501863532
   6.0306559175   14.7464746474    3.1427793032
  -0.4006100129    5.1278047339    8.0011878582
  -0.1957154476    7.9752418780    7.5213944505
   5.3713688499   15.0966201125    1.0563260104
   6.0406871729    3.0997256463   11.2091540491
   1.3416195366   14.7268152481    0.4506028949
  13.3122206997   17.8782678847   17.3918166803
  14.1406885921   16.7121545681   16.3440030123
   4.7647432888   15.6059421233   18.6256375187
  13.7392679240   15.2580201430   12.6312263661
   7.7187853274   14.4741816336    3.3620237657
   4.7925848706    2.8778821839    9.9600232960
   3.4842891177   19.6297563198   11.3313900931
   5.2786704027   12.3698173906   17.2880977324
  15.1501068131   14.1650821404   12.3247351302
  11.4826938751   19.3362331997    2.4718414479
  13.9710486504    1.6305980409    3.2666295470
   4.9895841111   17.6912409886    4.9630306441
   6.5310629442    1.4255595273    8.0697322974
   3.8338431105   19.2494486365    1.6205805322
   0.3943731537   15.2833114788    1.9508569123
   6.7709534174    2.3654773378    3.4057347012
   3.2199469374    2.5459662524    2.3672902924
  -2.1440626335   17.5413908690   11.1972675798
   0.8528214181   12.8488277626    2.2780749718
   2.2355355734   12.8123918961    1.0274445554
   6.6307434603   13.1163122448    3.5051077387
  12.7217157240   14.8929571292   17.5891189845
   4.8745013901    1.7309466678   11.3372234460
  13.9411181077   15.7153427067   18.3915727984
   6.9987897438   13.0663008848   17.2432901571
  12.2351013897   14.0491654421    8.1749138816
  12.6528826231   16.8153338157   10.3437149755
   5.0159648454   13.2686634778    1.2195471275
   2.9286130300   16.5176606820   11.2602138321
   5.7375663531   17.9690329132    3.3523391512
   4.5961673409   16.2955942484   11.7115847158
  13.2861625668   15.1219496301    8.9047108575
   4.5361389536    2.9570568353    1.1777927114
  -2.4124951655   15.8386576218   12.8051245507
   6.6010533665   15.6913231173   18.6991222652
   2.5297227446   12.3161842905    2.4959395794
   7.9867609736    1.0843726358    7.0044481927
   6.3524297766    0.5565158977    6.3296183298
   5.6922338927   14.0166774461   16.6850925475
   7.8421604179    4.2321479562   17.1976874950
  11.8618110813   20.0185068245   11.6515499668
   3.5266870163   14.5200270238   14.8989896377
   5.1267626337   14.9396620258   13.9901812195
   9.7685454674   14.3048669778    9.0964736960
   3.6462661073   17.2808047235   12.7901185406
   4.1906244080   16.9373709115    3.5552515918
   8.2408834289    0.3138098593    2.4380060745
  -2.5448876505   17.0084284604    9.5557985639
  13.9546524198   18.9547738339    4.0128835491
   6.7306379812    2.1195406369    1.6075548502
  12.6098341864   17.6298351210    3.7837040036
  13.0746009462   18.3138370542    5.4928267447
   4.5949013297    3.5125252351    2.8091887448
  11.9274039421   15.7365332750    7.9611102304
  13.4472178264   18.1882110689    9.4316628366
   9.9156201367   15.2801263256   12.2682227320
   0.4264829103   18.5306587649    9.9032604345
   1.8084246453   11.9178055924   10.6837523861
  12.5215246436   13.4114196514    2.4364631873
  10.7766724019   13.3750974926    3.0296236218
  11.1583426243   18.4229210501   11.0242678094
  11.6029490717   18.1155955402   19.0858265025
  11.3200915188   15.7604147835    0.7700238562
   1.7836698359   13.2748530510   11.9210349376
  11.6339570444   18.6055727452   12.7023922266
   0.2848768710   12.7369797642   11.2113086083
  12.0020285147   12.2750231595    3.7022926588
   4.9225830955    2.1842902793    5.4025248245
   9.8299681761   15.9627212103    9.3976593344
  15.3311743503   13.5437486667    7.9561100918
   8.7436681410   11.6309308030   10.7229250787
   4.6757209384    2.8740670986    6.8561131749
  13.0444131636   16.1800910078    0.5154726809
   5.9046898952    4.7301076434    4.7677949156
   5.8069490169    4.9085240157    6.4949454272
  14.3118610205   11.2927938029    8.2958705062
   5.4761583492   19.4317706479   14.8416173274
   0.0388804770   19.6997852420    8.5631345372
   1.2841828186   18.4731714632    8.2762241719
   8.4603992534   15.0818927841   11.2999936335
   4.3031119382   16.2522230829   16.1467099034
   2.8502400473   16.7691751343   15.3087306832
  -0.7753371885   13.3195528951    8.5150835102
  -0.7648658842   11.2592899730    7.6518646614
  11.2835344248    2.8171682412   14.4313654672
  13.6045320709   15.4546093462    3.4256072963
   4.8686250056   18.8648333172   16.2471847576
   8.2212071174   12.9882594343    9.8788824589
  15.6497361446   11.1370163556    5.6031167316
   3.6858985005   19.2220395823   14.9328472569
  -1.4063350567   18.7879633252    6.1617391829
  -2.4892393433   17.4949486930    6.5351776089
   7.6296400106   12.7613367630   11.6360458380
   3.1576759420   12.5771572316    9.1500268149
  -1.9601425744   14.2061931626    9.5381895090
  12.9897060926   15.9461055485    5.0235535805
   3.5867239146   14.0696647829   10.2393410763
   0.4551499835   17.3545785419    6.5648036043
  11.4032006856    3.0284342425   19.1202544107
  15.0362278350   10.4013757221    9.6274702861
  -0.8168950857   16.0038350554    6.9943295654
  15.4838897676    9.4922771887    5.1304951744
   4.4627652684    6.4876438186    4.4062614622
   7.3879649103    8.4555624800    4.2005661941
   4.3397575603    6.8061147157    6.1787104771
  -0.8480399174    9.8593160838    8.8697284212
  14.3169476231   13.6641625426    5.9962281970
   0.6366625416    7.1877858604    3.8603911952
  -0.7148405981   10.0699491491    5.6354217223
  -0.6451802124   17.1336545883    2.8778076086
   0.3981167559   17.8122957032    4.2246437122
   1.9393946782   15.0478699767    8.0224611999
   0.8969861799    6.8259749440    2.0708100656
  15.3097530065   14.8761621302    5.2130129743
   3.6428169976   15.4195888687    8.4412473769
  11.4355771033    6.5425570319    3.8040477722
   7.2664868713    7.3581834701   17.4065003286
   2.7817353396    6.5992762556    5.3913420669
   1.2972791609    8.5977495799    2.7611189410
   6.8270357482    6.9075594071    3.5459697467
   8.1475021305   16.2782603583   16.6430925665
  11.1129298125    4.8850838998    3.1429661175
   7.6261822780    7.0381911042    5.2034345949
   0.8618361487    4.7629927090   12.0448306978
   8.2711989959   19.0714566430   11.8702312764
  11.2929496480   10.3605773450    4.1763286949
   9.4282240652   15.0538203929   16.1273110440
  12.6105209315    7.0032741397    6.8992389761
  11.1176457721    8.7982867355    3.3344181960
   9.1820950685   17.6630601622   11.5084288112
  -0.8156099713   18.8826364319    3.3732430623
  11.8576221444   11.0278007241    1.4876828129
  13.0484744079    6.8962218466    1.5780692656
   8.5772596888    5.3019993572    3.0689357558
  -0.8805664694   13.3967344637    4.9133820300
  11.8916469078    9.2066118117    1.0319805989
  12.4526267131    5.2134445059    1.1617196856
   9.7752186387   16.4084026253   17.1795358423
   9.3124469912    5.6075339382    4.6516815704
   7.5626919543   17.4949770801   11.7154750859
   1.8499262182   14.5227795207    5.5880610218
  -1.1037652047   14.3223381100    3.4235894193
   9.3106778196    9.3473966272   10.5859561328
  14.3305181129    7.7310684564    6.4967666927
  -1.0362117308   12.4386917880    3.5406025791
  15.3982827893    7.5664032842    3.5658283773
   3.2980296524   15.5501816854    5.9204320993
  13.9662864055    6.0195465262    5.7729593486
   7.1787041466   19.2943012856   13.7027382172
  16.6576999961    6.5355975532    3.8099391908
  12.1051766095    9.1620667341    5.8581398634
  12.9536429119   10.3709797009    0.5787576592
   3.2883147578   13.8243561860    5.0169757234
  13.5538149182    9.6846503710    5.0733720041
  12.2200195445    6.6498780341    0.2013264706
   9.8046295239   13.1935387409   17.2669416552
  -0.7377282445    7.9156839189   14.2240575086
   9.3916397724   11.7189432122   19.1534616100
   7.3708130559   18.0590277414   14.9612249680
  10.7230603507   14.1919084283   18.5648201208
  14.6961891778    5.6813927836    2.3163566332
   9.3854815818   18.8561568054   15.8436478820
  15.0936609675    6.9663044814    1.2674355182
   8.0237758612   12.5991694474   19.1926007996
   1.8233221792   10.0504969613   16.7116319958
   1.2334873730   14.2244597545   16.1187929750
  10.1160246189   18.6231712250    5.8194627716
  11.1905190284    1.6781561577    6.4110662707
   5.3237509986   10.5770680704    8.1788048902
   3.7078196510   11.6376313201    5.1910107730
  11.2528572432    1.5654658490    8.1566882175
  16.0573137878    9.5659638572    0.7232781069
  15.6428289694   11.4562297185   18.7085662268
  14.6820479409    5.1984045831   12.0090679682
  15.1552053329   12.8257440547    1.6857885167
  14.4367589507   12.6991332504    0.0321267579
  -2.8265221069   19.9098543670   12.0647956289
   2.9144064765    1.4621017008   13.4143080297
   0.7551965582   17.4789973398   13.3556162203
   1.4480446452    2.3383299719    9.9639370777
   7.8865399949   19.9456987964   16.0174223629
   4.3979601938   11.7671838984    7.2847696425
  -2.0314510334   14.1212184822   15.3226251478
   9.1571522172   17.7141929179    3.7133942352
   3.5628767053   10.1085416290    9.2633927505
   2.4135352475    9.1028521456   15.2037990745
   7.6786108000   18.6073419461    5.3362056115
   0.4564439965    7.3138186963    0.1533622370
   1.7989879771   13.8875993394   14.4041937279
   9.7368611475   10.8858683852    2.8464152208
   2.0024991072   10.7805847625    8.5821903412
  11.3430443117   20.0615124651   14.3333722339
   4.3553941220   11.8943841192    3.6630401379
   2.7083669391   12.7162299472   16.0374367458
   1.4779752470   19.0323811766   13.6109001304
   2.9074027258    1.7708773947   11.0662271324
   9.9513574197   17.3569395025    7.2029063938
  -1.5434167847   12.2583329333   15.4230822012
  15.4280478660    3.8362145448    0.4330698724
   3.5376725758   10.3894220581   15.9891729224
  14.4202185729   11.5072031876    1.3352159268
  12.6597601432    0.9636919875    7.1045289510
   4.0251107167   10.1196668060    3.9570301327
   8.5730421903   10.2601059972    1.6975203514
  15.8542920062    6.3557174000   18.9947493265
   6.5750273289   10.1949882505    6.4360698392
  13.9963151112    2.5138830756   14.1368637654
  -0.8340684650    8.0754039856   18.3449352498
  10.7969974768   16.9402851850    3.7526530775
  -1.2117319071    7.8752064292    0.0996063913
  -0.9504045612   19.4523604512   14.2032360147
   0.3921659065    1.4744901183   13.5383126942
   1.6061869388   18.1527169475   12.0520677340
   2.5631886097    3.4924939784   10.9001710527
   0.7719843981   10.0912518375    0.5030648357
  17.1651865759    4.0477003003    0.1599304221
   0.2425202533   12.0689354400   18.5686019608
   1.0779190243   11.9751258531   16.5940868524
  14.1553548572    1.7297243197   15.7759191474
   9.5046831989   16.0009327426    3.3261031156
   2.2251490942    9.0918438287    8.6505598140
   7.4602567728   17.2668240054    6.3897693398
   5.2485956410    9.2608343290    5.7537504314
   8.1456762769   11.8520124105    2.5717216276
  -0.8461673165   13.3171268103   16.5273691359
   4.5539609387    9.0272501485    1.6200618016
   8.3647890985   13.9403760643    7.7790927380
  12.1559581855   12.6783019285   14.0191059688
   4.1135174603    1.4608557868   16.4467082779
   1.9773710573    3.1385648477   18.3267761458
  -0.0640874769    6.2549824167    6.2817986860
   3.4531847024    5.6521602849    0.9762844836
   0.9486929971    3.5134774264    5.3028920660
  10.7902381966   11.2707165631    6.1226396821
   5.0804646241   18.0166613230   10.4451931716
  16.8069513161    1.0562355642    1.8181526888
  11.2970999410   10.5314601575   16.6008522664
   2.9840960094   16.6173993579    0.0495843430
  12.2142771496   17.1787433797   15.8567253124
   6.2456617208    1.4524592693    9.7609842023
   2.3089895182   14.3262245151    2.3271847759
   7.0194038032   13.8666932211    1.4706669861
  11.8965114580   19.4820396404    4.4557845771
   5.7184067308   13.7271949531   18.7341399576
  14.8356347722   15.6303939172   10.8213578716
   3.9252290370   18.9191590647    3.7156419622
   5.0136648697    1.4474474803    2.5497755331
  11.8723783528   16.0876079082   18.7672364632
   6.7177706128    2.7056145730    6.4170811650
  13.2751391646   18.5329245305   11.4526108646
  11.5885374497   15.1500514060   10.0426753468
   3.2635397819   15.3622839404   13.0312289054
   4.7916040737   17.5253109346   14.6107482184
  10.0737371077    4.0550977198   15.5897207606
   9.8018479988    3.8113503333   17.9878483624
  -0.7345376621   17.7458042757    8.2621905785
   9.6003791419   13.3778234784   11.5776137069
  12.0650311608   14.1878371432    4.4266168320
   1.5820655577   13.7645338007    9.9276078545
  15.5519979755   12.3309948976    9.7228753168
  15.7903571281    9.6445471299    7.0989420746
  11.7208421994    2.9011669819   16.9785520476
   3.9006835327    4.7622331242    5.5304704787
  -1.7229200651   17.4313505573    4.6157071596
   8.7859954613    7.2664529952    3.4957069888
   8.3815433862    7.0058103047   15.7557501892
  14.8750204474   13.2782746507    4.0465663868
   3.1100135558   13.7638016074    6.9778436718
   8.7505684626    7.8197959704   11.8172815039
  13.0784306529    7.5508537989    4.8833757039
  -0.7251502120    8.1145558624    2.5646392785
   0.4274843758    6.6575275927   12.4300202869
   8.7334772243   14.7473324828   18.0051947700
  10.9769416069    6.5269844179    1.8514222802
  12.9160555691    9.6931781466    2.7099189292
   8.6144719244   17.8009922053   13.4856367560
  16.6531781481    5.1308304706   11.3596957988
  15.9825111435    6.9738257162   12.6969558704
  16.5645211941    5.3187831330    1.5337100999
   1.8066413271   11.0955126849   15.0367854289
  12.4841991103    1.2743429134   14.6154865715
   5.6450560051   11.0742373183    4.9857160696
   7.7447740610   19.1824390149    7.3818965408
   9.6067005115   11.8909631982    1.0294177295
  -0.0837030171   10.0647252832   18.4177984006
  -0.1017652498   19.1143397354   12.2436891092
   1.1632631430    2.5156401778   12.0889868176
  -1.4774575744   11.6643085144    0.4550481305
   9.5866564879   16.5610580958    5.4089172755
  -0.1343927819   13.6791640224   14.6276881346
   3.4688677983    9.8757503020    7.2572491017
