B2 C140 Ca1 F48 H298 O66 
1.0
1.7975507244853638e+01 1.2752246003010932e-16 -6.7942355666265950e-17 
-2.4346760677906696e+00 1.9500297577668395e+01 3.3040334601124394e-18 
-9.3108253370345351e-01 6.7562088690026778e-01 1.9403698668343093e+01 
B C Ca F H O 
2 140 1 48 298 66 
Cartesian
   9.8917560652    2.7934277528   16.8536893320
  -1.2126536612    6.0031347092   11.9589673502
   0.1423650473    0.6521348620    1.8126296305
   7.2890263370   13.9713527111    6.6681992988
   5.1651497892    6.2074406298    1.2970986870
  12.4172016044   12.5898886277   12.5755942600
   3.6971898657    2.2482453375   15.6111669454
   1.7395540806    1.7161653429   18.4364412114
   1.4360513929    2.6726301721    5.3401826509
   2.1475410572    1.3212181706   17.0363275269
  -0.6127158146    3.7772427155    5.9868645367
   3.3563965201    5.7982724984   18.7822888048
   1.9368851792   16.0551716527   18.8087487963
   0.3766921318    3.5795307725   17.8802170850
  12.0637587018   15.6614411860   15.2817160179
   4.5262603736    9.7922548789    0.7185598552
   6.5511701524   17.1943024465    9.0455087560
  12.8002673318   11.7204279920   16.0621055044
   9.6392164420   11.7366127081    6.2582518718
   9.6230434696   13.3422216287    6.1851710838
  13.1786964151   11.4868523818   14.6406996782
   4.3012359771    7.5471953002    1.4521309772
  10.9841928732   10.4589382603   16.6459447131
  12.0614988765   11.4984439972    6.8645519139
   0.0161416869    4.7839869304    6.9496623076
   0.3415273144    7.1934345600    6.6836743311
   4.8723680942   18.7065742743    9.6575319938
   2.6596906181   16.2821818913    1.6681965971
  16.4281765231    1.6559094018    3.1178396667
   3.8552993253   19.1115689676   10.6972693272
   2.1138802504   14.8892390355    2.1709692990
  13.2918345419   16.6200635204   16.9860892484
   5.3176450454    1.7733935999   10.8525717797
   7.7594514678   13.7283161812    3.0198154576
  15.1080405423    1.1690044888    3.8176848751
   6.4890043426   14.2972732887    0.9934123145
   5.5526990557   14.6252238938   18.8793548621
  -1.9112336687   15.4462542190   12.2387399374
   2.7125651401   12.5714439882    2.4501984237
  12.8451974863   15.6249627188   18.0817734451
   5.6286919531   13.0293331096   17.2116820211
   5.5338904070   17.9316432643    3.5151579438
   7.1951450911    0.4496732122    2.4475627671
   6.0870008096    1.3832521444    2.8329779906
   3.7286606933    1.7344857988    2.3703427226
  -2.3012492457   17.2705512596   10.7474447368
   6.3292048659    1.0040415561    6.1977783409
  12.3227143625   15.1677160912    8.7765386162
  14.1626036459   17.4473738392   10.6266969240
   3.5744957931   15.4636107321   12.3252284674
  13.1628172747   18.2402107622    4.2257791512
   6.8119632646    2.2125692743   18.2438714709
   7.6497739073    4.5694925732   19.1688021413
   7.7255322668    3.4617039294   18.0708712048
   3.9792754179   15.2848202023   14.6068514339
  12.2171952667   18.1923102994   11.8194285803
  10.4003066062   14.7687980916   10.0626339323
   9.1991014016    2.7577062440   13.1754449426
  12.5464779989   15.9583413016    0.5036453335
  12.8208467940   13.0675359212    3.4245466975
   9.5240421544   13.9890740625   11.1104687116
   5.0919242200    3.2224753269    6.6229082825
   1.9201591207   12.6683334236   10.7529272769
   4.0783479331   16.6966851487   15.0601177672
   1.1537104675   18.6020839166    8.1718234229
  10.2422654813    2.9132037874   14.3415123399
  11.2092338291    4.0895583106   13.9889048193
   5.3778831051    4.7983004265    6.4754647025
   4.8837256552   18.9172615605   14.3482149388
   9.3547584233   11.8314437685   10.0236601380
  -1.0546403404   13.3232663375    8.5107779580
  15.4495420064   11.3467170580    8.4134502235
   0.0141267556   17.0621947851    6.6213625672
  -1.4376860914   10.3919239659    7.9263434164
   5.3782245491    6.6091756399   15.8130156083
  14.1580044813   14.7435755750    4.4056611700
  -1.0054059936   17.7622107002    5.8212425099
   3.3643830748   13.4825640824    9.1429834750
  15.8051026217   10.0609363699    5.6071441754
   3.9340447496    6.3462215923    5.4266826346
  11.7244513183    2.1247305167   18.2985319471
   1.9095460882    4.9840882662   13.2975393309
   9.5317477558   20.1276529395   18.4560578131
  15.5397672048   14.0589109902    4.5637934071
   6.8765930422    7.2071388082   16.0761656556
   3.5187870847   14.1711614267    7.7233968585
   7.6955596080    7.5074196956    4.3585384003
   0.3109187644   18.2291699692    3.6710558005
   6.9433196953    8.7668230992   15.7254754672
   9.8461340293    7.6838135593    9.4899457972
   0.6291322417    8.0280169586    3.0001356174
  12.9466396972    2.9594990136   18.7377104119
   1.9861098484    5.6137822372   10.7549730831
   1.1542246357    5.2163955388   11.9775606343
  10.7930799891    5.4632550804    3.2820061438
   9.3388155148    5.7127657839    3.7539405713
   8.6892293836   15.4144393206   17.4369969322
   8.9765372924    8.2846202141   10.5808708048
  12.3703464215    8.5297953031    4.0750611275
   9.0265864616   18.3162788878   11.3707408309
  -0.6493724712   13.0592781268    3.3149889294
  14.3182014365    6.4314084421    6.4857863744
   7.5429332682    8.5516572703   10.1304589744
  13.5512752405    9.5556888599    2.3644117769
  12.1912124654    5.8998797112    1.3653618182
   2.8679746417   14.1200565050    5.5678504830
  12.5817441545    7.9327189185    5.4858233320
  16.2747664983    7.2540582152    3.3462803551
   8.6981559369   17.9161348226   13.7265263615
   9.1142779783   13.1976468866   17.9417333732
  15.0563822517    7.9535268927   14.5876109144
  16.1166608055    7.9323083259   13.4378711955
  16.0109251662    6.5423335467    2.0249342992
  14.9872275820    2.9243020098   11.0696885517
   8.6997107503   12.0582157582   19.0055545409
  14.9680560421    4.5050187699   11.2169856225
   9.6783841200   18.6161463106   14.7667321748
  14.4217102465    5.2904506161    9.9935205904
  16.0587636275    9.3617271171   12.5983223372
  11.5434333415    0.4622515964    6.7797652117
   2.7007509343    9.9558413508   16.1270092604
  -0.7169924028   10.1781194699    0.1304115776
   1.0591569284   13.1394360504   15.3898778512
  16.0099108733   12.1101635820    0.4753821380
   4.9488247995   10.5341693307    7.4175356321
   5.1897651699   10.2655701810    4.4958516100
   9.4749549016   16.8742469069    5.8243884881
   8.2658302906   17.8138287068    6.0488158502
   1.5151968043   11.9588952716   16.2788841704
   2.3622547365    0.5256154880   12.6877237351
   1.1569598609    1.0907702003   12.0441174134
   0.7804199876   17.8135070847   12.3179394949
   0.6992249263    1.4936007057    9.6836123689
   9.8109922617   10.6762171109    1.7867195645
   2.6436312899    9.9895168155    7.6888419484
   6.0735460023    9.8244352073    6.7244447177
  13.4734027539    1.0652211593   14.6425361351
  -0.2009634172    8.3138018370   18.4382806878
  16.7883134461    4.7957008148    0.6348348311
  -1.5275960086   13.2311625619   15.2425741652
  -0.1819910285   10.5700930948   19.1365589416
   9.5835752616   16.9345787862    3.4672828279
   8.6699683892    6.3475610267   13.2110247692
   6.4496778640    1.4978229067   17.1136499155
   8.6048087017    5.4363810175   19.0236531042
   8.9013401226    3.9640668761   12.4552286884
   7.4775546062    1.2688051845   19.0547585997
   8.7769233985    3.3824636384    0.9935940983
   5.6808766760    2.6599644598   18.8348268676
   6.4136515336    5.1229340102   19.1879479905
   8.0032108818    2.2030000398   13.4795345456
  11.7568492075    4.0691839678   12.6730276262
   9.7414208991    1.9755787068   12.1872656051
  12.1364703514    4.0897462526   14.8840626203
   4.3026562338    7.3585632893   16.3767359309
   5.2302149050    5.2928512866   16.1003524967
  10.5588001860    5.2822584178   14.1352590893
   5.1532033219    6.6618553252   14.4352809422
   2.7474483022    3.9342318478   13.3573613458
   8.4108286629   19.4988073939   18.0806044160
   2.7811716947    5.9956667024   13.6431359783
  11.1148866622    7.7288258517   10.0146551067
   1.1661727992    5.3480674791    9.7214116217
   7.2386047757    9.1551933489   14.4682971642
   8.0081319946    9.1947341569   16.5052942083
   0.9572167698    4.7576016164   14.2203418827
   9.9798443608    8.2611688733    8.2433577448
  10.6357521031   19.2730831341    0.3852183795
  14.0325650147    2.9355859494   17.9709541545
  10.4780062707   19.5670925709   17.6933413676
   3.0737849383    4.8745289076   10.4560045002
   9.4641028103    6.4262578694    9.3014962247
   6.8530715125    9.0578730004   11.1685586222
  14.1718227720    2.0168120373    0.6426959373
  12.4558149431    4.2607698453   18.7629540527
   5.8932999042    9.5727241136   16.1712385217
   2.3392904072    6.9326653019   10.7245353892
   6.8229257193    7.5808616379    9.5775840761
  15.4204635770    8.9899195765   15.3976273977
   7.6008994121    9.5582135386    9.1489090621
  13.7701274117    2.4574597110   10.8301252755
  13.7745857027    8.1139873197   14.1983323294
  14.9075973062    4.7013822255    8.8955252321
  15.7694636370    2.5075192093    9.9681038944
  14.6736327700    6.6041852282    9.9240430873
  15.0451648569    6.8024913668   15.2956525395
  -1.4760463238    9.0764351516   11.3762169613
  15.4378425257    2.3628388669   12.2994543171
  -1.1438419581   10.2688930518   13.1340834064
  12.9922048249    5.2112480401   10.0195849201
  14.7277113722    9.8947623779   12.4978706256
   0.9003777939    1.0397928789   18.8448894889
  13.2184126594   12.7809498598   16.1364935670
   1.7375895414    2.1079111216    4.4981591926
   5.6752357350    6.0031717155    2.2099622659
   6.1028136279   16.5180032127    8.3209490432
   9.5566779437   11.4577162556    7.3175589395
   6.0837937877    6.4589799772    0.6552342390
   4.5572625044    2.9287711543   15.6973923377
  16.4388611849    4.1705069117    5.5942694983
   0.5109074664    1.6070197645    1.3045023697
   0.8488423306   15.8172556073   18.6099017708
  -2.1269240324   19.3810265326    1.0845312948
   6.7050367385   14.7733936496    7.1035814928
  -0.3965729711    2.8656772121   17.3706762403
   0.8332289938    0.6275742725    2.6827112815
  11.4756230641   12.1551355251   12.6634672410
  -0.3765963586   19.7393222895   16.8333245880
   7.2630656595   14.0016750141    5.5769891021
  12.9670103842   15.4656774654   14.5830922037
   5.2809580773   10.4966562318    0.5685437531
  13.2035945789   11.9248094335   12.0847696085
   3.4691443742    4.7746440023   18.3614813278
   2.3263161895    6.1553618181   18.6035722245
  11.0957863053   10.2179963987   17.7474655963
  11.7793839850   10.6192692510    7.5587036387
   1.2094680422    2.0389717906    6.2250149128
  17.0336563379    2.8747538413    6.4710955064
  10.5302855475   13.7807077365    6.5688100947
   2.7704153954    2.7577490128   15.4081986367
   5.5678312782   19.4838968247    9.7446195161
  11.9500066535   14.7903131592   15.9842975256
  12.5463462432   10.8699759313   14.0633892216
   2.2814477140   14.9844923395   18.8315383550
   2.2949450869   16.4840616673   17.8648281487
  11.0735178910   15.8022620817   14.6608698862
   7.0067934668   17.9741028615    8.5311874853
   0.6946252034    4.1453651757   17.0213635099
   3.1695260895   16.9367655407    2.3088388935
  -0.7119256730    7.1714314125    7.0815353841
  13.4203026934   11.0730642856   16.7180164939
   2.1774012585    3.4945942311    5.7521359579
   7.2514699939   16.4157213405    9.4665636782
   8.9598893682   11.2322461478    5.7071865573
   3.7759707820   10.2762568195    1.3772320031
   6.7386589166   13.0893286403    6.8868470988
   3.0592985329   10.1239744994   19.1271186472
   4.1086723919    6.3451194155   18.1637717892
  12.6032422423   13.6476197413   12.1956750226
   2.5488097197    1.5136868347   19.0643234666
   3.8911830527    1.5685588055   14.8434983985
  -0.2340494224    4.1637154532   18.4162966282
   1.5279325799    2.0737300885   16.4077401222
  17.2024990193    1.4319074988    3.8489476519
  16.3394690848    2.7314318486    2.9592293327
  11.5507423855    9.7245533098   16.0964955892
   3.8116650997    7.4313915166    2.4495235891
   3.4588788434    7.5118993852    0.7328575422
   0.5075995757    7.7834269912    5.6879669479
   0.7767263177    4.1683797054    7.5099543024
   1.5880068951   16.7089708827    1.6036045962
  13.0263596678   11.2261244414    6.3464265420
   4.3070431670   19.5386549790   11.6469380647
  12.2332475972   12.3987562778    7.4280533350
   9.8863631771   10.3999138249   16.4082628786
   9.4884088996   13.7782578538    5.1068660891
  14.2361636579   11.1792804893   14.5607636000
   4.4291426679   18.7761930141    8.6529705389
   7.2276057809   14.7254867304    3.4684662946
  -0.7347240300    5.0550546093    7.7802493985
   0.9624238872    7.7004404923    7.5375398045
   6.6157491368   15.4901591391    1.0396319897
   6.3038423243    2.2678040024   10.7737683872
   1.4065991802   14.5485850069    1.4296411244
  13.5190564091   17.6521693614   17.3212767738
  14.3100763346   16.4279613387   16.4765376842
   4.7115809778   15.1041658996   18.3871147737
  15.0840603752   15.4606522584   12.5851830072
   8.8135432154   13.7564603517    3.2603305212
   4.6103851085    2.4583998648   10.4736397870
   3.2103881780   18.2716588699   10.9301295262
   5.5425636985   11.9627780569   17.1663283994
  -1.5473377596   14.3986774951   12.2033706317
  14.2685525851    1.2426928187    3.1632744796
  14.9567958562    2.0079018111    4.5200327358
   5.0692015259   16.9530659053    3.7900243604
   6.8549678066    0.4672726071    7.0194200468
   7.3461086456    0.4216189457    1.3477713827
   1.5607809806   15.0702854021    3.1602066008
   6.0802588065    1.4852043460    3.8753685166
   2.9877933425    1.3347111434    1.7872179706
  -1.8887700459   18.0096887479   11.6021398661
   2.0324823493   12.3964183874    3.2822540157
   2.2117440840   12.1670673094    1.6785816158
   7.1577922999   12.9659762927    3.4380662189
  12.6523001750   14.5590505106   17.7088189368
   4.9749376094    1.5417354111   11.8717944004
  13.6822051388   15.5365776474   18.7849112752
   6.6068790864   13.3464342196   16.7562677417
  12.0739774944   14.5328555409    7.7890295824
  13.7065748871   16.5124599228   10.8932459269
   5.5877588435   14.0984769419    1.6880594331
   2.8481660098   15.8939631364   11.5802627145
   5.9923608471   18.4308541940    4.4122197500
   4.0532945461   14.5301929561   11.7720474930
  13.3780150253   15.1901668095    8.8639410999
   3.9313276072    2.8029246107    2.2243978346
  -1.4028224909   16.1672081688   12.9606796016
   6.4464376550   15.1263354590   18.4388156508
   3.5372877674   12.0278826089    2.7455440843
   6.7589049357    0.7916901745    5.2233041142
   5.2812671217    0.6485341561    6.1125688234
   4.7146050507   13.5737169830   16.7312026524
   7.3149512149    3.9330283540   17.1214675749
  11.8973532573   18.8778274271   12.6559969918
   3.6462671695   14.7195423913   15.5541485789
   4.8053671414   14.6978092488   14.2434181688
   9.9019699450   14.3997044643    9.2711349049
   4.5240083774   16.1387022646   12.2550728696
   6.3270150116   17.5491393619    2.9032216590
   8.1495966268    0.9049609131    2.8411065127
  -1.5394111308   17.7036649967    9.9703008667
  14.1839425763   17.9907567408    4.3035987196
   6.4361386766    2.4269607068    2.4841831765
  12.7651098476   18.2274659994    3.1638803394
  12.6543145133   17.4001493931    4.7743520569
   3.5042491756    1.6356935016    3.4087472495
  11.6878427781   16.0746582940    8.7412523486
  13.9372414501   17.6326026644    9.5589821774
   9.5671405418   14.3361824370   12.2075413008
   1.4416966137   18.5426568140    9.2086911950
   2.8295327530   12.2112488021   11.1801732067
  11.9592865452   12.3512007887    3.6124051378
  13.6914164675   12.3990402287    3.2243523468
  11.5448766902   18.4116297829   11.0743649433
  12.0036191397   16.8931842194    0.4925892331
  12.1526870654   15.2079287064    1.2117666518
   1.4165549440   13.2671042991   11.5338509572
  12.0594440485   17.1753911985   12.1411723783
   1.2920470576   11.7835875117   10.4706676515
  12.7203097560   13.6136239484    2.5370642824
   4.2597978684    2.8913997956    6.0642371707
  10.0424833954   15.8339360626   10.0951387070
  -1.6580846457   13.7841463110    7.6758196798
  10.1448139027   11.0530645624    9.7136659883
   4.9103478088    3.0902267430    7.7666221092
  13.5733447962   16.3877473251    0.6323632221
   5.8959186458    4.9599486084    5.5570505376
   5.9543063610    5.0470871279    7.3915241117
  14.8653246146   11.6467105286    7.5683873327
   4.8815705304   19.4234095810   13.3798515543
   0.6046454450   19.6050189116    8.0633224834
   1.9220060278   18.3422011204    7.4252897999
   8.4457003910   14.3134461921   10.8132698843
   4.6715422712   16.7954744518   16.0420496183
   2.9908665572   16.8916487899   15.1412823556
  -0.1275271555   12.8357266301    8.0439850813
  -0.5279751269   11.0426205862    7.5819785710
  10.6628003662    1.9275335557   14.3088590859
  14.1095613972   15.4332165725    3.4917681622
   5.7252548029   19.0652074799   14.9879137257
   9.0978706106   12.4515922482    9.0752474082
  15.3964069324   11.0840103900    5.7598448724
   3.9369665674   19.2211031363   14.7660860182
  -0.9094800633   18.8277033913    6.1998865770
  -2.0231070438   17.2912062443    6.1428689323
   8.5315878529   11.2935711440   10.2973348661
   3.7149537757   12.4447464768    8.9571829923
  -0.7597003664   14.1785579056    9.1779468738
  14.1213879305   15.5092462077    5.1689217915
   4.1540544870   13.8434736876    9.8642890609
   1.0466671548   17.2393021971    6.1484671266
  10.8763668631    2.2923422516   18.9537807910
  14.7783255281   10.7649562110    9.0666844368
  -0.0023810627   16.0401356642    6.7966038834
  15.1186327641    9.3808849271    5.1923821154
   3.3782053776    5.7118067026    4.6621485286
   7.7426880591    8.5870310429    4.7410811300
   4.9395638560    6.6042271259    4.9885719587
  -1.1010827409    9.8425286203    8.8256392333
  15.5258066211   13.5385721685    5.5109609311
   1.1544533305    7.3693399149    3.6337839359
  -1.2969703956   10.1184585528    4.8810310052
  -0.0536726703   18.2195392557    2.6816120309
   1.2591650110   17.8303101923    3.7708960783
   3.3220675299   15.1554526398    7.6526677402
   0.9424528611    7.7183806795    1.9592317375
  -1.7553609912   14.9796748667    4.6342543444
   4.5925335584   14.0245876761    7.3506713568
  11.5078996704    5.6196460555    4.1373799691
   7.1776876561    6.9803517351   17.0332786577
   3.4952380215    7.3327111582    5.7377101213
   0.9324618234    9.0426760076    3.1196270924
   6.9544376545    7.4305044289    3.5315520082
   7.8921013101   16.2209070384   17.4986106244
  10.8562783072    4.3325260999    3.0985538698
   7.3392600767    6.9521083465    5.2153748982
   0.8061337714    4.2000025892   11.7591218916
   8.0116944360   17.9740405811   11.1120990181
  11.3273422593    8.9753566849    4.3300305433
   8.5660850424   15.3128237267   16.3237188067
  13.6805921245    6.0661136955    7.2684633256
  12.3264731092    7.7275746884    3.3575455797
   9.1927715530   19.3817111313   11.3632356038
   0.4007182516   19.2626709171    4.0225007048
  14.0082376476   10.5315362396    2.0797830341
  13.1679463103    6.0330213024    1.8932956681
   8.6020860180    5.4031625022    3.0033863586
  -0.2333224401   12.2884927661    4.0199247220
  12.5049031108    9.6297271581    1.8201423825
  12.2048741342    4.8056148259    1.0280896589
   9.7057702892   15.8308913021   17.6618790223
   9.1097635340    5.0725568738    4.5319349988
   9.7471203457   17.9928772466   10.6080588828
   2.5527101567   15.2222713945    5.4593379443
  -0.0825792811   13.9019512410    3.5333817630
   9.3666744533    9.2714023577   10.8615318765
  14.9381070882    7.4157662499    6.7573217842
  -0.3373288575   12.7291092464    2.2162361554
  15.3313125155    7.7794067167    3.7714633974
   3.9070523746   14.0741175852    5.2028299500
  14.8608290814    5.5490669481    6.0921071115
   8.0545383192   18.7259204640   13.4472805133
  16.6473390221    6.4364299853    3.9564455992
  11.5923785695    7.6817798762    5.9604862246
  13.9556550786    8.6590281002    1.8883636810
   2.1210553983   13.7212890290    4.8063882368
  13.0297914678    8.7274168687    6.1121807805
  12.0568642606    6.3735909954    0.4281283009
   8.9703350349   12.7168353701   16.9170844812
  -0.9618350308    7.7949179988   14.0425648760
   9.1192541992   11.0436308231   18.5746607666
   8.2134884945   16.9830913264   14.1669032317
  10.2176317433   13.3244883936   18.0957259247
  14.8303192697    6.2019087035    1.9347769716
  10.6421036433   18.1472831485   14.6355318443
  16.1465143673    7.1354090196    1.0606246308
   7.5749413367   11.9758325581   19.0967706879
   1.9476567166    9.4246285401   16.7287943356
   0.8984817935   14.0000453019   16.0848664208
  10.4357647470   17.4998687428    5.5703111268
  11.0977059067    0.7988479862    5.8405087292
   5.1598017581   10.6613528124    8.5049469676
   4.5451932389   11.2418032508    4.4989395307
  11.3480691171    1.1336741264    7.6101252144
  -1.0679236952    9.5487170711    0.9629478911
  15.6762004388   10.8012106833   18.7109679957
  14.3809436419    4.6496930709   12.1297438422
  16.0764838230   13.1955054197    0.8420692990
  14.6792173466   12.8691562754   18.8516304200
  -1.9902050846   19.6682065013   11.8251048740
   3.1465996450    1.3430613580   12.6973583784
   0.1998831429   17.3887314052   13.2000720332
  -0.0872991120    0.7856761698    9.8465190221
   9.2873434686   18.3331970811   15.8209637479
   4.7683188163   11.5424019893    6.9881222792
  -2.2003852620   12.8189280774   14.4567682141
   9.0889173736   17.9151174361    3.6009108961
   2.5308366918    9.7956798453    8.7795081856
   2.8458057195    9.1793148015   15.4204195714
   7.8870539921   18.4026118914    5.1826589589
   1.0304857957    7.4352774867    0.0408260628
   1.8354394411   13.3785485157   14.6430821982
  10.3003332951   10.9757653642    2.8518145332
   2.5611804257   11.0622134872    7.5278553620
  11.6623899469   19.9209939439   14.1447931709
   5.4042978606    9.8873287154    3.4636555732
   2.0907197462   12.1328755674   17.1940590356
   1.8303500529   17.7376249778   12.6964929309
   1.2606821650    1.1801629019    8.8418756454
   9.6511883898   16.0771842474    6.4761270077
  -1.7022074853   12.8302817048   16.2569620900
  15.9829734988    4.0147798936    0.4646134889
   3.4830595577   10.3599778756   16.7167590799
  15.3293516151   11.5955670519    1.1639562636
  12.6379343480    0.4306482974    6.5987637677
   4.6863181988    9.3586081246    4.9926112151
  10.1464927511    9.6319834224    1.7219123010
  15.9327354887    6.1518250810   19.1850512256
   7.0406587047    9.8962678813    7.1871142949
  13.3771311376    2.0566579158   14.2094650492
   0.2195294340    7.6464167593   17.6459508274
  10.7032239423   17.0138751658    3.6143563698
  -1.2881259415    8.0063048093   18.3649443365
  -0.0553168253   19.5400229863   13.7125411435
   0.6047843321    1.9035204238   12.6074455568
   0.8052620514   17.1301306315   11.5541435358
   0.2075272850    2.4545974802    9.4745307596
   1.3660242181    9.7086728195    0.5950911091
  -0.4411121321    3.8771950811    0.6761915595
   0.0940996596   11.5650839950   18.8101076177
   0.5887682327   11.4004738872   16.6413225946
  13.6201499411    1.3570517781   15.8015134344
   9.1875621531   16.4055574063    2.5207922863
   1.9248707416    9.4357203628    7.0918052545
   7.4243659050   17.3347390488    6.4519380054
   5.7372439000    8.7897741160    6.7042030391
   8.7071885224   10.6134707351    1.8570107641
  -1.5818445156   14.3230443414   15.4340194085
   5.0997719673    8.7148738085    1.3563872338
   8.6644305956   13.9461921804    7.0998632784
  12.8786351096   12.7742517396   13.9213980984
   3.5187980354    1.6979485449   16.8017360270
   1.3550638353    3.0894625190   18.6699198482
   0.6019546350    5.9066326653    6.2365120262
   4.5819573773    4.9924967689    0.7848045997
   0.2208679351    3.3404913934    4.9399994527
  11.0473481440   11.4526338056    5.8323363673
   5.4623360633   17.4629626603    9.9858630128
  16.6358973189    0.8118204297    2.0069013095
  11.4568331324   11.7874690427   16.3616388943
   3.3568461290   16.1236245883    0.4298613815
  12.1915021721   16.7997189849   16.0502777542
   5.4291748780    0.6048254946   10.0648606682
   3.1461872059   13.9626085756    2.3755240215
   7.5632915036   13.6008661900    1.5658806732
  12.9076512617   19.5621917678    4.7233290369
   5.6043718162   13.2341928116   18.6403106813
  -1.9618862444   15.8976722430   10.9535304249
   4.4911995167   18.6329524555    2.9269651181
   4.9110755697    0.9559152975    2.2032399721
  11.6012271596   15.9749140823   18.6579426822
   6.3247086438    2.4315679647    6.2799488260
  13.5385547755   18.5396308207   11.4534689222
  11.7930902856   14.5989430833    9.9915384541
   3.1013855376   15.1927525319   13.5871426224
   4.8513728357   17.4717056686   14.0763234805
   9.5712991945    3.1529499048   15.5169197622
   9.0260194842    3.0881913753   17.8848319438
   0.0456680839   17.6197439591    7.9567547686
   9.8086533294   12.6374663769   11.0899351706
  12.9964056470   13.9270157005    4.5989206496
   2.0407099779   13.4693097087    9.5813977913
  -1.9366187318   12.3730687698    9.1572107874
  16.1028683873    9.4487543904    6.9515021145
  11.2050420052    2.3681439599   16.9716154131
   4.1009211162    5.5049312098    6.5444470835
  -0.8163490536   17.6932255312    4.4961135268
   9.1069115126    7.0870000202    3.9873054240
   7.7269772755    6.4486236557   15.2433744782
  15.9690025216   13.2662418037    3.4240379794
   2.5518155265   13.5146464109    6.7202691819
   9.1200846857    7.4007156642   11.5891170017
  13.4104731040    6.7704837465    5.4100443319
  -0.7841361958    8.2197218776    3.1667778773
   0.1467642278    6.1380307755   12.1393017606
   8.3219002171   14.2609619063   18.1958845591
  11.0908801302    6.1693184154    2.0785500569
  13.4161024654    9.4090318711    3.6727176825
   9.4372994906   17.6268004608   12.5571087719
  16.3611157710    4.8328037958   11.2656462342
  15.8503324257    6.8693251130   12.5802880063
  16.9764600342    5.4429934578    1.8569306250
   2.0781841255   11.0025442047   15.3726541670
  12.1571217612    0.5214652013   14.5158833195
   6.3341883748   10.3381883096    5.3328332898
   8.5829911449   18.6788148999    7.2097576984
  10.3708831691   11.6009148445    0.8685184846
   0.0951085591    9.6472726840   18.1304541915
   0.3364772136   19.0044400019   11.7287669840
   1.6113066549    1.5521687271   10.7641099321
  -0.6442859914   11.6297584072    0.5465874726
   9.0750796109   16.2026897629    4.5517655672
  -0.2069346268   12.9097110087   14.7536307746
   3.9110766877    9.5920721400    7.2311656619
