B2 C140 Ca1 F48 H298 O66 
1.0
1.7830279393706828e+01 -1.1025158997571775e-15 4.4081068967902492e-17 
-3.1367679148870131e+00 1.9334232300664819e+01 2.6367952204621315e-16 
-1.5853219015060238e-01 1.2552845399484003e+00 1.9580116609812137e+01 
B C Ca F H O 
2 140 1 48 298 66 
Cartesian
  10.5408125845    3.5717629767   16.8141629130
  -0.8285362392    6.3049261849   12.1371583527
   0.3940052580    1.6370799506    1.6083459124
   6.9689062678   13.7371632688    7.6569346349
   4.5392562443    6.6018179636    0.8901359169
  12.5814069918   12.5685914547   12.6673819188
   4.3756348888    2.8839451911   16.6641119166
   2.2272299595    1.7554847049   18.3881969501
   1.7433817919    2.4658861571    5.8267941425
   2.7708869034    1.1843679001   17.0111717160
  -0.1163966546    3.8064732693    6.1158328155
   2.9220679602    6.4210637546   19.2612797175
   2.1906408004   17.6988961428   18.3425990380
   0.9765859019    3.4733824044   17.3607982462
  12.0119969498   16.1242722870   14.8539212750
   5.4702178492    9.9046599700    0.9633050908
   5.8526923452   17.2525471796    9.5759872989
  12.0538637793   11.7206512431   16.2341214719
   9.6192337776   11.8139719595    6.9295441557
   9.2634019271   13.3482944246    6.7911802090
  12.7306654125   11.6721222604   14.9430775049
   3.9010098471    8.0171288766    0.7878592137
  12.1846343241    9.4984358661   17.0369791460
  12.0061364345   11.8892888888    6.6269113002
   0.1358153346    5.0683902278    7.0018313430
   0.4675079826    7.5130346888    6.8777326782
   4.8036623056   19.1903982017    9.7467995469
   2.0470981605   16.5945701974    1.1626134000
  16.0379985018    1.7808479846    2.6490635521
   7.2110681799    0.8478776365   10.5383928576
   1.4120595556   15.1986671064    1.4758898010
  13.1292739036   16.8944269129   16.7969807295
   5.5047864363    2.3650425512   10.6002520401
   6.7662353790   14.0335842690    2.9469901666
  14.8544233359    0.8433743440    3.1423938517
   5.7275645809   14.0522070508    0.8940136553
   5.7202222574   15.1122362656   18.9571121813
  14.8147326088   15.1692731526   12.1842178703
   1.8644908873   13.0055013944    2.0064611934
  12.9344153081   15.8876418364   17.8676254954
   5.9258892975   13.2355713408   17.3939633982
   4.8035898972   17.7551301715    3.8817256363
   7.2022925916    0.3283827474    2.5304805251
   6.4534290049    1.6542661111    2.5246621067
   4.3154001160    2.6098512191    2.1743029688
  14.8160830592   16.9472869966   10.5412577417
   6.9133610959    1.3489896652    7.0201052754
  12.2661559345   14.8861158990    8.7320765070
  13.4328130027   17.5976274583   10.3721326192
   3.6401527295   16.3644709893   12.1746454038
  12.8989373567   18.4791812407    4.3771326095
   7.9560569475    2.4230449998   18.3088008022
   8.2098327890    4.9645201999   19.1808008740
   8.4885784645    3.8474094359   18.0413506049
   4.0924465834   15.2758525733   14.2972939771
  11.8872606486   18.8834529523   11.6590204681
  10.1785561105   15.0153567235    9.9217870054
   9.8097282593    3.4025815520   13.2665559181
  12.0917614056   15.9041213133    0.0874565791
  11.8100528209   13.2701998223    3.3533675393
   9.5261150350   14.7194727497   11.3403877012
   5.4073161272    2.9298465781    5.9837918663
   1.3117019538   12.8388556106   10.9783796732
   3.9874321617   16.5229477598   15.0916036233
   0.2789562220   18.6095507128    8.7594869152
  10.7547452301    3.7194824157   14.3689114795
  11.7126657971    4.8235191642   13.9690362959
   5.2921916742    4.4052502795    5.6232397584
   4.6556628158   18.8142659309   15.1825610129
   8.4846779853   12.7164192524   10.9440971737
  -1.8487572617   13.3340236719    8.8630320408
  15.2624143179   11.1484433455    8.8467883240
  -0.5646302483   17.1425069155    6.9941433843
  -1.4358633159   10.4534190063    8.1158346363
   6.1668618242    6.6793908063   15.7165321369
  13.1908920883   14.9523917203    4.5130368592
  -1.6167984126   17.7076415821    6.0392091483
   2.8541614793   13.6276470827    9.4523719346
  16.0253038228   10.0920146236    5.7563770011
   3.8317761990    6.2268320628    5.3260024855
  12.1132345692    2.5801838294   18.3647429172
   2.1805521002    5.4812491166   13.5158366377
   9.0511664098   20.4135650778   18.7568969312
  14.4321212429   14.2576569973    5.0176628121
   7.3298926887    7.5284234290   16.3826471868
   2.9058056985   14.5451554055    8.1650907797
   7.5492611489    7.4150343784    4.1434903076
  -0.7069754010   17.8160606557    3.7580661983
   7.1334570907    9.1216401792   16.2839357859
   9.7009740690    7.6668304532    9.5197562166
   0.5432222211    7.6794967225    2.7696745562
  13.3219276666    3.4470958956   18.7873562331
   2.2653288254    6.2283982818   10.9988728462
   1.4078904757    5.6450204265   12.1881929309
  10.7523881098    5.9462661995    3.1904942394
   9.3549218795    6.0263661652    3.6394730104
   9.0617738931   15.6293898198   16.9282625702
   8.8003335214    8.3949367013   10.5476367634
  11.8826561447    9.4612859250    3.8275329118
   8.3799201089   18.0267170769   12.1312561066
  -1.4543967260   13.3497240558    3.9545578149
  13.4749600639    7.0288119746    6.0610587266
   7.3996378232    8.7634041686    9.9647830587
  12.3607456928   10.0600746175    1.4716238098
  12.2222098106    6.2999364957    1.2062134254
   2.8840335855   14.4635503663    5.8046228055
  12.7192667783    8.9872318236    4.9060757310
  16.2653972698    7.0885538696    3.0114253826
   7.8788476885   18.6280047698   14.3155954552
   9.7360054934   13.7675983239   18.2126747937
  15.0363363435    7.9763914173   14.6332025618
  16.1747012190    8.0791801028   13.5653015268
  15.5522513987    6.2445811282    1.9530651844
  15.0671372775    3.3825465438   11.0563861192
   9.1266571084   12.6797534844   19.2919344594
  15.2858515682    4.8803087674   11.1221482115
   8.6674608346   19.4855442590   15.3369003292
  14.5881967904    5.7449473027   10.0796949171
  16.1042958326    9.4663747669   12.6621046468
  11.5992636375    1.0165050041    7.2602171772
   2.4230633581   10.0871506226   15.7232298219
  -1.3434232136   10.2373209429    0.0272518616
   1.0907209614   13.5383000881   15.1958338962
  15.0703831501   12.1806016663    0.7901442047
   4.6382414761   10.5957068133    7.2895589668
   4.2849184615   11.1228765573    4.4020978857
   9.5420723230   17.6728535649    6.2453445698
   7.9634343051   18.1769577511    6.3597968592
   1.6520121460   12.2598842564   15.8173714684
  -0.8197297746   19.9478914814   13.1840861478
   0.9546681713    1.2419683758   12.6554163392
   1.0364913847   18.3506145137   12.8867436283
   2.0907860277    2.4959878283   10.8646105706
   8.9773471368   11.1926404345    2.1496601806
   2.7930907621    9.9878478167    8.5393506774
   5.5908106454   10.2154440258    6.0961996876
  13.9675144974    1.5572876438   14.7255622786
  -0.5147906847    8.8794654191   19.1197557328
  16.2585024898    4.5580549480    0.3510957360
  -1.2144973457   13.3113494185   15.4837571559
  -0.0634201393   11.2442490279   19.1950883506
   9.7324368079   16.8163209641    4.0156801816
   8.8203785528    6.8456023014   13.6856913655
   8.0344817976    1.8787780428   17.0080375741
   8.7380461993    6.1276151918   18.8327232224
   9.1290726250    4.5407880616   12.7253111616
   8.7766688093    1.6546437228   19.0706666205
   8.8335032749    3.4111027075    0.8136847316
   6.7265377996    2.3655447661   18.8382672735
   6.8964044449    5.2096184656   19.3601514149
   8.8106299458    2.6650381661   13.8492117730
  12.3574758265    4.6176520034   12.8118484249
  10.3978700579    2.8219156190   12.2769674112
  12.5840993714    5.0348567132   14.9751606308
   4.9185660610    7.1415691601   15.9908384905
   6.2971982270    5.3808806426   16.1492402625
  11.1303952125    6.1199730047   13.6948281058
   6.2565839857    6.5999193762   14.3041217155
   2.9961667949    4.3348226114   13.4462563955
   7.8645386762   19.9781249353   18.1621695094
   2.9081577993    6.5505438753   13.8257004418
  10.9754457623    7.8641926076    9.9575682557
   1.5852447667    5.8229746779    9.8641739526
   6.8350586668    9.4460804312   14.9656043098
   8.3414788953    9.7279278970   16.5789620230
   1.1663960930    5.4100764231   14.4556319312
   9.7083396270    8.1544142736    8.2337050267
   8.9748676242   18.8752725100    0.5167618644
  14.3650535311    3.3158907851   17.9118061941
  10.0766640362   19.7040135913   18.3913666858
   3.5889343610    5.9152923305   10.9402968141
   9.4857291274    6.2966364470    9.4029745700
   6.5946375023    8.7989142589   11.1025551122
  13.7549762487    1.8235349725    0.5106857091
  12.9681696663    4.7601274540   18.8417577181
   6.2050548515    9.5380466682   17.1270189355
   2.2643922172    7.5274255566   11.0199015249
   6.7237483754    7.7996184413    9.1825137591
  14.8493822587    9.1506691234   15.2150866562
   7.2829456638    9.8944939214    9.3855211610
  13.8207112313    2.9533945891   11.1301245350
  13.7816256549    7.8230783218   14.0679668624
  14.5764892211    5.1074443602    8.9019544258
  15.6171356757    2.8915851719    9.8534664087
  15.2513238795    6.8988467781   10.0346964361
  15.3153668381    7.0298275578   15.5393210396
  -0.9536757420    9.2941279560   11.5264768720
  15.7731274169    2.8197739215   12.0592720138
  -1.4186531959   10.5689088662   13.3483255042
  13.3831491725    6.0583817307   10.3624845111
  14.8553724094    9.5823705253   12.2994979418
   1.2675079173    1.3279658337   18.5869776329
  11.3194433299   12.5217947750   16.1414300801
   2.6292294621    2.5647909543    5.1459869784
   5.2410991601    6.4066965612    1.7495886491
   5.2727170849   16.5540019541    8.8653227725
   9.6527106513   11.5604714576    7.9968541859
   5.0666239093    7.7084668590   19.5657069353
   5.3855393186    3.1659038944   16.8319021090
  16.7381660125    3.7861888328    5.5388300906
   0.4669223866    2.6990540820    1.8744673116
   1.4187034821   18.4170868738   18.2732000478
   0.6868734275    1.4901487058    0.6620127714
   6.4344335308   14.0786083547    8.6229122002
   0.8503598824    4.5526687969   17.4203430872
   0.8909209036    1.0609732919    2.4833494439
  12.0057509363   11.7411857114   12.2367892841
  -0.3950861836   19.4603694385   17.2405399962
   6.6340018527   14.3287645122    6.7209118185
  12.9640698540   15.9560176520   14.3033021440
   6.0481399159   10.3301014890    1.7738431795
  13.6854688698   12.4797558477   12.6027212833
   2.0075708661    5.8086798954   19.3440013082
   2.8712212418    7.3560689448   18.6044432261
  11.5248189925    8.8616606686   17.6726698818
  11.8620223322   11.9367665234    7.6949323235
   1.3874151199    1.4813431180    5.7868627619
  -0.2984726298    2.9658369278    6.7624687110
  10.1813810686   13.9146320207    7.0043184203
   3.8528164849    3.1266720499   17.5706055104
   5.6583651630   19.5701863094    9.1579621627
  11.8894628252   15.1966181381   15.3457231092
  12.8731504537   10.7147738974   14.5876269619
   1.6964561008   16.6884357033   18.1293382488
   3.0205047858   18.0607262482   17.6992063095
  11.1467434269   16.4147622053   14.1446494359
   6.3981338329   17.8467007737    8.8950149979
  -0.0128590279    3.0828222791   17.7088449461
   2.5932322117   16.8956518313    1.9981027205
   0.6277070622    8.2585211849    6.0542793861
  12.7568245154   11.8650147700   17.0628501525
   2.1478116170    2.6820628065    6.8767869233
   6.4935759978   16.4997596614   10.1938322897
   8.7241865635   11.1862340930    6.6341882961
   4.8221645315   10.6513208783    0.4297495646
   6.7901169163   12.7147291043    7.5343870006
   6.2487248613    9.4756022247    0.2537481233
   3.6497719656    5.7384281033   18.8522508557
  12.3047453622   13.4229652110   12.0753643463
   2.9124657624    1.6195956159   19.3237043051
   4.0143497017    3.5697461701   15.7919923620
   1.1922106969    3.1206979541   16.4379733449
   1.9555439972    1.4985807452   16.2515305918
  16.5684702340    2.1185777448    3.5192238591
  15.6324366242    2.6614497535    2.0719976358
  12.9809719707    9.8991054434   17.6096717715
   2.8657837632    7.9580028110    1.2006366708
   3.8020299162    9.6424863302   19.3387647595
   1.3399955562    7.1987467495    7.4593197335
   1.1900128552    4.8957204059    7.0882757534
   1.2851698906   17.3018346911    0.9393841355
  12.8726934577   11.2881407674    6.2663919923
   7.8703022876    1.6865974271   10.9650387309
  12.3183947391   12.8519934450    6.1474857362
  12.5524180496    8.9606751222   16.2045824357
   8.7951500196   13.4051127042    5.7809692374
  13.8218339353   11.8770219968   15.0732660099
   4.0748080747   18.9315052062    8.9486124416
   5.9477306298   14.7794687826    3.2023290488
  -0.3125311277    5.0510438391    7.9572170475
  -0.2379182439    7.9983221383    7.6058714011
   5.3381152058   15.0978292419    1.0034392637
   6.0927896626    3.1323546354   11.1601281127
   1.4778104942   14.7698019465    0.4699547724
  13.2916104174   17.8939982254   17.3627205437
  14.0984907203   16.7019570105   16.2396152892
   4.8414966256   15.5995266284   18.5987912821
  13.7264966144   15.2528943643   12.5550672510
   7.6861235637   14.4904501591    3.2757781485
   4.7820892426    2.8897646020   10.0127901376
   3.4966137716   19.5859821552   11.3622730813
   5.2205915213   12.3889620258   17.2431642132
  15.1347876461   14.0972814224   12.4038434710
  11.4249213883   19.3556214438    2.4998439290
  14.0202040551    1.5798360516    3.2391786033
   4.9150168203   17.7292009365    4.9833776931
   6.5115830375    1.3305912608    8.0277032153
   3.7350884772   19.2042469181    1.5080723405
   0.4414866206   15.2942893588    1.9548971924
   6.7320325455    2.3092917987    3.3273273488
   3.2645474083    2.4640499621    2.4352132785
  -2.3244177684   17.5245338728   11.1479893989
   0.8600579504   12.7808792286    2.1564985050
   2.1644154466   12.7421658330    0.9474877938
   6.6340958373   13.0920203321    3.4348360607
  12.6898528089   14.8598370007   17.5278479045
   4.9581280248    1.7059601255   11.2903574521
  13.8981907121   15.6955931628   18.3900264786
   6.9887232518   13.0176946208   17.2409614142
  12.1780627763   13.9470651663    8.1694110494
  12.7427787273   16.8065193378   10.3640630400
   4.8811078993   13.3374024670    1.1261685564
   2.9148415294   16.5346887366   11.3444171339
   5.6660496935   17.9655190339    3.3361485749
   4.6441069642   16.3434308545   11.7283041931
  13.3821300483   15.1474449987    8.9335837052
   4.4465629715    2.9580471986    1.1594640866
  -2.4133381993   15.8585313899   12.7946836359
   6.6217960441   15.6136783206   18.6311977060
   2.5483179407   12.3228231194    2.5217343106
   7.9770286605    1.0868961838    6.9909666699
   6.3742278031    0.5783517750    6.3883372033
   5.6971630058   14.0543699858   16.6390200096
   7.8732383190    4.1774091420   17.1802041942
  11.8446793297   19.9718908265   11.6000890679
   3.5946546760   14.5017107060   14.8289355312
   5.1014517000   14.8679335999   13.9780293071
   9.7803956065   14.3845198858    9.0884043178
   3.5917422598   17.3142197753   12.7688491624
   4.1991187370   16.8441407695    3.6363731362
   8.2737513231    0.3062144154    2.5159957421
  -2.5445003420   16.9339645588    9.5443261510
  13.9300480758   18.9417874096    4.0315985174
   6.7191369269    2.0977070879    1.5806843342
  12.5378563075   17.6115743545    3.6946714040
  13.0583705289   18.2268339164    5.4290545296
   4.6303778145    3.5589379070    2.8481308911
  11.7986113911   15.6673489582    7.9545999540
  13.4285926275   18.2287991319    9.4634569748
   9.9044907089   15.3894264238   12.2638554608
   0.3433930014   18.4542568542    9.8169135826
   1.7742894307   11.8650494000   10.6337308755
  12.4580022245   13.3661130965    2.4631838279
  10.7152740321   13.3606029720    2.9231729422
  11.1987769967   18.4060465671   10.9864106857
  11.6510737666   18.0078654955   19.0403823277
  11.2777475943   15.6853358662    0.7719113061
   1.7956355601   13.1489186553   11.8845689782
  11.6711631893   18.5241860225   12.7305092907
   0.2589798121   12.7848392373   11.1045824121
  12.0342672362   12.2330795737    3.6921558248
   4.9185156707    2.0882395406    5.3466396384
   9.7096307824   15.9144570600    9.3873443637
  15.3172034259   13.5406737805    7.9785468309
   8.7129217272   11.6678031257   10.9295881597
   4.6527225096    2.8942092581    6.8631350991
  13.0590555260   16.2380329582    0.5056999847
   5.9386344880    4.7376291089    4.7996842549
   5.7809284780    4.9189054343    6.4394855127
  14.3163656989   11.2196790834    8.2849978033
   5.5179604008   19.4066946937   14.8486715655
   0.0891920060   19.6053260732    8.5984320089
   1.2856855393   18.4678078208    8.2996722519
   8.5251116700   15.0839810221   11.2844433688
   4.3918471331   16.1464756709   16.2496368808
   2.9065272360   16.6946939418   15.2422960728
  -0.7335379925   13.3428750569    8.5730428791
  -0.8340715066   11.2433415945    7.6257602899
  11.3307949126    2.8016161682   14.4708901446
  13.5873920647   15.4286735868    3.4560596118
   4.8690154568   18.8225745727   16.2283699481
   8.2173646171   12.9556956655    9.8434684696
  15.6681691422   11.1083323994    5.6216503460
   3.6929954612   19.2769678279   14.9711407232
  -1.4322836350   18.7700168765    6.1168643040
  -2.5060286299   17.4739190948    6.5884804096
   7.6140736885   12.7302099364   11.5871790933
   3.1043160202   12.5724215259    9.1299218807
  -2.0690153514   14.1134866505    9.5804981934
  12.9471419123   15.9204386475    4.9412060980
   3.5620121965   13.9773554819   10.2906627328
   0.4969696777   17.2781216652    6.6616526270
  11.3691035169    2.9889424337   19.0705184358
  15.0570167737   10.4338685090    9.6418196422
  -0.6687411030   15.9461859252    6.9056246688
  15.5050607065    9.4099536430    5.0549096289
   4.3841615049    6.5670642860    4.4472196418
   7.2529986028    8.5057576168    4.2470111338
   4.4233195966    6.7354618013    6.1618812625
  -0.8501133561    9.8617067167    8.8890224122
  14.3040069692   13.7148929442    5.9314738847
   0.5782722933    7.2426305610    3.7437243290
  -0.6537017403   10.0548821965    5.5446699690
  -0.6975704926   17.1124793034    3.0277550139
   0.3117060240   17.7490278990    4.2135935126
   1.9311427015   15.0216408129    7.9829326482
   0.8975486456    6.7933192636    2.1304016296
  15.3664537003   14.8354010611    5.1116253628
   3.7085780200   15.3166492656    8.3760684255
  11.4393875981    6.4886066147    3.8779787221
   7.2603766279    7.3097097929   17.4752521578
   2.7951501192    6.5237984417    5.3494767358
   1.2031208761    8.5321299924    2.6530449307
   6.8231879275    6.9401948875    3.4870362148
   8.1272654542   16.1313725339   16.6359684146
  11.0608886060    4.8461590568    3.2176145499
   7.6509165463    7.0789813756    5.1615902198
   0.8394373332    4.7495824728   11.9268131583
   8.2431005008   19.0790429134   11.8195976102
  11.3899814906   10.3387478269    4.1995193054
   9.3870400950   14.9894158544   16.0705589256
  12.6361574070    7.0584383978    6.7204584389
  11.1244421625    8.7094628508    3.4245872667
   9.1668216321   17.6284638568   11.5005302644
  -0.8687880669   18.8793350349    3.5268226818
  11.9008103027   11.0077091149    1.4982665446
  13.0339586368    6.8498003866    1.6272098763
   8.5847499911    5.3843380540    2.9637787488
  -0.9378782742   13.5142652742    4.9353256296
  11.7811657012    9.1560234694    1.0069019596
  12.5232454450    5.2500339891    1.1856422319
   9.8620462760   16.3627588189   17.2389566629
   9.3642062011    5.5525055664    4.6189727289
   7.5642385214   17.4871877338   11.7555509750
   1.7699072619   14.4533318670    5.5626611024
  -1.1532083208   14.2940668571    3.3751093547
   9.2723806026    9.4293100635   10.6148147710
  14.2968925063    7.6260688724    6.4433247986
  -1.0431399401   12.4279879888    3.5047140568
  15.4509303892    7.5141457299    3.5712118196
   3.3397315441   15.5360640359    5.8409844856
  13.9652297525    6.0719373215    5.7455810827
   7.0618656630   19.2610304798   13.7134322435
  16.7106433977    6.5337469937    3.8418259143
  12.1108169370    9.1954783059    5.8442793858
  13.0039299017   10.1831271400    0.5869467776
   3.1954067500   13.8249510953    4.9409665711
  13.5304851554    9.6490245638    5.0506617559
  12.2459859187    6.6107459387    0.1747842250
   9.8425370653   13.1573435544   17.2839346437
  -0.7703771026    7.9690582665   14.2165704477
   9.4624428637   11.6443528224   19.0928547242
   7.3472229258   17.9491736544   15.0702902229
  10.6611088099   14.1409854119   18.6245986458
  14.7318249249    5.6840865916    2.4428744107
   9.4082139131   18.7940264062   15.8678014481
  15.1664688738    6.9191823510    1.1712020740
   8.0832353976   12.6216610736   19.2368558107
   1.8805937216    9.9788350605   16.7153814679
   1.2165809830   14.1364028408   16.1138267875
  10.1059727735   18.6363758326    5.8778528643
  11.2367479427    1.6640216063    6.4075875546
   5.2867215662   10.5122743149    8.2336011075
   3.5893289815   11.6463406647    5.0658596802
  11.3009840606    1.5647666337    8.1403429900
  16.0574103462    9.5097155892    0.7537880237
  15.6674971919   11.4534794438   18.6952238031
  14.7283495109    5.1061368125   11.9661426207
  15.1008766721   12.8985001841    1.7034125847
  14.3570188702   12.7399152642    0.0585346384
  -2.7941073158   19.7726830935   12.1163807179
   3.0632472741    1.3757999969   13.5045883956
   0.7521292900   17.4301643576   13.3762422531
   1.4044424544    2.4257765428    9.9645536775
   7.8222312879   19.8574721665   16.1342659341
   4.4186085899   11.6303787840    7.3069757077
  -2.0433922340   14.1316579269   15.2830615316
   9.0965299888   17.6429960877    3.6463355230
   3.6323893567   10.0723829472    9.2523176207
   2.4642171537    9.1146088421   15.2199448836
   7.6665037851   18.5162473501    5.3698406841
   0.4669949027    7.2718351323    0.1505182183
   1.7726983034   13.9081685363   14.4468221885
   9.7608121771   10.8469751883    2.7891659219
   2.0653595649   10.7732667250    8.6465353487
  11.3746693681   20.1091442925   14.3070344965
   4.4077768823   11.8223963610    3.5698754382
   2.7047218724   12.6246534717   16.1453429586
   1.4856347917   19.0033537456   13.6859759230
   2.9695782918    1.8189310014   11.0188178211
   9.8370192799   17.3393121220    7.2847899728
  -1.6300397270   12.3068558147   15.3947586669
  15.4579862684    3.7627464515    0.4096709267
   3.4377479520   10.3782243152   16.0176991492
  14.4826819753   11.4060701973    1.3301316112
  12.7300925921    0.9967091381    7.1594607488
   4.0723080312   10.0998177958    4.0138138635
   8.5725124160   10.2110759300    1.7315863673
  15.9197416225    6.4099672720   18.9925481307
   6.6270475349   10.2371304229    6.4623769178
  14.0222111217    2.5012098592   14.1649483374
  -0.8160861547    8.1384885855   18.4473771874
  10.7771835487   16.9611797723    3.7072619530
  -1.2212839051    7.8718046431    0.0965609745
  -0.9805692545   19.4006422434   14.1853617985
   0.3645618497    1.4559447304   13.5383766473
   1.7247169185   18.0777493859   12.0793308476
   2.5491577304    3.4770149167   10.9924672968
   0.8137560070   10.0129301298    0.4787267611
  -0.6231811438    3.8521730400    0.1181212606
   0.1875824676   12.0541092142   18.5212917922
   1.0922373561   11.9223671022   16.7448221991
  14.2015585792    1.7852490869   15.8331643376
   9.4848091533   15.9268622442    3.4076686123
   2.2710208353    9.0626117970    8.6922643284
   7.4645814880   17.2167199613    6.4212971369
   5.1932336072    9.2052849940    5.7988952584
   8.1917931475   11.8621846161    2.5192470879
  -0.8225630132   13.2665151116   16.5233259090
   4.5129752021    8.9898993259    1.6184678196
   8.3903371516   13.8875951479    7.7546987637
  12.1279139655   12.6467191997   14.0357875432
   4.1030111558    1.4370446200   16.4584290680
   1.9967653897    3.1330382196   18.3127765091
  -0.0778955140    6.2685460919    6.2486249015
   3.4290779984    5.6561064078    0.9835138512
   0.9474186354    3.4653053270    5.3096971510
  10.7804840400   11.2536755745    6.1387568070
   5.0249689647   17.9858925477   10.4038054220
  16.8225164386    1.0880926855    1.8487567801
  11.3069012453   10.5110358114   16.6018588315
   2.9582938299   16.5967801037    0.0578649076
  12.1871013838   17.1662054983   15.8535972341
   6.2925550066    1.4898670072    9.7757818921
   2.3049762542   14.3209282433    2.3307784954
   6.9887332222   13.8774778046    1.4857738165
  11.8470863149   19.5011429078    4.4646743610
   5.6999999167   13.7041874919   18.7052870222
  14.8013622499   15.6056260134   10.8398754064
   3.8825948011   18.8859556533    3.7189990304
   5.0316499990    1.4609393719    2.5574511609
  11.9225672560   16.0832799095   18.7839008028
   6.7196517477    2.6695523954    6.4277119061
  13.2477283485   18.4874448863   11.4861381715
  11.5987913550   15.0913595970   10.0416992958
   3.2870014330   15.3040345848   13.0557090641
   4.7801782795   17.4905015350   14.6129416276
  10.1060573461    4.0466159544   15.6106658014
   9.8361782975    3.7945647526   17.9713540049
  -0.7522151008   17.7180609129    8.2551702814
   9.5981542375   13.3550518701   11.5445558885
  12.0607990555   14.1341987372    4.4322130964
   1.5650819695   13.7340978604    9.9134357560
  15.5639096423   12.2782879859    9.6828707122
  15.7976207738    9.5856956097    7.1111196685
  11.7228862584    2.9058025537   17.0006178041
   3.8921601719    4.7469881348    5.5129550600
  -1.7082413569   17.3976549396    4.6258205343
   8.8114517630    7.2385655679    3.5176658366
   8.4174526843    6.9950026695   15.7391215237
  14.8695658561   13.2689045237    4.0611636243
   3.1409845893   13.7469223258    7.0090231638
   8.7698830945    7.7915378241   11.8011431665
  13.0822940425    7.5798631758    4.8877295607
  -0.7218874968    8.1088215689    2.5480246747
   0.3983561190    6.6388925919   12.4700480928
   8.7454566744   14.7339350637   18.0113292860
  10.9687038978    6.5175672594    1.8603736349
  12.8979082756    9.6880167954    2.7223601677
   8.6204782537   17.7787791476   13.4881962366
  16.6505389901    5.1366774133   11.3492656050
  15.9775586626    6.9667359486   12.6950479344
  16.5408550216    5.3118771585    1.4756906283
   1.7950396828   11.0721988545   15.0303432693
  12.5267725397    1.2846795702   14.6112441008
   5.6028026961   11.0276960029    4.9642954995
   7.7073670925   19.1359065597    7.3748000355
   9.5654848249   11.8864390488    1.0126787909
  -0.1343505593   10.0540093891   18.4190477074
  -0.1752530195   19.0396016495   12.2474633579
   1.1656480657    2.4915822649   12.0995077648
  -1.4861153527   11.6291227902    0.4754588725
   9.5546130304   16.5235577110    5.4211787381
  -0.1574655578   13.6536318037   14.6446631666
   3.4591864942    9.8642545512    7.2356261849
