B2 C140 Ca1 F48 H298 O66 
1.0
1.7801114736600496e+01 -1.0871846044034539e-16 -3.5435807345849263e-17 
-2.6664651007273870e+00 1.9265972043759721e+01 -7.6937622110438701e-18 
-1.1260472318009556e+00 1.0290806570515443e+00 1.9473302845491389e+01 
B C Ca F H O 
2 140 1 48 298 66 
Cartesian
   9.6030521161    3.1430225117   16.9311547262
  -1.3538600034    6.1778796853   12.1413963124
  -0.1789512268    1.1122499960    1.5289753225
   6.8959311403   13.7308583261    6.5949717867
   5.0461929344    6.2533214310    1.3818843404
  12.2910645360   12.5754990874   12.6240365742
   3.6448222489    2.4872652328   15.5753184645
   1.6191624449    1.9548415250   18.3952750523
   1.3841139474    2.8673208885    5.4809189592
   2.0054324213    1.3916219021   17.0610007172
  -0.6762470761    4.0133941824    5.8333383443
   2.8057144374    6.1630420324   18.9870793728
   1.6766602016   16.4718115919   18.8001897242
   0.2368104618    3.9335299493   17.6576056228
  11.6052095541   15.6749086535   15.2103868665
   4.3692465658    9.6142889654    0.5015303233
   6.3230657558   17.2613388537    9.3194569746
  12.2617075887   11.8846922565   16.2469237576
   9.7005591594   11.9865301915    6.4818377956
   9.2958700818   13.4541392046    6.2738227567
  12.6368846829   11.5671215458   14.8127730496
   4.1060561434    7.3990838438    1.2306612258
  10.5872297009   10.2399809511   16.8251790770
  11.9345704022   11.5053175131    6.5178075729
  -0.0318512213    4.8831697660    6.8831796969
   0.5332623477    7.2188110247    6.8582599115
   4.4317506682   18.5055111622    9.6309984892
   2.4849449747   16.1874702755    1.5716678262
  16.1416571661    1.5997622090    3.2629567018
   3.4600354654   18.9655876408   10.7196465871
   1.7641829794   14.9182149075    2.0528764686
  12.8358643152   16.6806500110   17.0273649032
   5.1870354988    1.9871831663   10.8922886090
   7.3505469252   13.7114836880    3.1142497898
  14.8107467994    1.1245758617    3.7914806859
   6.2982775642   14.0435947833    1.0414201606
   5.1574153718   14.9274383233   18.9629115202
  -2.5713636813   15.4140627011   12.2474408385
   2.3359126692   12.5924360984    2.0593376726
  12.3864022449   15.6413203814   18.0763943346
   5.2587490294   13.2651076145   17.2810152375
   5.1274579275   17.8217523884    3.5899079173
   7.0923883330    0.4669697518    2.4677409563
   6.0625729696    1.5424996251    2.6048287015
   3.7168286390    1.7616941772    2.6364282853
  -2.5867510659   17.2022814318   10.6411668734
   6.4695871707    1.2733829795    6.2953421402
  11.8278096666   15.0878863042    8.9191318078
  13.6575396273   17.3528761424   10.7273161697
   3.4569123381   15.5367415531   12.0996978602
  13.0116708517   18.3578920750    4.0181131883
   6.6161214897    2.4282860772   18.3592795664
   7.2513793991    4.7968001935   19.1949199076
   7.4083840097    3.7477505012   18.0379258198
   3.4343291269   15.4133618097   14.5373912574
  11.7693889229   18.2331618093   11.8087827013
   9.8360007223   14.7452894033   10.0407018065
   8.8831615572    3.0126189751   13.1161526521
  12.2643161989   15.6148088451    0.4924989332
  12.3041189254   13.0505037746    3.3166776653
   9.2050036125   14.0120492612   11.2555262510
   5.2104071990    3.1703564626    6.5979055363
   1.4842741825   12.8791978166   10.8752894254
   3.4026665451   16.8601044950   15.0548757846
   0.6374534075   18.4065328903    8.2611736065
   9.8404862702    3.2004032524   14.4040211266
  10.9050969430    4.4046945563   14.1277032262
   5.3607155327    4.6403614860    6.3967299623
   4.3727897163   18.9920034228   14.9541768082
   8.6327157630   11.9320417149   10.2611715327
  -1.2147235463   13.3546877869    8.6761787564
  15.1679569083   11.5888752253    8.4457838577
  -0.4183787087   16.8022495494    6.6653129501
  -1.6218780431   10.5217098016    7.8749432914
   5.2998717195    6.8008980538   15.7252668667
  13.7605628481   14.6942963050    4.4239994290
  -1.2070520796   17.9281056963    5.9099450777
   2.8339060460   13.8138326892    9.0924280276
  15.5458904202    9.8935614666    5.8253644499
   3.8148825601    6.2440759620    5.4839264461
  11.3049553738    2.4654818822   18.4531110852
   1.6763752291    5.2676854460   13.3073590477
   8.8679602639   20.1412587383   18.5295088806
  14.9619584964   13.8309540624    4.7233269644
   6.7465542197    7.2290544383   16.1631663357
   2.7381327734   14.4316064618    7.6326414212
   7.5495169040    7.1685658527    3.9835843767
  -0.0659886836   18.0660078542    3.8041690919
   6.7835659027    8.6985802426   15.8943981803
   9.5782078887    7.7929140730    9.4476001418
   0.4341289586    8.0826904440    3.2992122085
  12.4870790528    3.4311944269   18.7404986486
   1.8215027491    5.6372277545   10.7685825239
   0.9086310491    5.2315531890   12.0216766135
  10.6972372939    5.6302582246    3.1612992589
   9.3408217891    5.6971401453    3.7512620553
   8.3166360259   15.7385933415   17.3040143909
   8.7146183134    8.3872176690   10.6048895050
  11.9024217280    8.6408318864    4.1649617479
   8.3838530393   17.7222028304   11.3629693314
  -0.9732114596   13.0581633133    3.6134915082
  14.0541081233    6.7666348782    6.3625459644
   7.2638617757    8.6369299790    9.9415335433
  13.0662837718    9.4857868832    2.1366661125
  11.8294644064    5.9501968543    1.2131448082
   2.6851213830   14.2823457522    5.2687594113
  12.4162106539    8.1379376540    5.4322159846
  16.0716768555    7.1482488032    3.5048529954
   8.0438517492   18.0450774859   13.6746886759
   8.7352415208   13.3941751034   17.9278457576
  14.5440936162    8.0935990140   14.6631039731
  15.6971725022    8.1615978171   13.6426281557
  15.6860565270    6.5413591930    2.1508908802
  14.9061962166    3.1188902545   11.0387584722
   8.4311998463   12.3817044674   19.0660256995
  14.7785722079    4.5996855501   11.1925160406
   8.8380783991   18.7826306431   14.8306677700
  13.9972622776    5.2625085310    9.9946156809
  15.5855739594    9.4481134207   12.7429376619
  11.2195280658    0.7336512248    6.8982863383
   2.3258542018   10.1320266683   16.1917655269
  -1.8778290829   11.1567783459   19.4597116806
   0.5659429911   13.2240630338   15.2025962490
  15.6764339534   12.0579070341    0.5683572789
   4.7764332834   10.4689893430    7.6224030455
   4.9197828860   10.4507357241    4.5320702492
   8.8836682911   16.8669026994    5.8477394679
   7.7969238726   17.8646763970    6.1300654465
   1.0668784109   12.1045630854   16.0887309504
  -0.6300982771   19.9105965969   12.8990152090
   0.8841091874    1.4153879300   12.2619588879
   0.5460400817   17.8297719576   12.4965655866
   0.6563595734    1.7073284491    9.9229049120
   9.4495999276   10.8828594781    1.9166336219
   2.4116047343   10.1479507474    8.0886818467
   5.8951180396   10.0042398321    6.7022483340
  13.2928378701    1.1673803650   14.6117370888
  -0.7793911953    8.4691448718   18.4848939419
  16.7925825144    4.5296253609    0.6904168244
  -1.8307653074   13.1762162090   15.3523475801
  -0.3629786802   10.7236014242   19.3552632715
   9.4761253803   16.8567081374    3.3610561340
   8.2933432928    6.5490489146   13.4358223952
   6.5029280595    1.8134512584   17.1964347639
   8.1166653724    5.8595362640   18.9347783690
   8.7225539304    4.2193842913   12.4024765621
   7.3438877127    1.5401844805   19.2195506837
   8.6860746786    3.1344335840    0.8980972403
   5.4431924934    2.6921441027   18.9909098053
   5.9744207566    5.2394755757   19.3043371928
   7.7045937066    2.5758963780   13.5525812541
  11.5150575317    4.1822318088   12.8952929010
   9.3953194345    2.1944945077   12.2519306784
  11.8879346507    4.3180921251   15.0697722376
   4.2173687542    7.4168557545   16.2718200670
   5.2582735483    5.3865708849   15.9946243150
  10.5266928642    5.7826702354   14.1475918056
   5.0910366614    6.9569563265   14.3274067094
   2.4868511818    4.1771389116   13.3730471515
   7.8306040945   19.4872997627   17.9870132922
   2.3423854090    6.3996514725   13.4694216910
  10.8778867388    7.6955054896    9.6829153671
   1.1640684711    5.5952774669    9.5956602046
   6.7916968946    9.0484241532   14.5419048996
   7.6631502187    9.4377979048   16.5229996321
   0.8285702576    5.0851549447   14.3916423732
   9.3590020316    8.4268263641    8.2480523878
  10.1610401780   18.6491646840    0.3263075309
  13.4329045684    3.4857995182   17.7681275285
   9.9874002745   19.7336313457   17.9201575123
   2.9428481649    4.9484581008   10.4942259159
   9.2533455577    6.4752995620    9.1853890792
   6.4023484164    9.0982491082   10.8699899004
  14.2594534528    2.1993752978    0.4593775552
  11.8695267711    4.6657829558   18.7845487229
   5.5432491501    9.3221366577   16.4435111259
   2.1441317135    6.9811753877   10.9196079145
   6.6371794872    7.4284390800    9.5731596496
  14.8062663853    9.0020807700   15.6637412250
   7.3320888687    9.4390208678    8.8704378270
  13.6498366277    2.6176349017   10.8909981484
  13.3464704493    8.3005241020   14.1510069736
  14.3494633489    4.9305735268    8.6838841532
  15.6338454280    2.8504272785    9.9263527321
  14.3563405931    6.7075800503   10.1004867731
  14.4555328198    6.8799374966   15.1650926534
  -1.8396187443    9.2003452508   11.4155997780
  15.5641170541    2.4087778316   12.0558849261
  -1.4131238002   10.4691341076   13.2020373960
  12.6668308486    5.1081269744    9.9386106475
  14.3108751528    9.9849419562   12.5864527204
   0.7484647786    1.3863921079   18.5348251536
  12.4412389142   12.8961348901   16.6600480652
   1.6854633937    2.1852874231    4.6323621629
   5.1667682450    6.1729596069    2.4562103078
   6.0062879187   17.3243873391    8.2264753758
   9.7891249091   11.6363824505    7.5333121520
   6.0042825923    6.5064598700    0.8984439099
   4.7226805298    2.2474173748   15.4425261067
  16.4352676918    4.6605782176    5.2787725529
   0.1173682060    2.1610326785    1.3202759127
   0.8794050787   17.1190435816   18.3503061116
  -0.0640363189    0.5202685553    0.5293952623
   6.3745393058   14.6477669319    6.9745067485
  -0.5106124607    3.1975572524   17.5179955866
   0.6469653196    0.6406040903    2.2642722906
  11.4385728913   11.9616136689   12.1252203173
  -0.9409852691   19.6305977397   16.9698274850
   6.9140139572   13.9073893673    5.4839204876
  12.4954781687   15.0923352598   15.1116906285
   5.2376759323   10.3242235875    0.3297870833
  13.1530794930   12.1384774073   12.2492299748
   2.6895455502    5.0957614291   18.6111732750
   1.7723395121    6.5373534419   18.9777980962
  10.4772498688   10.1982320386   17.8880144807
  11.8038503043   10.7794796117    7.3130407914
   1.2166375087    2.2293438227    6.3714754717
  16.5038345279    3.3223388520    6.4933290129
  10.2307261200   14.0828898614    6.5723222385
   3.3823096635    3.5449359067   15.6641235559
   4.9361135248   19.2446554451    9.0105781112
  10.9338998302   14.8498137939   15.7099922550
  12.1461494741   10.6426778378   14.4814546519
   1.3387210157   15.4835526412   19.0688843984
   2.4051090685   16.2654135607   18.0039759351
  11.1932634361   15.9625881288   14.2733807962
   7.1426839164   18.0144006727    9.4613857162
   0.6356030366    4.3034186939   16.7006554285
   3.2667361281   16.4526816303    2.4106268067
  -0.5094319479    7.5222511036    7.0221541000
  12.7570319744   11.1603602320   16.9239973319
   2.1119708088    3.6516407257    5.6360814034
   6.8114847411   16.3350100922    9.5368706471
   8.8871178383   11.2573553034    6.0026867419
   3.5575003379   10.2863979743    0.9425516582
   6.4239774695   12.7551222125    6.9064616635
   2.9625364542   10.2742446628   18.9816273804
   3.4069642935    6.8807523798   18.4537596437
  12.3577114710   13.6354722346   12.2858117192
   2.0954553305    1.8039808713   19.4166601227
   3.0203105265    2.1939244271   14.6355404820
  -0.1404020358    4.8695039095   18.2668695016
   1.4964266152    1.9464017616   16.3155122185
  17.0074364512    1.3499804920    3.9527138504
  16.2283481415    2.7031985347    3.1060111856
  11.3926187677    9.5118187012   16.4887036879
   3.3019975542    7.4060757581    1.8783080501
   3.7639532409    7.3950954791    0.1899812014
   0.8913332383    8.1093698581    6.4044777783
   0.7284869363    4.4335034627    7.5131866113
   1.7333144369   16.8653782884    1.3521618710
  12.7414961969   11.1989531244    5.9346953727
   4.2040114581   19.3877329475   11.4466055532
  12.1537489956   12.4684343094    7.0440590112
   9.6523134781   10.0724091330   16.4324815370
   9.0446492909   13.6805068186    5.1962631725
  13.7742605267   11.3457536859   14.6585226520
   4.0104682341   17.8481314263    8.9068841995
   7.0496353736   14.6665759414    3.3023989224
  -0.8313487587    5.1316294425    7.5845519812
   1.0409969863    7.1927986506    7.7789725376
   6.2620371009   15.0443257937    1.3645750863
   6.1461781273    2.4732189599   11.0946132798
   1.0030307741   14.6022460752    1.3162038160
  12.8851006968   17.6191033191   17.6153373005
  13.8141790950   16.4372131699   16.5674239231
   4.1919942489   15.5207657224   18.5260530855
  14.1303213409   15.4224036020   12.6187236535
   8.3528661485   13.7282444531    3.5757184320
   4.6194883918    2.6354063915   10.1008018016
   2.8143780696   18.0741150884   11.0953895633
   5.5388670992   12.2087270887   17.1965303011
  -2.3808166931   14.3176661343   12.1584266419
  14.1763722923    0.7572781499    2.9930622319
  14.3533052381    1.8892107241    4.3621785705
   4.7705832082   16.8983576503    4.0453439967
   6.6534246016    1.0584208778    7.3431253364
   7.3331755613    0.3916342222    1.3879230589
   1.0752480235   15.3364321890    2.7597357224
   5.9480128493    1.7058918290    3.7405549588
   2.7360534955    1.3548815357    2.2566808353
  -2.1910354385   17.7256947998   11.4766854467
   1.4087384180   12.3018877170    2.5745382502
   2.3367072373   12.4560244062    0.9497513795
   6.7721168570   12.9761354671    3.7540093709
  12.1458648403   14.7741292932   17.4646165997
   4.6479648395    1.9539190807   11.8595987724
  13.2609433912   15.5013806402   18.7759896899
   6.0514068069   13.7655777758   16.7023064272
  11.6058934462   14.2804977630    8.2559097820
  13.2031847028   16.3327498725   10.8632530871
   5.4443113579   13.3974465945    1.3996160931
   2.6876019793   15.5656359319   11.3404270001
   5.6406585015   18.5367451473    4.2392775716
   3.9420323792   14.6607725971   11.8420071357
  12.9301570202   15.2235018789    8.9406715304
   3.7009792304    2.8314132237    2.2886148929
  -1.8513580705   15.7561978062   12.9509817066
   6.0643550835   15.3819043451   18.6098838637
   3.1163120346   11.9678243975    2.4259434965
   7.2965053769    0.8089468871    5.6761100579
   5.5057697289    0.8131597389    5.9803639944
   4.3538342983   13.3759217962   16.6460005886
   7.0695254074    4.1880473491   17.1074425198
  11.5858593642   19.1113972638   12.2453766770
   3.0196007833   14.9015901533   15.3781328620
   4.5530739575   15.1444045298   14.5844187598
   9.6128671037   14.1292531317    9.0609716687
   3.9920107376   16.4363635899   12.0375798269
   5.9023367516   17.6525027029    2.7808744604
   7.9669309411    0.9317349753    2.9255895938
  -2.0866689498   17.3348850839    9.6752597238
  14.1085219084   18.6788791611    4.0541742360
   6.3956677880    2.4547593707    2.1960308249
  12.6454932488   18.0247195036    3.0480939466
  12.8701120762   17.4246938839    4.5214948461
   3.5609780204    1.8576794062    3.7533279955
  11.6269171185   16.0896660242    8.4258259222
  13.1458625481   17.5441278626    9.6268016010
   9.8191688863   14.2625043953   12.1102173087
   0.8649254492   18.5832977472    9.3002377789
   2.1395836555   11.9894294691   10.9609455269
  11.3455429556   13.2553102076    2.8669334508
  12.3928310705   12.0874486181    3.7605553721
  11.2603106969   17.9610074019   10.8605673350
  12.2782664448   16.7330238923    0.3869885020
  11.3768866153   15.4635553072    1.2227589064
   1.7532856713   13.6984221323   11.5868805937
  11.7250962643   17.4003827767   12.5529565152
   0.4880079186   12.6807079626   11.2513920788
  13.0163089543   13.1702746584    2.4937409746
   4.2838509918    2.7058431697    6.0612845328
   9.3954735698   15.7648132110    9.9951640491
  -1.7477041632   13.7573710550    7.7538812460
   9.3473731728   11.1774533780    9.9083077808
   5.0172422674    2.9622913058    7.6259113204
  13.0465631296   15.2262101082    1.1125712121
   5.7901757842    4.9298837735    5.4550684620
   6.0457606873    4.8557894951    7.1518283520
  14.4957072612   12.0889164812    7.6427727674
   5.0553216623   19.5571488932   14.3261213136
   0.3103711596   19.2834475139    7.8196797396
   1.6183249661   18.2377651981    7.7835521288
   8.2307423865   14.4319227034   11.3762995980
   3.8347024036   16.9625733740   16.0858121782
   2.3853989845   17.3463935614   15.0672497466
  -0.1984869303   13.0407626130    8.4594704176
  -0.8322702793   11.0647696320    7.3391759948
  10.6163399169    2.4032187271   14.4665881944
  14.0390083886   15.2974325498    3.5009564728
   5.0450094401   18.8201037650   15.9250609687
   8.6038177471   12.6399895534    9.4778053274
  14.9490612014   10.7875447269    5.6932256260
   3.3942655307   19.4774746280   15.2803758314
  -0.5792087029   18.9228381003    5.9705476436
  -2.2288742013   18.0524051566    6.1578770837
   7.6050610037   11.5167606759   10.6352199057
   3.3879315809   12.8759545316    9.0646133290
  -1.0108282171   14.1480877198    9.4351312602
  13.7306942879   15.2220481882    5.3850886228
   3.2909261841   14.5933989102    9.6877418559
   0.5105029716   16.6662531516    6.1846384725
  10.4106744417    2.6209549425   19.1669562729
  14.5860027373   11.0460736730    9.1774367465
  -1.0730716015   15.8509107908    6.7518156666
  14.9945138087    9.2085434072    5.1000328048
   3.5314013176    5.7213159122    4.5922721577
   7.2494243351    8.1532215706    3.8005595664
   4.6326527164    6.9109114056    5.1837010204
  -1.1176364000   10.1486958960    8.8018349622
  14.6532607615   13.1028328628    5.6110026545
   0.7332997618    7.2621883616    4.0632701270
  -1.2111273276    9.9294608230    5.4157439249
  -0.2277283111   17.9691147816    2.7217438773
   0.7735059953   17.3964950067    4.1448380471
   2.1088943711   15.3822252695    7.7766237677
   0.6816450505    7.8193209483    2.3100354945
  -2.0699581897   14.4814441102    5.1233724677
   3.8912473178   14.7577416889    7.5310744140
  11.3814966811    6.1406834371    3.8024325559
   6.9015990248    7.0871339120   17.2738636826
   2.9249572895    6.7939700498    5.7542182449
   0.9322440375    8.9613507627    3.5216254980
   7.1715256631    6.5665955600    3.1220769328
   7.7346761933   16.4821182888   17.7840392062
  10.9674514840    4.6162589361    2.8820055739
   7.0757896808    6.7753570855    5.0049199383
   0.3769393632    4.2986908445   11.9207242386
   7.3754429200   18.2666539322   11.5160895469
  11.0486476827    9.2716705063    4.3354282231
   8.2657294780   15.6341217841   16.2203540401
  13.6721116207    7.0459484312    7.3451399683
  11.5477294750    7.9001457730    3.4231913019
   8.9607246768   18.4795529451   10.7524099362
   0.0308776725   19.0604294252    4.1463078238
  13.3146575648   10.5940671825    1.8100379402
  12.7284423951    5.9416544097    1.8909798762
   8.6807642567    5.1150140663    3.0265662585
  -0.5370043682   12.2513513704    4.2793481949
  12.1793640507    8.9910217497    1.7294992674
  11.5971509509    4.9276955942    0.8412963655
   9.3443487184   15.9195440006   17.6119176845
   9.3244725465    5.2863444498    4.7454785336
   8.2719387664   16.7470960206   10.8423805082
   2.5829617186   15.3275708892    5.4719035140
  -0.3665274115   14.0635253621    3.5485809160
   9.1758783999    9.4311472016   10.7150783094
  14.9722915387    7.2789442636    6.3924586146
  -0.8051854452   12.5185168755    2.6615414633
  15.1927144072    7.2918572119    4.1244384684
   3.7520414905   14.0731817604    5.0180999397
  14.2809453721    5.6928291079    6.3376494946
   7.2325168032   18.5782416383   13.1345172141
  16.6971686172    6.3847988722    4.0714440016
  11.4997696382    7.7752103645    5.8220350791
  14.0574910211    9.0285039335    1.6892529633
   2.0394058322   13.9281977699    4.5605799824
  12.8522780880    9.0098297834    5.8895965214
  12.0303465069    6.7314311656    0.4489726724
   8.5863325718   12.9190858898   16.9178765112
  -1.1747726584    8.3644974968   14.2272404792
   9.0173340756   11.5219532695   18.6923496393
   7.4568338068   17.2341716197   14.0981633122
   9.7698550303   13.6111712057   18.0061666621
  14.6428364687    6.1399102906    2.2831045972
   9.6983260414   18.1433876450   15.0339387218
  15.7712163200    7.1458954734    1.2488556778
   7.3346862630   12.1931238909   18.9674574530
   1.7143424994    9.8144651685   17.0597141167
   0.4633977544   14.1138808289   15.8782186790
   9.7749367278   17.3856662418    6.1418774621
  10.4502445891    1.2305573504    6.3583600620
   5.0987488853   10.3437648665    8.6676538105
   4.1472761252   11.1172565099    4.9605798822
  11.2836875760    1.0765281666    8.0124636823
  -1.1786144953    9.6009686066    0.8920485351
  -2.2491473508   10.9081241238   18.4139118492
  14.1920749340    4.7630215642   12.1420300329
  15.8136561528   13.0300383882    0.8638142387
  13.9844716575   12.9274451474   19.1692973222
  -0.0830113329    0.9485240853   12.0481792566
   2.7300448123    1.3769830666   13.1920283572
  -0.1494805960   17.2839199130   13.1570047432
   0.0166040690    0.8471852289    9.6991365549
   8.2408463345   18.9876057335   15.7629465514
   4.5120252425   11.5576831862    7.4746218593
  15.0844919090   12.8923503559   14.7970874287
   9.7676651084   17.9027929354    3.4274735685
   2.8946646609   10.4986282858    9.0008502645
   2.6157891841    9.2580644594   15.5735859472
   7.6377467506   18.4306256809    5.1403998621
   0.2095572156    7.2800607745    0.1146758764
   1.1724762970   13.4454104537   14.3002144704
   9.5868500191   11.4487714185    2.7764873413
   1.8348763480   10.9940095702    7.6326775360
  11.5983950249   19.9227332476   13.9800827295
   5.2757622430   11.0077082344    3.6459518853
   1.8811103611   12.5407774707   16.7314014217
   1.5165742354   17.9763491341   12.9228250413
   1.3628312669    1.7185836514    9.0828734318
   8.6691162703   16.0607612845    6.5967895810
  -1.7687711912   12.3989104134   16.1524067881
  15.8692546962    4.0080379774    0.6865158555
   3.2983564082   10.5626891213   16.4600290530
  15.1279358840   11.5424546083    1.3525685157
  12.1877114276    0.6868108443    6.4454354002
   4.5178077273    9.4968720093    4.0832097219
   9.9861795832    9.9637969526    2.0863953348
  15.5895248560    6.1820852167   19.2518431426
   6.8824535169   10.3635665840    7.1962948274
  13.3521929290    2.2411241781   14.2674779397
  -0.0976955146    7.6496026871   18.2035404465
  10.3842736431   16.2507615599    3.1423254277
  -1.6363557592    8.3204315932   17.8562359932
  -0.9520581352   19.2899159784   13.7542568641
   0.5604618385    2.1999025976   13.0766476513
   0.5427214521   17.1923663088   11.5184081032
   0.0832844056    2.5907044298    9.8520414575
   1.0816446472    9.2460295126    0.8952487451
  -0.0582242481    4.1321182318    0.6350250938
   0.2858139406   11.6260358935   19.0368987585
   0.2597042032   11.8321075195   16.6276285258
  13.5221178517    1.0524860774   15.6645433198
   8.8282596167   16.6455988674    2.5460505871
   1.6123113469    9.4187502905    8.2750403219
   6.9331671943   17.1758468049    6.3061594441
   5.8920903362    8.8846930507    6.6588036628
   8.5016856642   10.5197769267    1.8809274223
  -2.0712190134   14.1661469203   15.7983942416
   4.9376541787    8.5892961023    1.3073804569
   8.1902201460   13.8623580393    7.1164303456
  12.2797158638   12.7406545770   14.0373075931
   3.4197110857    1.7124247990   16.7172005596
   1.3536612933    3.3947996500   18.4132810717
   0.6459065982    5.9930050513    6.1967240057
   4.4265016291    5.0405605400    0.8563885529
   0.2119977712    3.5104708982    4.8766787687
  10.8865769579   11.6125563917    5.6714776117
   5.3468354380   17.6850777259   10.3092974300
  16.3699045600    0.8764494821    2.0002355213
  10.8675513308   11.4993838790   16.3212694128
   3.3806193473   16.0443292858    0.4226341256
  11.8482506690   16.8428776107   15.9684293761
   5.2869245744    0.7822028628   10.2108895341
   2.7102910660   13.9259270738    2.4257851800
   7.5199614862   13.5063356423    1.7309595904
  12.2338994666   19.3162488383    4.6979417123
   5.1491901607   13.5479035756   18.6775456423
  -2.2902233147   15.8382937306   10.9021691798
   4.0064448065   18.5736187437    3.0366317507
   4.8090217007    0.9569696415    2.1345050643
  11.1081693301   15.8850198010   18.7396325313
   6.4267339418    2.6933796425    6.1106962186
  13.2124548101   18.4083382496   11.5332227331
  11.2582824023   14.7868425023   10.1869517887
   2.6681637269   15.1838074658   13.3061865321
   4.1684856209   17.8104615287   14.2342589522
   9.1127366663    3.4108602634   15.6591429619
   8.7368309062    3.3229233938   17.9876972065
  -0.2055309696   17.3367273460    8.1127755046
   9.2171657563   12.5953307519   11.3602159690
  12.5498165801   14.0306701413    4.3582134062
   1.5245393498   13.4751284855    9.5973113023
  -2.0102916482   12.4575939535    9.4471327863
  15.5921182373    9.4325455241    7.1569245276
  10.8796281135    2.7625962797   17.1206086289
   4.1570667829    5.3735401922    6.5977181611
  -1.2250020000   17.4371845463    4.5036992344
   8.9135982392    7.0868510357    4.0233181606
   7.6920773714    6.6531742155   15.3450455790
  15.4301740266   13.1907306974    3.6564702998
   2.4639901499   13.5408617184    6.5806427959
   8.5789430119    7.6498100348   11.7478486177
  13.2772280419    6.9936748434    5.2266191874
  -0.9635535613    8.3323673035    3.3798299717
  -0.0199022359    6.3430318250   12.2397565531
   7.9247574927   14.5202985071   18.0459943121
  10.7043324195    6.4543148367    1.9737665053
  13.0095263187    9.4399853601    3.6281624191
   9.0174014626   17.5831838756   12.6729675583
  15.9921426137    5.0440091060   11.4522911532
  15.5917821042    7.0714432724   12.7830212200
  16.7726184353    5.3778390676    1.9309070206
   1.7032570408   11.1279161643   15.3281984575
  11.9067261437    0.8677181652   14.3463767724
   6.0584301060   10.4890481115    5.3859009102
   8.0331706736   18.6899721323    7.1661088382
   9.8648422200   11.7807280243    0.8702824296
  -0.1901504619    9.7359233161   18.2517413849
   0.1176194554   19.1025941150   12.0195832008
   1.4529176371    1.8625029558   11.0843974698
  -0.8037830596   11.5174575859    0.2612315003
   8.9061695979   16.2745942483    4.5342102725
  -0.7329159328   13.0479581352   14.4950057576
   3.5727529174    9.7080410820    7.3245930715
