B2 C140 Ca1 F48 H298 O66 
1.0
1.7938475633286178e+01 -2.2691618034011096e-16 -1.1938974440626268e-16 
-2.2123258010294302e+00 1.9424034105047681e+01 -7.6961361909398513e-17 
-6.5563061566656045e-01 4.8410561928708529e-01 1.9636260636199868e+01 
B C Ca F H O 
2 140 1 48 298 66 
Cartesian
  10.2540883977    2.7628318003   17.0057398483
  -0.9552760708    5.8769634277   12.1399306490
   0.2230881166    0.7129057706    1.6173228290
   7.5130306835   13.9657904019    6.8181483977
   5.3262876222    6.3283361179    1.2520297954
  12.6934410215   12.6629847382   12.6951037713
   4.0015575764    2.1526753636   16.0346193990
   1.9546751575    1.3471263653   18.8832283029
   1.5712041510    2.6078194066    5.3608898824
   2.5385818906    0.9314569511   17.5183823828
  -0.5310586734    3.4189972061    6.2472994778
   3.7225273355    5.6568200601   19.0364774536
   2.3009015564   15.6249333391   18.9365169157
   0.5494810395    3.1858958436   18.3638307771
  12.2484586709   15.4204917212   15.5146803731
   4.4850575379    9.7310661345    0.7666712398
   6.4334590762   16.7058651823    8.9091777749
  13.3218233466   11.7890980173   16.2554752222
   9.6357658448   11.6490217239    6.2721910068
   9.7111353456   13.1990973196    6.1802040519
  13.3459220421   11.5638487875   14.7025017358
   4.4387695988    7.5736678927    1.5703503955
  11.2269975683   10.6556368049   16.8217387516
  11.8794528610   11.0267246071    7.0497180460
   0.0470931228    4.6483956604    6.9742188484
   0.1978110193    6.9070142256    6.8330100307
   5.2274551173   18.6596380302    9.6572126675
   2.6558774416   15.9990612220    1.5362756385
  16.4286537440    1.5335400397    3.1134640573
   4.0516398439   18.9628051549   10.5930346515
   2.2488271798   14.7878043339    2.1558656134
  13.5227736754   16.3553063104   17.3139925728
   5.3217996481    1.7225638450   11.1069486825
   7.9536524754   13.1693508064    2.9475263302
  15.1441817760    1.0590542954    3.8698724126
   6.6248982211   14.1621990646    1.2266424408
   5.7969224252   14.5115342249   19.3816329821
  -1.6124314168   15.2731243834   12.3855587436
   3.1477630183   12.6183412157    2.6443035005
  13.1553382862   15.4678177235   18.5715576788
   5.9870614673   12.7281538609   17.7221876095
   5.6955578563   17.8469797511    3.7985567745
   7.1286318253    0.2794034212    2.5865340509
   6.0125959627    1.2496806766    2.7677886473
   4.0060784608    1.9650163866    2.4130054689
  -1.9823373935   17.1380989178   11.1316511656
   5.9388321371    1.0864890756    6.4643274363
  12.6951867357   14.9490888276    9.0593021662
  14.4371177045   17.1702254668   10.7026446310
   3.6787001166   15.3746345092   12.4148759339
  13.0226020809   18.0840494271    4.3212873830
   7.1396858967    2.2586156267   18.3475775455
   8.0666860149    4.3963106124   19.4246021043
   8.1305367664    3.4167679326   18.1746054628
   4.4023791185   15.1425331833   14.6975286531
  12.6499320059   17.9240623149   12.1164513278
  10.4893050095   14.5763324480   10.0979491824
   9.4129450226    2.5687231774   13.3232229502
  12.8075689776   16.2540447942    0.6519049789
  13.2245979547   12.7859557898    3.6632349447
  10.1058354799   13.8729616537   11.3544532037
   5.0687885824    3.1173526405    6.5828595564
   2.1477476831   12.4656745016   10.9494975819
   4.8880637368   16.4381253535   15.3043795182
   1.4609925332   18.5533896746    8.4359399100
  10.4300257335    2.6530374692   14.4427990005
  11.5026421174    3.7649636047   14.1952791577
   5.3206587660    4.6160611963    6.4867324079
   5.3388226039   18.5433891309   14.2488010500
   9.7493387161   11.7927663541   10.1249431402
  -0.9505874041   13.3755834680    8.2679370150
  15.7760093923   11.2142573391    8.4417854277
   0.3865839354   17.1535239692    6.7068423444
  -1.1182878726   10.2464317140    7.9160284807
   5.4967435916    6.5960030562   15.6944262034
  14.5127920037   14.7564866020    4.3375702229
  -0.7542102785   17.7842116453    5.8087474728
   3.8026934869   12.8820340021    9.3393156323
  16.3738587591   10.2565199786    5.5665178382
   3.9197297131    6.2823056350    5.5376072294
  11.9158689128    1.9782877198   18.5476284977
   2.1464919145    4.7798234120   13.4609173377
   9.9841747278   19.8415585995   18.7834338071
  15.8928951940   14.2643277661    4.6722414952
   6.9109446665    7.0978695356   16.0037478990
   3.8913793592   13.6710569812    7.9730533767
   8.0533264664    7.4451727342    4.5648231766
   0.5139064954   18.1537619414    3.8976650795
   7.1977717824    8.5960257153   15.8791760539
  10.2239573967    7.4892877065    9.7286607826
   0.8613153017    7.6788910030    2.8618053401
  13.1277097696    2.7968573986   18.8860733223
   2.0854156157    5.4947573989   10.8010212242
   1.3435889150    5.1401471163   12.1204737546
  10.6974085575    5.3293411151    3.2533999235
   9.3292096915    5.8238130881    3.7644863186
   9.0297302102   15.1835977267   17.6359133831
   9.2115972344    8.0183499895   10.8343273858
  12.5084996177    8.3689110698    4.1865386414
   9.0709730056   18.6179904948   11.7623693447
  -0.3390674510   12.9708649989    3.4170638607
  14.1511664422    6.1371939274    6.6436443394
   7.7029983225    8.4638983856   10.4503852365
  13.4317118184    9.4293410004    2.2884233108
  12.2730244162    5.3997822454    1.6564437164
   2.7468989558   14.0525237773    5.8389112123
  12.8537363208    7.8531351240    5.5674884665
  16.4971777116    7.1988926210    3.2986978475
   9.0792547239   17.6341481187   13.9309354609
   9.3979939309   13.0658058755   18.3326243873
  15.2459973620    7.8373234327   14.6250451633
  16.3404930202    7.7090583694   13.5208472505
  16.2108285070    6.3105717184    2.0520443778
  15.1070315299    2.9311017447   11.3397455138
   8.8422694819   11.9294924530   19.3566864677
  15.2335598640    4.4740069721   11.2992661506
   9.9937952731   18.4072739641   14.8625419600
  14.6449984318    5.1388675457   10.0528824338
  16.4864456059    9.1399942736   12.6705173303
  11.7479225542    0.4080072807    6.9388998789
   3.0885599619    9.7032402096   16.0959055651
  -0.4956037508   10.2455898144    0.2353951483
   1.3751187712   13.0752414401   15.7960665112
  16.0194946215   12.2174648500    0.4463289956
   4.9767971677   10.2115216585    7.3599123769
   5.5127206973    9.9305089349    4.3471312646
   9.7121694972   16.5613051606    5.7717577937
   8.6747965919   17.6058489587    6.3381885501
   1.9784934185   11.7923694432   16.5002611441
   2.5563393101    0.3601280202   12.5467314116
   1.2852182258    1.0244595949   11.9931964862
   1.4001344317   17.6896396778   12.6443259922
   0.5767265980    1.3902076007    9.6153865198
   9.9551463898   10.3295863364    1.7560116872
   2.6203268725   10.0019227688    7.3912302825
   6.2997608671    9.7823702272    6.6030365025
  13.6371626399    0.9662140243   15.0867037262
   0.1237105578    8.1987064916   18.6545393144
  16.4437980288    4.4048240829    0.6262330086
  -0.9996204609   12.9909186145   15.7046635439
   0.2910804730   10.3687118611   19.5596087725
   9.6522895591   16.6481205559    3.3179809930
   8.8536970487    6.1711558999   13.6330361682
   6.7525269092    1.7609001926   17.1415444284
   8.9866813930    5.4704169824   19.2425587330
   9.0513023548    3.8262923171   12.8088090282
   7.6990223172    1.3380024682   19.1604031824
   8.8746989713    3.2933136494    1.0013894144
   5.9764080386    2.5312979874   19.0511689290
   6.8313600437    4.9063125257   19.4139598169
   8.3076914256    1.9932409283   13.7032440641
  11.9942271665    3.7454612888   12.8757037571
   9.8353749120    1.8053211924   12.2698135556
  12.5562017038    3.8243898015   15.0493768366
   4.5172321330    7.2696195869   16.3745618762
   5.5440978732    5.2832338086   16.2154008064
  10.8585762002    5.0684904861   14.3536002134
   5.2214854211    6.3905002346   14.3671038584
   2.8627847662    3.6479357920   13.1802926758
   8.8290442560   19.1908618287   18.4608393573
   2.9853179476    5.7907783151   13.8637848659
  11.5101548553    7.6113337159   10.0292606771
   1.2898225303    5.2576630487    9.7923427529
   7.5556390743    8.8345358064   14.5751777439
   8.3500538105    8.9137403476   16.6595614347
   1.3714921296    4.6188492739   14.5618054718
  10.1234618707    8.2956804820    8.5746021019
  10.8580464872   19.0035196241    0.4265486606
  14.2179433150    2.4876607329   18.2013108101
  10.9090084141   19.4020509224   17.9146551368
   3.1549233063    4.7080215626   10.6226358390
  10.0520455962    6.1517322891    9.2720602967
   7.1798204675    9.0518304169   11.5328509228
  14.0352784020    2.1300144613    0.6503795757
  12.8870048656    4.1223901838   18.7969756341
   6.2758708251    9.5629971875   16.1511464634
   2.4703939212    6.7903664818   10.6433544707
   6.8896798374    7.4357517509   10.0252129295
  15.5662852114    8.8756156780   15.3929848791
   7.5937916036    9.4322937699    9.4628286532
  13.7822661736    2.5775059229   11.0563874626
  13.9888810991    8.1257923394   14.1859743190
  15.1938265460    4.5074161856    9.0010007374
  15.7847183812    2.3522132485   10.3626921663
  14.9273444487    6.4466242025   10.0141449399
  15.3884865547    6.7197283262   15.3858321400
  -0.7584843587    8.8560754494   11.4971298706
  15.3259226095    2.5042602704   12.5780070289
  -0.7241412542   10.0170330988   13.4501683222
  13.2368190923    5.0907636462   10.1595421651
  15.2857147083    9.7258346924   12.4068233744
   1.0003568758    0.8364363095   19.0632065602
  13.6995373674   12.7482482504   16.5163739854
   1.9945336228    2.4464776707    4.2299736083
   5.7487474063    6.0196095511    2.1834789948
   5.6908196683   16.1627332593    8.3936585092
   9.3930669087   11.5322205693    7.3495684114
   5.9888560615    6.6462643369    0.5414605330
   4.4986907570    3.1055037238   16.0771398667
  16.4823121342    3.5836228189    5.6933147191
   0.5533655557    1.7038836691    1.4521486061
   1.2378422895   15.4524837298   19.1722538410
   0.3032592903    0.0966120735    0.6763087107
   7.0363169204   14.2805687856    7.7067658245
   0.1603843638    2.3348774355   17.8923075581
   0.8521069527    0.2344038406    2.3612935637
  11.6829019770   12.1961630530   12.8734945502
   0.4211111810   19.1859353269   17.6059362540
   7.4785990307   14.8141513811    6.0925884241
  13.1022503179   15.3292243316   14.7856038968
   5.0801376958   10.4239631320    0.1384249793
  13.1933561089   12.1789970018   11.8367143848
   3.6585939112    4.5831229004   18.7378955835
   2.7469184260    6.1101160906   18.7619091173
  11.8006106033   10.1809604004   17.7024145069
  12.0080687409   10.1368918639    7.6776475802
   1.6346793531    1.6244621643    5.8452966001
  -0.4951992707    2.5515646212    6.9273977558
  10.8091544519   13.3971881775    6.4113834211
   3.2140047288    2.3475305491   15.3461946562
   6.0624270646   19.3794199960    9.7486860660
  12.2100152747   14.3277200719   16.0459525395
  12.5758961659   10.9091188713   14.3529705701
   2.8018657590   14.6633675647   18.8762129537
   2.4685024449   16.2159484910   18.0676225202
  11.3493583056   15.5129493905   15.0222452904
   7.0374159214   17.4227178596    8.2840502368
   0.8364797629    3.9581157151   17.6614592255
   3.2342346476   16.7657535926    2.2313820804
  -0.8911925623    7.0939915374    7.0532745777
  13.9959597410   11.0979903487   16.8602083095
   2.1978958182    3.3175663815    5.7787329683
   7.1474222452   16.1562753310    9.4599071011
   8.6465704710   11.3047874127    5.7758137521
   4.0242336605   10.2675277912    1.6531262918
   7.2115923477   13.0290962822    6.5512959248
   3.6831117237    9.3974765677    0.1315090515
   4.5075258620    6.2720363284   18.6309919639
  12.4367674587   13.5990098793   12.2091365098
   2.9018472397    0.9883961606   19.5757881516
   4.6316894318    1.4260547357   15.6330636589
  -0.1650260178    3.6995548239   19.0420755297
   1.8189650596    0.9028632743   16.7033992167
  17.1655162495    1.7956508039    3.9136076773
  16.1760846625    2.5204869705    2.6486976299
  11.2845465547   10.0146051428   15.9259882483
   4.1900212873    7.7009293883    2.6619263454
   3.5422512359    7.5816044675    1.0211545848
   0.3577189759    7.7395759483    6.0914786721
   0.9234857998    4.4726542502    7.6148853920
   1.8250788387   16.4984086715    1.0522036080
  12.8199182901   11.4229139017    6.6938768146
   4.5119222011   18.9951489694   11.5560413605
  11.5277150413   11.9695722755    7.7395127654
  10.1934203886   10.8341262723   17.0553428772
   9.5349690132   13.5306619356    5.1805399793
  14.2197043339   10.9845368064   14.5022587821
   4.8219489133   18.7035780128    8.6758384373
   7.9351883621   14.1222332816    3.5169683686
  -0.8036954045    5.0310116916    7.6562884433
   0.8852831486    7.0439350405    7.7945285342
   6.7920884085   15.2174173723    1.4647721405
   6.1673641592    2.3670867195   11.3555844555
   1.5908022320   14.1755192012    1.4236861331
  13.7093139897   17.4370408705   17.7340010847
  14.3342248761   15.8737368317   16.7543934971
   4.8755709581   14.7832199913   18.9519247319
  15.3064898302   15.5377830264   12.7971396592
   8.9776129541   12.7073933275    3.0545268890
   4.4311111637    2.3246931147   10.7622168143
   3.3144483435   18.0194335513   10.6080223513
   6.1066453817   11.6158333125   17.5834467702
  -1.5467928276   14.1915497788   12.3784041275
  14.4109479758    0.6251623430    3.2105523735
  14.7705421388    2.0105113493    4.4598085180
   5.3691110211   16.8332186606    4.0494337134
   5.8279359578    0.9290511506    7.5611595055
   5.0670558185   19.4522982005    1.5396138576
   1.5493284384   15.0072679625    3.0752051849
   5.8895619064    1.6789324724    3.8245297055
   2.9540051414    1.7218676501    2.1912768689
  -1.8826460549   17.6253383215   12.2377264145
   2.6146256759   12.3203745306    3.5729064409
   2.6030705242   12.2110451131    1.8996346714
   7.1662283444   12.4979833661    3.3069243984
  13.0158956186   14.4356508465   18.1716266438
   5.1513363162    1.3623479399   12.0778001389
  13.9213238182   15.4078895709   19.3938945422
   6.8379241392   13.1873800314   17.2835632633
  12.3715365514   14.7192578507    8.0049695478
  13.8861305033   16.2589941270   10.9435667700
   5.5520389112   13.8245444410    1.7076628320
   2.6825602834   15.0194633964   11.9594516395
   5.9444076402   18.3795831483    4.7609669503
   4.4497583335   14.6564998833   12.1520618182
  13.7701046493   14.5809585393    9.2762860812
   4.2880251757    2.7658500777    1.7350215317
  -0.8291924079   15.5832437103   12.9622046659
   6.6907688138   14.9508604833   18.9546327574
   4.1931898701   12.3174183548    2.6408785139
   6.8585708682    0.5462790176    5.9910195264
   5.0202194235    0.6566325246    5.9392392111
   5.0473547223   12.9553655138   17.0787686997
   7.6348880029    4.0141956640   17.4084354310
  12.3624575675   18.4276180103   13.0037506065
   4.0367764236   14.4628677549   15.4688474376
   5.3343691531   14.7716230445   14.1992977369
  10.0682943631   14.3749483617    9.1826574997
   3.9316535976   16.4652851505   12.0500852871
   6.6002153138   17.8956021669    3.0892683772
   8.0192633734    0.8012779916    3.0457755528
  -1.3625163387   17.6788037396   10.3491164105
  13.9047464939   17.7161333423    3.6983926283
   6.3775068703    2.1081652929    2.1584813917
  12.2394219724   18.2832523917    3.4397653171
  12.3838916136   17.4094860428    4.9671917218
   4.0646246255    2.4164980868    3.3994460032
  12.9136236426   16.0434681271    9.1530926680
  14.3213535576   17.4536325237    9.5838093064
  10.6468869206   14.3773406879   12.2704965923
   1.4897282118   18.6236174858    9.5975478603
   2.7676207320   12.5332365160   11.8981483851
  12.5231171797   12.0320075126    4.0897720085
  14.2115235045   12.2861331111    3.3465682925
  11.8957829087   17.9486453319   11.2984937327
  11.7701469175   16.5038634813    0.8568691897
  13.1996592478   15.7064163198    1.6440479974
   1.0989045547   12.7399090567   11.1857662907
  12.7775788994   16.8370874901   12.2989314554
   2.1617678953   11.4756172126   10.5601078816
  12.7501755647   13.2089829254    2.7132207978
   4.1574405846    2.9041912411    5.9179756987
  10.3970041112   15.6869899048   10.3059307110
  -1.6721307148   13.7774298019    7.4870361071
  10.3711749753   10.9403179654    9.9819024780
   4.6880018286    2.9745241996    7.6326277110
  13.4590581274   17.0797998580    0.6512877892
   5.9861934393    4.9567995402    5.5935531496
   5.9415091885    4.9845058361    7.3443660477
  15.0892157895   11.5174584688    7.6565198903
   5.6714813214   18.8207854765   13.2548606274
   1.5611097173   19.4541455716    7.8994004717
   2.5649200936   18.2150408279    8.2766142987
   8.9798627765   14.0583885418   11.3824272423
   5.5092223864   16.1562380325   16.1848823816
   4.1036796433   16.9414816629   15.8842223046
  -0.1079179522   12.7752865904    7.7786744315
  -0.2063808223   10.7179065651    7.5370101358
  11.1073811174    1.7675913865   14.6157050490
  14.4508701166   14.8634047193    3.2648781259
   5.9173120666   19.0765087366   14.9560458146
   9.6442994216   12.3896211140    9.1972190056
  15.8425318991   11.2125532342    5.4937807386
   4.3343738382   18.9563528742   14.4554080024
  -0.6987982622   18.9249373470    5.8666669746
  -1.7745871579   17.5584438702    6.1025115564
   8.6204627645   11.4525647060   10.3530600064
   3.6444519829   11.8454066908    8.9974673011
  -0.5223556579   14.2525604233    8.8039318175
  14.2947520866   15.6692030938    4.9987326864
   4.7159024502   12.9983467624    9.9915763327
   1.3014824644   17.2999055094    6.1566443920
  11.2078505673    2.0882499814   19.3618307030
  15.1286299385   10.6105543166    9.0815698400
   0.2060355026   16.0100776566    6.7316664765
  15.9108309337    9.7148138936    4.7118996157
   3.0458622774    6.0023684380    4.7861441015
   7.9867827513    8.4911621872    4.7492566416
   4.8828012573    6.3861580961    4.9923181492
  -0.9323828150    9.4857384910    8.7118125497
  15.8514361931   13.6710822547    5.5858674074
   0.9975752402    7.1265746587    3.8141050466
  -0.4515640967   10.4810774024    5.4588068312
   0.6438502545   17.8312688389    2.8113593698
   1.4976752091   17.9197719950    4.2868221499
   4.2103131524   14.7794966506    8.1891453214
   0.8989787014    6.8685988961    2.0383028994
  -1.3434200238   15.0859684260    4.8262005630
   4.7614081092   13.2980259248    7.3976012470
  11.3736634674    5.7742024973    3.9283924213
   6.9652177485    6.9059846398   17.0641572058
   3.6074877225    7.2698506597    6.0387362369
   1.5430586915    8.5183860841    2.6544011059
   7.2655870984    7.1429547773    3.7970580922
   8.4496003328   16.0772529501   18.0423569250
  10.7363842694    4.2104326678    3.2611382673
   7.8789483381    6.7997314211    5.4928830265
   0.8577600045    4.1818551618   11.8893327292
   7.9637987524   18.6850329605   11.6547399533
  11.8488947823    9.1618427510    4.3516643818
   8.6122404016   14.6805175965   16.6840392002
  13.4787411277    5.5158289225    7.2097148702
  12.1704396694    7.4964057189    3.5824832827
   9.3914540738   19.5065950019   12.3113343209
   0.2714587735   19.1904595574    3.8925862410
  14.4330700490    9.9323220149    2.1478180696
  13.0201630256    5.8691189201    2.3233910912
   8.6081574036    5.6858704012    3.0230720832
  -0.0033988607   12.3265857271    4.2088730688
  12.6297081496   10.1429140420    1.9960398694
  12.3805067360    4.3570710493    1.8197943761
  10.0277389450   15.5407673772   17.3053046535
   9.1949894499    5.2044450648    4.6595952444
   9.4407229939   18.3448240063   10.7894861131
   2.2047552532   15.0398696953    5.8149238890
   0.1245541139   14.0053673745    3.4715248193
   9.6044755907    9.0885802971   10.9334066613
  14.5079954180    6.9220322149    7.3888366937
  -0.1848455211   12.4815099276    2.4707987533
  15.7095312440    7.7103753731    3.8048082024
   3.7639652848   14.2445390318    5.5496119364
  15.1244641253    5.6641910619    6.2196501005
   8.0290785811   17.9928653411   14.1453999293
  16.7687458493    6.4583368005    4.1056331999
  11.8768544479    7.7393626901    6.1222393257
  13.3356948014    8.5679109702    1.6293824059
   2.3353432808   13.3649670244    5.1522072015
  13.4823370875    8.5645566029    6.0957890079
  12.6596318805    5.7360209141    0.6890664456
   9.2986583919   12.7548758170   17.3201886251
  -0.6168481403    7.5579129786   14.0850779237
   8.7031511624   11.0264357270   18.6513232224
   9.0524778307   16.5529704176   14.3338708403
  10.4526729743   13.1677109043   18.4631005979
  15.1863392393    5.7193604953    2.2825986663
  10.9987788027   17.9761788167   14.6134529254
  16.0988425898    6.9680888679    1.1021651826
   8.5334393878   11.8383131998    0.1592863365
   2.3195358380    9.0012188457   16.5338000619
   1.1326576257   13.7435149060   16.6074647438
  10.8176662100   16.9393938222    5.8087958299
  11.2650846605    0.7316568029    6.0184683512
   5.0338037547   10.2785508159    8.4495903630
   5.2280941303   10.8953912312    3.7276958583
  11.5546786538    1.2737867047    7.6136874340
  16.7963832675    9.6248305402    0.7508108870
  -1.7098679826   10.6166347512   18.9400771650
  14.6154036426    4.9441713482   12.1889684454
  16.0152453064   13.1266111987    1.0101777570
  15.2411564033   12.6793865456   18.9022410181
   0.4095039484    0.4136035773   11.9689286185
   3.4780201128    1.0533563765   12.7324225480
   0.8108584286   17.5751068071   13.5638298930
  -0.1257559699    0.7157839204   10.0781324248
   9.7073894441   18.2489114020   15.9082177903
   4.6565158954   11.2390429300    6.9763674884
  -1.8235299419   13.0483590080   14.9220597925
   8.8393548279   17.3821101170    3.0584082055
   2.2243514880   10.0034251768    8.4188875015
   3.8013226355    9.3683067339   15.3457583226
   8.2821515748   18.2431526711    5.5817208313
   0.7876198508    7.7793223944   19.4216476824
   2.0827068892   13.6528459490   15.2454402266
  10.6579797807   10.2393193728    2.6412131871
   2.6885757943   11.0595904644    7.1197606072
  12.1283213435   19.5412568742   15.3987983661
   5.9837082933    9.1639342795    3.6208613119
   2.8152127299   12.2312684947   17.0822135766
   2.3903439683   18.0087763061   12.8756973400
   1.0883677139    0.8664372747    8.8348552299
   9.6864724191   15.7261001152    6.4827252546
  -1.2911664986   12.1571494764   16.3193841091
  15.3646277003    4.6671118954    0.5773489910
   3.7097403627    9.9082100256   16.9282952837
  15.1480820518   11.5932465643    0.8132102431
  12.8105567304    0.1907221401    6.7981906364
   4.5372906287    9.6771162399    4.8482436054
   9.5872310056    9.3091767073    1.4133884770
  16.2809645234    5.3424497244   19.3157014502
   7.0189252474   10.2447289775    7.2519069893
  14.1143720642    1.4768936749   14.2615743938
   0.3949300254    7.6869350031   17.7054169643
  10.6663610078   17.2347967687    3.1736650557
  -0.8923536088    7.9792168598   18.9600527310
  -0.0521823807   19.3950061653   13.5324832653
   1.0494363863    1.9632739490   12.5482629608
   1.3077989872   16.6639955425   12.1735748664
   0.0496339104    2.3159131916    9.2636076867
   1.5216681384    9.3727509012    0.6496179130
  16.9313765216    3.4612056960    0.6615326483
   0.9092481152   11.1438180216   19.1741165145
   1.1957670932   11.3670981958   17.2550440875
  13.6272029054    1.5050564712   15.9599696389
   9.8064622456   15.9196629587    2.5750188039
   1.9683298888    9.3696584801    6.7269924740
   7.9095353386   16.9078132900    6.6381917857
   6.3726785221    8.7392578015    6.6024829769
   9.1177156912   10.9129105076    2.1908502999
  -1.0958738088   13.9287428392   16.1995973595
   5.2963918795    8.6957587642    1.2673402237
   8.9252438591   13.9100176729    7.2104511764
  13.5622478825   12.8084676545   13.9415958380
   3.7467235412    1.5087852852   17.3860111732
   1.7191732801    2.7121446607   19.1552221723
   0.4279885426    5.6533069286    6.1236504582
   4.5631672295    5.2539674712    0.8280316707
   0.2998202613    3.0667126247    5.1523834315
  10.8703922821   11.0029219565    5.9423394901
   5.7123961917   17.3929354745    9.9830626072
  16.8031400922    0.5941441292    2.1532606005
  11.9764422828   11.9094498245   16.7634956791
   3.5964510619   15.9296632412    0.4519699496
  12.5307058332   16.5620141585   16.3366947520
   5.5712122441    0.6734003381   10.1687755540
   3.3952850323   13.9763858915    2.3696826532
   7.7549863108   13.4513561814    1.5827283412
  13.2631453315   19.4388709762    4.8542077605
   5.8239201365   13.0835367205   19.0583706345
  -1.3268763817   15.8183618091   11.0799112290
   4.6111382502   18.4210868593    3.2202913964
   4.8274661801    0.8024689274    2.2396042370
  11.9572804936   15.8754375787   19.1779313347
   6.2222416225    2.4482088888    6.3126490237
  13.9344176868   18.2456657953   11.5546166660
  11.8818722922   14.1616175274    9.9302164585
   3.2542123946   15.2606193607   13.8420210979
   5.3854324833   17.1463677891   14.2455552232
   9.7685058813    3.0472860637   15.6601965560
   9.4496556635    2.9608987229   18.0910986788
   0.5308915454   17.5787096357    8.0262780615
  10.3227410373   12.4358310899   11.2393602273
  13.4522517624   13.7956279322    4.6522395264
   2.6409696823   13.3718267874    9.9503412729
  -1.6639817766   12.4152276934    9.2057907950
  16.1650647486    9.5429988379    6.7513974606
  11.5199547008    2.2550561618   17.2438417839
   4.0727466136    5.2668984444    6.4750802569
  -0.5238062000   17.3203608573    4.4300636082
   9.3920096143    7.1540070400    4.1816942725
   7.8366172219    6.4334006569   15.3016719557
  16.1638804640   13.2661210778    3.6073638504
   2.7289811702   13.4909862437    7.2409815731
   9.2212665699    7.4397610783   12.0280188250
  13.6681215226    6.7179789533    5.4094321154
  -0.4062013505    8.2514956330    3.0068410252
   0.4269527550    6.1373025733   12.4239634052
   8.7714834665   14.2973573361   18.6311045889
  10.9571460410    5.9178555818    2.0134316115
  13.6830183458    8.9841057288    3.6942234070
   9.4821163506   17.4771919127   12.5830617263
  16.6173040435    4.7460969356   11.4353227192
  16.0456055956    6.7276616666   12.6017333783
  16.9544159139    5.1347829911    1.7898274897
   2.4446521330   10.8718635940   15.5684349835
  12.3600114966    0.4548268179   14.4882898663
   6.5116955811   10.3562501200    5.3390032725
   8.9769643122   18.5596324562    7.3782495124
  10.4633470664   11.1578368725    0.6892258040
   0.2806804293    9.5598090851   18.3141657590
   0.7261135584   18.5977978473   11.7799369185
   1.5805495732    1.6714388482   10.6840159204
  -0.6769024177   11.5145493663    0.7245502027
   9.5030293766   15.8431912105    4.5603277078
   0.2201871629   12.8245777658   14.9451204149
   3.8346957449    9.3577194216    7.0687425932
