B2 C140 Ca1 F48 H298 O66 
1.0
1.7926176523510691e+01 1.4912579416381852e-16 -1.1966510013112032e-16 
-2.4843606693502682e+00 1.9469963944201140e+01 2.4667915167728375e-16 
-1.0865881559684183e+00 8.0897840913643360e-01 1.9451828590992157e+01 
B C Ca F H O 
2 140 1 48 298 66 
Cartesian
   9.7699031721    2.9480559703   16.8613836550
  -1.2957855621    6.0435929803   12.0834996291
   0.1057310061    0.7937755155    1.7667483589
   7.1510342142   13.8960266001    6.6190952889
   5.1401103342    6.2257199987    1.3225260180
  12.3636079217   12.6446469291   12.6693349041
   3.5424072452    2.3020126554   15.5355431063
   1.6239944619    1.8672576640   18.4225715753
   1.3350382934    2.7990877953    5.4058078553
   1.9792928685    1.4513489932   17.0065246191
  -0.6885843132    3.9174581695    5.9736431975
   3.1071428459    5.9252526421   18.8078622935
   1.7556190608   16.1855395670   18.7885291610
   0.2108195295    3.7154525737   17.7666984641
  11.8698045507   15.6887475190   15.2791086417
   4.4533235696    9.7963271053    0.6490888134
   6.4246590419   17.1850563352    9.1056594470
  12.6067833737   11.8565757743   16.0683444970
   9.7508449000   11.8931852019    6.2765478760
   9.4671337236   13.4449352267    6.1831527623
  12.9556594496   11.5844311665   14.6349030946
   4.2131009581    7.4673182228    1.4080527892
  10.8120901729   10.4714498546   16.7387106417
  12.0323412878   11.4744530605    6.7946196562
   0.0277202525    4.8178956387    6.9607771191
   0.3307151487    7.2281862163    6.6883043909
   4.7329502257   18.8050706202    9.7083126118
   2.5623263846   16.2671957543    1.6508470537
  16.3124518523    1.5699785570    3.1893197388
   3.6502974801   19.1372294143   10.7561022392
   2.0744534244   14.9524582775    2.1470853687
  13.0938738707   16.6907788606   17.0233323436
   5.2805057201    1.8288139108   10.8956306494
   7.5743494241   13.7664038150    3.0549507949
  14.9657462427    1.2209545836    3.9055047895
   6.4334191039   14.2742580985    1.0016807075
   5.3383893496   14.7923570393   18.9772876863
  -2.1800009066   15.5189796426   12.2900775363
   2.5809239734   12.5610077813    2.4543183021
  12.6851101489   15.6884041917   18.0382629280
   5.4824255759   13.1225127414   17.2257210357
   5.4445188331   17.8843979459    3.5074897054
   7.1426740076    0.5562212756    2.4053542106
   6.0877601261    1.5286309957    2.8146539279
   3.7212320556    1.6871839872    2.4627496098
  -2.4010492035   17.2811945055   10.7983037120
   6.3255091362    1.0591256447    6.1558546897
  12.1591837069   15.2131942767    8.7901455506
  13.9769067756   17.4779920062   10.6942571658
   3.6019784396   15.5117545018   12.2238910164
  13.1257462982   18.3202983973    4.1404043692
   6.6625460053    2.2786894096   18.3180251174
   7.3998617717    4.5476342697   19.2174007790
   7.5506611400    3.5130178399   17.9853116437
   3.8618691602   15.3317984261   14.6366694452
  12.0346103593   18.2671141813   11.7830331149
  10.1445561249   14.7891209521   10.0974522754
   9.0500958415    2.8413412740   13.1229264985
  12.5104982702   15.8743378305    0.4659699114
  12.7036964777   13.1091335678    3.4251497058
   9.3323779745   14.0384647708   11.1073267980
   5.0903699781    3.1983502833    6.6292268849
   1.7565132604   12.7584158709   10.8050246624
   3.8612076099   16.8210391150   15.0554383219
   0.9397056363   18.5638573939    8.1412934532
  10.0238343169    3.0712103088   14.2872950494
  11.0367001656    4.1955431951   14.0287160267
   5.3183086970    4.7297297228    6.5086231124
   4.6345834170   18.9835086490   14.4967679628
   9.1289402004   11.8578645673   10.0844079704
  -1.1796489948   13.3185315567    8.5505299507
  15.3406357441   11.4298656166    8.4629769763
  -0.0647927026   17.0108006511    6.7048702868
  -1.5246605169   10.4845747893    7.9824976322
   5.2522947806    6.7608317406   15.7498563354
  14.0755113032   14.7232377658    4.4442306148
  -1.0236766160   17.8583331134    5.8832079884
   3.1612890825   13.6288161034    9.0515783201
  15.5864938016    9.9345214459    5.6812355461
   3.9258567798    6.3563881439    5.4459330174
  11.5173882700    2.1997293041   18.3539563305
   1.8089866815    5.0404074081   13.3312198482
   9.2882200856   20.1850771448   18.4876259034
  15.3746849382   13.9983561256    4.5182707253
   6.7554200197    7.1616576323   16.1201338084
   3.1824252561   14.2328354815    7.7170919742
   7.6367485815    7.4531943677    4.3320382177
   0.1552863201   18.2512220421    3.8035109599
   6.7841984206    8.8252629545   15.8874250283
   9.7278378177    7.7815655178    9.4436524344
   0.5552766216    8.0998497786    3.0387161050
  12.6885223894    3.1671583293   18.8057128933
   1.8969106232    5.7015579873   10.7785917014
   1.0416682488    5.1730921378   12.0156069679
  10.7151026723    5.5086892602    3.2786199729
   9.2502362832    5.6972311099    3.7805099669
   8.4697036559   15.5322510471   17.4022390835
   8.8730489524    8.3807166973   10.6020701247
  12.2245234601    8.5056921624    4.1360442960
   8.8750270700   18.2259000843   11.3229720751
  -0.7107563349   13.0749587292    3.4326186288
  14.1727307389    6.5706485503    6.4716040552
   7.4302619975    8.5903057966   10.1143261128
  13.4716696186    9.5421445908    2.2211546528
  12.1240835116    5.9075743651    1.3109426988
   2.7814972451   14.2035922096    5.3712652734
  12.5474319917    7.9627238541    5.4947483112
  16.1548003269    7.1923577998    3.2974727695
   8.5263245059   18.0928196751   13.7262686408
   8.9087556071   13.1692068328   18.0325571998
  14.8805297972    8.0300345699   14.6477744934
  15.8672872433    8.0316836447   13.5030777755
  15.8434104555    6.5254625876    1.9793539079
  14.9191808799    2.9709766345   11.0441730596
   8.6536730465   12.1456588547   19.0263791844
  14.9040911961    4.4865888926   11.1912072372
   9.4131249125   18.5975916064   14.8632611183
  14.1981405852    5.2916157934    9.9660082205
  15.7903081304    9.4112165616   12.6950612206
  11.4254282998    0.4712227679    6.8280554856
   2.4747583064   10.0268185875   16.1833538616
  -0.6879660738   10.1985160699    0.1290953531
   0.7565517549   13.2298637567   15.4383468816
  15.9578710868   12.0908217244    0.5162196075
   4.9008897177   10.5467196434    7.5273064492
   5.0960366886   10.2724064022    4.5126377893
   9.1904636561   16.9065240988    5.7266266019
   8.1484487680   17.8791300665    6.2089233572
   1.2698562670   12.0667349455   16.1834776946
   2.2927175664    0.5485013415   12.8007960135
   1.0346979695    1.1797874575   12.1473323357
   0.6790514625   17.8860883584   12.3428798484
   0.6332602661    1.5193394538    9.7055446718
   9.7317764019   10.7254611855    1.8649527798
   2.5545567625   10.0846855958    7.7682771482
   6.0277682933    9.9298009926    6.6686525311
  13.2748120576    1.1486450248   14.5929098252
  -0.4493727594    8.3932460312   18.4892710188
  16.8274196759    4.6804350204    0.6267973235
  -1.6044655301   13.3209309201   15.3192821212
  -0.3489681908   10.7117264566   19.2088248532
   9.5157935351   16.9481961236    3.4718989382
   8.5252905372    6.4148650966   13.2468313384
   6.3310645964    1.6317799933   17.1797720641
   8.3401672600    5.5951467810   18.9977094043
   8.7341570744    4.1169779736   12.5102663040
   7.3010246671    1.4082436751   19.1114550932
   8.6953778395    3.3267984819    1.0443643376
   5.4325495875    2.7181872275   18.8887379053
   6.2815340011    5.2768037136   19.2737756113
   7.8557698992    2.3561929297   13.5281091011
  11.5089382999    4.1366690231   12.7654519898
   9.6607008581    1.9714060999   12.2212161796
  12.0422848765    4.2318472037   15.0087745786
   4.2162868195    7.3711953457   16.4120814048
   5.1506052680    5.4348165289   16.1610172411
  10.4576480067    5.4773818069   14.1361563267
   5.0281620456    6.7836200802   14.3893536984
   2.6427381879    3.9982537474   13.4680989988
   8.1577716871   19.4730087956   18.1271325989
   2.5513756618    6.1382632729   13.5971942952
  10.9823754615    7.8435995187    9.9400579021
   1.0843104990    5.4269917073    9.6992525282
   7.0249570491    9.2188045456   14.5174939796
   7.8768486778    9.3538973849   16.5581118757
   0.8379924430    4.9069698872   14.2874973971
   9.8471979662    8.3318728438    8.2514919820
  10.4886117206   19.1770840371    0.4053273636
  13.8033608248    3.1394154763   17.9454201573
  10.2937094529   19.6395391331   17.7096008665
   2.9712333135    4.9534774872   10.4753728217
   9.2402607849    6.4547655561    9.3221651284
   6.6698503862    9.1421755949   11.1400941357
  14.1873167082    2.0428819051    0.5991972532
  12.2005286315    4.4507692362   18.7948180136
   5.7012797277    9.4977903396   16.2486897153
   2.2895456426    7.0090042535   10.7620477549
   6.7554947783    7.5461024814    9.5103973939
  15.1460045776    9.0300155925   15.5178830489
   7.4705701228    9.5528990609    9.1459661479
  13.7197487009    2.4569836859   10.8400856958
  13.6210240563    8.2719376313   14.1817156615
  14.7981362016    4.7551212927    8.8149001924
  15.6347285323    2.6558201109   10.0028966621
  14.5436111792    6.6220793333   10.0290633945
  14.9230304586    6.8550972658   15.3428685448
  -1.6609165849    9.1739109011   11.4104747047
  15.3244661854    2.4405398540   12.1815328316
  -1.3257044086   10.3792741057   13.1792097322
  12.8701067070    5.2340295205   10.0981713732
  14.6003823020    9.9983098601   12.5945716973
   0.7110436878    1.2406684436   18.6372417714
  12.9397309511   12.8521678704   16.3536119890
   1.7700048571    2.1295067780    4.6186945314
   5.3473904138    6.0076465983    2.3482526881
   6.0700537195   16.8028646844    8.1236426081
   9.6544049728   11.5919320296    7.3558700874
   5.9649402944    6.5344303529    0.6689329708
   4.5336529749    2.8612352550   15.5620335615
  16.3850774229    4.3582028760    5.4348738484
   0.3948410180    1.7373651810    1.2450606896
   0.6509165570   16.3847259204   18.7107071275
  -2.1525614947   19.3557759152    1.2025243500
   6.7896911015   14.8663508668    6.9074889642
  -0.3183901611    2.6791068365   17.6104366763
   0.5310065714    0.5122375936    2.6533498134
  11.3611708073   12.3422502498   12.3641320953
  -0.8300425165   19.8132173319   16.7680436864
   7.2671434544   13.9088546504    5.4855544296
  12.8347633892   15.5100984962   14.7229895872
   5.2737516444   10.4246245185    0.4699076237
  13.0271617309   11.9977459293   12.0692807380
   3.1099714670    4.8690852349   18.3385044597
   2.1318746844    6.4135621955   18.6936699370
  10.8727478565   10.1223382782   17.8641842718
  11.7678037499   10.6663951360    7.5711293615
   1.1657175302    2.1511277501    6.2929085825
  16.9450970906    3.0527322606    6.6670401964
  10.3864455786   13.7939143581    6.5018232885
   2.8268970335    3.0654849634   15.3241149046
   5.3683000702   19.6592262728    9.4887497962
  11.5532605653   14.7536605354   15.9270698826
  12.4363095409   10.6992055604   14.3104847231
   2.1067725979   15.1395185736   18.9462661488
   2.3348102399   16.5572530566   17.9299385574
  11.0034457572   15.7644349404   14.6049312636
   6.9343063644   18.1003494370    9.0004315652
   0.6664028853    4.1449520915   16.9036114440
   3.3180662452   16.8231645805    2.2373920398
  -0.7711983328    7.3947185831    6.9070791807
  13.0155538178   11.0876389857   16.7869516448
   2.2102246831    3.4342158296    5.6234936284
   7.2096383227   16.5730435920    9.6954392260
   9.1003421429   11.2270193680    5.7265574925
   3.6624943286   10.3602888199    1.1840141394
   6.6472504576   13.0342880525    6.9100267337
   3.0282887950   10.2308458759   19.1265663332
   3.8366295736    6.6320307658   18.4960167727
  12.2060056078   13.6767689107   12.2303407196
   2.5230251898    1.8456515890   19.1259965374
   3.4939413079    1.6827352549   14.7155538201
  -0.4477266092    4.3979226562   18.1605477462
   1.4494429952    1.8413742994   16.0813615768
  17.0346190180    1.2986900592    3.9549280457
  16.5655487462    2.6341333999    2.9451136317
  11.4393945564    9.7343269995   16.2067040301
   3.5749374560    7.4417919856    2.3273711346
   3.6001394030    7.5249206786    0.5406495346
   0.4406851766    8.0243543753    5.7970874631
   0.8528831468    4.3541851330    7.5052739248
   1.7172580369   17.0682029144    1.4649736493
  12.9497795063   11.2325063060    6.2756583901
   4.1639054253   19.6041256406   11.5914910405
  12.0982064976   12.5326482942    7.2475616922
   9.8048190100   10.3569879187   16.3446867442
   9.4564629465   13.8321415413    5.1741155269
  14.0039195939   11.3827975423   14.6210298265
   4.1942175313   18.5633679205    8.8037135925
   7.2618580313   14.8454240484    3.3024383045
  -0.8354947216    5.0472501401    7.6748538766
   1.0689057826    7.5168610760    7.5211561483
   6.5737544801   15.3715534822    1.0584632201
   6.2565224088    2.3127799846   10.9632741609
   1.3282047070   14.6324893650    1.3791096634
  13.1696446933   17.6193272144   17.7181797039
  14.0454602376   16.4286164609   16.5384049465
   4.5834417160   15.2759291725   18.4017646686
  14.7379397038   15.4342330166   12.7115825433
   8.6328666900   13.8577124400    3.3097445876
   4.5513855353    2.4876612682   10.4138515103
   3.1388147310   18.2813292273   11.1957718148
   5.4599312139   12.0618132737   17.1702802103
  -1.7156638355   14.5008688276   12.2183894431
  14.0650986369    0.8961656381    3.3394730473
  14.7129533767    2.0107967477    4.7384511420
   4.9549284490   17.0601062973    4.0313212128
   6.8996561110    0.5949282056    6.9662261248
   7.0470129751    0.5031878541    1.2971560645
   1.4623475330   15.1076721114    3.1154456814
   5.9175965105    1.5430705045    3.8530614317
   2.9306011895    1.3529985750    1.8302879385
  -2.0589393021   17.8344603619   11.8061390390
   1.6820310308   12.6273730332    3.1714063136
   2.1604566491   12.3065049999    1.4598936937
   7.2284775206   13.0249797402    3.7622864359
  12.5315611023   14.6751726260   17.6193714738
   4.8708857984    1.6963381050   11.8997868438
  13.4601781971   15.6674027416   18.8761598384
   6.3791247421   13.5304092611   16.7731836635
  11.9648143506   14.5499478003    7.8504907891
  13.4058368651   16.6072670843   10.9635696499
   5.4675079731   14.0088062535    1.4951904168
   2.6383212731   15.7964977664   11.6900172676
   5.8140214008   18.4294028095    4.3816712995
   3.9316487921   14.5100670302   11.8576955812
  13.2109513524   15.4184602976    8.8950130605
   3.8916206966    2.7317428845    2.1775585185
  -1.4801356901   16.0592803628   12.9256674272
   6.3293549561   15.1572695070   18.6470020817
   3.4199009979   11.9137306029    2.7446366279
   6.8516207505    0.7617401549    5.2184054552
   5.3665597052    0.4868998325    6.2537038757
   4.6015738982   13.5262454194   16.6611307743
   7.2039642157    4.0404999591   17.0206465913
  11.7031170958   19.0076484716   12.5802933243
   3.2811137667   14.7493923221   15.4176767066
   4.8781844696   14.9607355241   14.5594322706
   9.8730286912   14.3881951976    9.1380368493
   4.3679635224   16.3963512516   12.2946364135
   6.2008815629   17.6189921780    2.7650056222
   8.1440753723    0.9010971137    2.8015267160
  -1.9978445496   17.5958515154    9.7776818464
  14.2149714915   18.1714611235    4.1756722026
   6.3942100495    2.5779613368    2.5222595546
  12.8999843433   18.1151958884    3.0047791064
  12.5400502412   17.7003248346    4.8979281792
   3.3656322584    1.5321062807    3.5030210797
  11.8422895709   16.2201803308    8.4467886796
  13.5975267669   17.9301285160    9.7690120428
   9.4710800708   14.2084710154   12.2708641343
   1.4333690258   18.5092904915    9.0970763639
   2.7241783460   12.3675797640   11.1156940567
  11.6424257476   12.6208794050    3.3524009412
  13.5388198578   12.3610740057    3.4710439941
  11.3884257980   18.3325655639   10.9891504956
  11.9637709729   16.7762054342    0.5999500160
  11.9833260953   15.2393758905    1.3052443640
   1.4642387702   13.4839535625   11.6017111547
  11.9672235680   17.1958126246   12.2364500143
   0.9267892731   12.0595099763   10.6864177373
  12.8558398630   13.7174340279    2.5111221091
   4.2049544680    2.9539451306    6.0827161371
   9.9663298161   15.8696319826   10.0862448571
  -1.7379065871   13.7137870032    7.6385988560
   9.9365686919   11.1637408340    9.8022798095
   4.8360819317    3.0346612778    7.7409338746
  13.5563924654   15.8905797405    0.7564108007
   5.8582071423    4.9550160659    5.5210161860
   6.0733155576    5.1630405471    7.2441561149
  14.8012791604   11.9118491508    7.6636730793
   4.8369430904   19.5466056812   13.6573042710
   0.5971898397   19.6852573769    7.9556730874
   1.7890500138   18.5016515902    7.4058874947
   8.3027234059   14.2501587854   10.7918637316
   4.2954897065   16.9682506537   16.0847383658
   2.8540396861   17.2270610256   15.2486450570
  -0.2371226238   12.7978066816    8.2060042462
  -0.6857603544   11.0856995819    7.5382527016
  10.7456087637    2.2133718961   14.3011199662
  13.9519200738   15.2895195382    3.4841896774
   5.3881513116   19.2229066136   15.2165077375
   8.8886751166   12.6054236560    9.2158955869
  15.1486615820   10.9463443595    5.6422340587
   3.7512353690   19.3940546209   14.9904329002
  -0.9008629916   18.8919737057    6.2505854905
  -2.0968087762   17.6201776498    6.0421719343
   8.1855965655   11.3567297007   10.2539806530
   3.6378967001   12.6068010608    9.0978309604
  -0.9180505548   14.0309914940    9.3696681067
  14.0445081575   15.4241071593    5.3020878298
   3.8282952209   14.2946083913    9.7276986187
   0.9212426916   17.0813664285    6.1125086596
  10.8121669542    2.4207956655   19.1878607538
  14.5686189957   10.9939629513    9.1105054078
  -0.3795006057   15.9127764853    6.6479907811
  14.8781251978    9.3406491875    5.3075371817
   3.2909296044    5.8283665757    4.6023498308
   7.7061619894    8.5695908524    4.5441313614
   4.8309954918    6.7785739413    5.0279866845
  -1.1314658767    9.8915058989    8.7747583101
  15.3995436533   13.4203042649    5.4178820545
   0.9784173337    7.3220577008    3.6755137640
  -1.3978229806   10.0237636284    5.0702774198
  -0.1100661283   18.2330107751    2.7850287372
   1.1132928516   17.6638868298    3.7751353358
   2.8684937300   15.3216298501    7.6936591147
   0.7598582704    7.8389966044    1.9092999553
  -1.7371948038   14.7065447228    4.5986354333
   4.2053597777   14.1925860446    7.4907585126
  11.4104709544    5.7947094669    4.0701457180
   6.9591726640    7.2226380365   17.2015309486
   3.2766037853    7.2565946959    5.7417096782
   1.0154631692    9.0827658977    3.3137051211
   7.1115413784    7.1732200462    3.4208147322
   7.7142782545   16.4402153825   17.7176949266
  10.9563531454    4.4375345269    3.0689676199
   7.2487767618    6.8439178075    5.1318887783
   0.5552135223    4.2274686646   11.7719626712
   7.7833081241   18.1127559594   11.1698797544
  11.2847470716    9.0491734705    4.1530978721
   8.6509728557   15.3106837708   16.3097531619
  13.6612907324    6.3893449044    7.4044196856
  12.0946034908    7.7213366764    3.4004286222
   9.0461863819   19.2490991162   11.3022691778
   0.3285681343   19.3127172812    4.0634556022
  13.8496701268   10.5666986280    1.9837883585
  13.0401466345    6.1675793835    1.8084356496
   8.6875683354    5.3185437656    2.9677523163
  -0.3519860588   12.3085606211    4.0826384447
  12.3543468518    9.6221688782    1.7840751363
  12.0187059913    4.8698662419    0.9972753631
   9.5143766902   15.7790973488   17.7455522850
   9.0994681174    5.1992180809    4.7509548748
   9.3536715627   17.6434127475   10.5543841160
   2.7219786182   15.3762953467    5.6034561081
  -0.2414625728   14.0237129514    3.5597752725
   9.2879708703    9.3509110719   10.7876585389
  15.0886267226    7.2772195020    6.6007804852
  -0.6462910996   12.8308759329    2.2799424468
  15.2489287736    7.5072011813    3.8069613468
   3.7964579263   13.9714741321    5.0667588903
  14.7738667632    5.6570246225    6.2049029701
   7.7287457231   18.7800248243   13.4103688973
  16.5698962423    6.5215444358    4.0793543161
  11.5104272149    7.5536567432    5.8276966963
  14.1083562829    8.7828323187    1.8366979889
   2.0399479992   13.7551183287    4.7759801633
  12.8460029683    8.6796221818    6.2088588683
  12.1114730334    6.5979005965    0.5122095778
   8.7539094231   12.9123263334   17.0011236858
  -1.0526429054    7.9674997537   13.9065440939
   9.0919627050   11.1360710348   18.7172522760
   7.9537480393   17.1905683933   14.1748382727
   9.9591988707   13.5049373676   18.1583787838
  14.7474484596    6.2142212117    2.0306376823
  10.4254803315   18.2385011888   14.9834836656
  15.9471047981    7.2019436039    1.0944782051
   7.5754711725   12.0722393584   19.2046626794
   1.7071164959    9.8035818185   17.0679156634
   0.6420453721   14.0377287666   16.1157457411
  10.2268899966   17.4571054400    5.6754756811
  10.8257532078    0.8918700075    5.9625049833
   5.2263342257   10.5725969475    8.5624996580
   4.4696807323   11.2343404166    4.7431717891
  11.1198663945    1.1925474713    7.6216789189
  -1.1252613100    9.6682396319    0.9770359558
  15.5045389071   10.8194565593   18.6994089285
  14.4190348710    4.7888991066   12.1568781693
  15.9875817691   13.1804623253    0.8108999032
  14.4034601757   12.7803408449   18.8485172545
  -2.2814817275   19.9005177971   11.8755381799
   2.9930993908    1.4393523782   12.9426880632
  -0.0515554200   17.5699845038   13.1467533783
  -0.2356625452    0.8378879964    9.7610098148
   9.0562679816   18.6652390463   15.9390679025
   4.6106980653   11.5449916282    7.1455563527
  15.4526767973   12.9788814467   14.7280522809
   9.3166042737   18.0678472964    3.6507787838
   2.5970076364   10.0162634326    8.9156036635
   2.8362142547    9.2191043349   15.5240237918
   7.9020146925   18.4123503000    5.2760642870
   0.7385689891    7.3517797054    0.0802379867
   1.4768151626   13.5493498187   14.6524400460
   9.9826114935   11.2908670861    2.9137671175
   2.3089302377   11.1352685090    7.6072735459
  14.1484596964    0.7865099192   14.1647441029
   5.4923327999   10.4506789578    3.5490270557
   1.8853451926   12.4122202618   17.0195326081
   1.6944594261   18.0759015287   12.7633248160
   1.2617722933    1.3849889600    8.8950945606
   9.3008972544   16.2304033045    6.5427235596
  -1.6647561501   12.7681728349   16.2296951649
  15.8580432010    4.1059964796    0.5850800357
   3.3578306109   10.3924592604   16.6251511636
  15.2851434564   11.5373846636    1.1717566294
  12.5179754876    0.4662047502    6.4809276652
   4.2706203354    9.5235594717    4.8210245918
  10.2288756524    9.7023494437    1.6354164585
  15.6854893801    6.1713710910   19.2214451077
   6.9551200673   10.0973386918    7.2594964183
  13.1767568712    2.1468786385   14.1914505980
   0.1827121438    7.6735454787   17.9195568720
  10.6273033102   16.8238996149    3.3530280018
  -1.5309176688    8.2800786358   18.3508219983
  -0.3877875725   19.5311636218   13.7876291446
   0.6104389927    1.8491634068   12.8565325976
   0.5903645511   17.2174211889   11.5502644688
   0.2938190403    2.6276920614    9.5746993005
   1.2297564705    9.7213235231    0.6558620900
  -0.1487883224    4.0752703858    0.4746594499
   0.0029171314   11.6387281193   18.7962472117
   0.2518342065   11.6953734379   16.6719052313
  13.6369376535    1.1215099869   15.6083587922
   9.1588898768   16.6932864286    2.4027628088
   1.7696105705    9.3866739807    7.5064122421
   7.2831936498   17.2352461040    6.4082919750
   5.8560097590    8.8814867994    6.6925216727
   8.5525467098   10.6686184590    1.8180947150
  -1.7881003096   14.3957974823   15.3624188003
   5.0678810465    8.6522339663    1.3596988296
   8.4714242562   13.9149257157    7.1161415562
  12.6919363295   12.7402148956   14.0605877912
   3.3199550254    1.7545603095   16.9122661987
   1.2972703527    3.2333968136   18.7128773361
   0.6400981248    5.8758723738    6.3046030333
   4.5558210863    5.0048766119    0.8342471649
   0.1970013855    3.4758303646    4.9147768337
  10.9637921979   11.5178088351    5.8395077092
   5.4160366927   17.5211829661   10.0683041064
  16.6001974228    0.8224297127    1.9553575196
  11.1813079702   11.7820255161   16.3752336574
   3.3426927184   16.1601172134    0.4963463273
  12.0390234738   16.8874674466   16.1118476552
   5.3488632021    0.6164816680   10.0469368998
   3.0646131245   13.8822860727    2.3693491937
   7.5818732882   13.6060832073    1.6202248788
  12.7486125946   19.5867499090    4.7210885229
   5.3841162952   13.4025089562   18.6199849845
  -2.0337128954   15.9493039298   10.9048390273
   4.3955822347   18.6634758001    2.8802991311
   4.8719755188    0.9067045438    2.1720036303
  11.3736876566   16.0621196071   18.6264596545
   6.3071099420    2.5266979327    6.2482154377
  13.4119900313   18.5859170039   11.4841695588
  11.6869285554   14.6924399024   10.0655959000
   2.8886810881   15.1573695645   13.5173502955
   4.5773257747   17.6208433774   14.1742426550
   9.3011537005    3.2115318557   15.5631443497
   8.9738901810    3.1872575062   17.9487787601
  -0.1163984008   17.6255192150    7.9559036698
   9.5463065581   12.6056690879   11.1671168289
  12.8443835721   13.9451632873    4.5640960431
   1.8655894489   13.4937205163    9.5787635080
  -1.9956051015   12.4289443443    9.2779955969
  15.9569395079    9.4992782597    6.9805657988
  11.0489708519    2.4921357950   17.1184869129
   4.1314283709    5.4868387161    6.5960236198
  -0.9112050498   17.6165749524    4.4341443990
   9.0277046848    7.1309426342    3.9802295657
   7.6282460356    6.5316924362   15.3350016107
  15.7673587725   13.2433490574    3.4368336495
   2.5054199522   13.5756263922    6.7333149970
   8.9337030700    7.4488438310   11.5844455870
  13.3532269786    6.8045376085    5.4037128754
  -0.7894826132    8.2992256636    3.2143312900
   0.0719966144    6.2190458049   12.1590031537
   8.0668163371   14.4376741039   18.1720602114
  10.9501221333    6.3187737118    2.1396755574
  13.2974021704    9.4856990605    3.7668400672
   9.2994812645   17.6353592643   12.5607061855
  16.1722370983    4.9667481443   11.3679713914
  15.6956709331    6.9264025795   12.6122983060
  16.8110610641    5.5130457268    1.9306525176
   1.9475714271   11.0764244591   15.3897923037
   9.5540160468   19.9804710084   14.5386346290
   6.2624211204   10.3452582197    5.3919372208
   8.3791599154   18.7698716799    7.2373694309
  10.2209660998   11.6879096685    0.8370090002
  -0.0513024528    9.7756622973   18.1570167497
   0.1924171007   19.1132182946   11.8676320413
   1.5248606419    1.5987660666   10.8753708272
  -0.6688408008   11.5633748303    0.4502413790
   9.0317007196   16.1254363058    4.5551850152
  -0.3934392537   12.9496827034   14.6249018430
   3.8065591322    9.6479402781    7.3017983089
