B2 C140 Ca1 F48 H298 O66 
1.0
1.7934569099997727e+01 1.8021785560280295e-16 -6.3059697643461049e-17 
-2.1989929796033327e+00 1.9444454096086716e+01 -5.5925620151039602e-17 
-6.6351950586853692e-01 4.4972308844459608e-01 1.9620726128387513e+01 
B C Ca F H O 
2 140 1 48 298 66 
Cartesian
  10.2339859103    2.7385283152   16.9943238859
  -0.9592007260    5.8514437992   12.1234856167
   0.2207949277    0.7251993452    1.5962725535
   7.5256843851   13.9804861649    6.8022382076
   5.3208706281    6.3514994525    1.2314735169
  12.7139795969   12.6772914694   12.6770877312
   4.0054097527    2.1261565003   16.0333794317
   1.9245898851    1.2868874835   18.8674831830
   1.5668313714    2.5967840531    5.3430040894
   2.5146285591    0.9103290787   17.5259558001
  -0.5252798591    3.3996055290    6.2580001614
   3.6984257395    5.6254625099   19.0269716016
   2.3046565941   15.6129275787   18.9194777446
   0.5646881407    3.1222419603   18.3625197166
  12.2639494715   15.3882817265   15.5148003687
   4.4622526926    9.7385116040    0.7712596498
   6.4151181413   16.7071802857    8.9022674677
  13.3024911735   11.7912957190   16.2434962221
   9.6390082323   11.6738129545    6.2717801643
   9.6942901571   13.1945687778    6.1702855846
  13.3562717986   11.5471025610   14.7103580794
   4.4529667857    7.5820592439    1.5759930432
  11.2327043455   10.6608404353   16.8223217890
  11.8710428788   11.0104905522    7.0464654624
   0.0438502572    4.6234876999    6.9854378283
   0.1980193258    6.8919947809    6.8132808762
   5.2286076717   18.6722765038    9.6467127374
   2.6764887453   16.0276683798    1.5037783483
  16.4311964397    1.5034510052    3.1127879166
   4.0416942497   18.9542949202   10.5796168288
   2.2491285438   14.7806694599    2.1732746359
  13.5222522607   16.3421563224   17.3204968573
   5.3307305598    1.7060320634   11.1036137086
   7.9665247737   13.1608376302    2.9584916170
  15.1481770016    1.0565180421    3.8614953922
   6.6310902232   14.1829216273    1.2558319519
   5.8022019187   14.4966145369   19.3923562217
  -1.6203439977   15.2497827063   12.3779702096
   3.1798179124   12.6359425151    2.6639686734
  13.1472465665   15.4657298080   18.5687677882
   5.9795225668   12.7139583062   17.7029155571
   5.6934575816   17.8529831718    3.8145420340
   7.1268340587    0.2722809774    2.5935250983
   6.0056936397    1.2357342916    2.7566039668
   4.0108705833    1.9855842964    2.4116003174
  -1.9479850034   17.1420387384   11.1255597977
   5.9264669729    1.0525213341    6.4501412130
  12.7046465102   14.9366840840    9.0370346334
  14.4646339425   17.1666680222   10.7014797732
   3.6649213138   15.3741508928   12.3995442561
  13.0127380629   18.0953062838    4.3127594891
   7.1294527207    2.2365551613   18.3056334791
   8.0629992617    4.3787171300   19.4124104215
   8.1111243346    3.4067796875   18.1597315216
   4.4013827477   15.1292734790   14.6831499862
  12.6564592785   17.9241826433   12.1103590317
  10.5048784171   14.5686458673   10.0998809971
   9.4040435911    2.5474902221   13.3205140785
  12.8349122008   16.2741141699    0.6559015546
  13.2544976389   12.8027595739    3.6839626534
  10.1144338604   13.8700533489   11.3539323772
   5.0498653377    3.1131597773    6.5658359120
   2.1485251845   12.4668163146   10.9494810112
   4.9040829328   16.4108423356   15.2950856577
   1.4735141789   18.5686307760    8.4215641151
  10.4473558703    2.6288423117   14.4338514529
  11.4936591488    3.7281950755   14.1786052932
   5.3203873086    4.6057861153    6.4738762580
   5.3349546798   18.5431944035   14.2305526764
   9.7506700257   11.8067392293   10.1095474352
  -0.9580882519   13.3898313968    8.2540262314
  15.7935060530   11.2185546630    8.4587039227
   0.3981203738   17.1657911568    6.6869692828
  -1.1162032358   10.2467165613    7.9046351913
   5.4883599425    6.5587998522   15.6788263378
  14.5140726022   14.7537660940    4.3403782369
  -0.7426664641   17.8006163040    5.8180203289
   3.7970209842   12.8654568222    9.3371688644
  16.3914319114   10.2700599826    5.5567308195
   3.9027596222    6.2811846370    5.5290589571
  11.9135777745    1.9471019068   18.5318722488
   2.1265817996    4.7645978751   13.4611168777
   9.9850941450   19.8450889393   18.7757592150
  15.9085694949   14.2796516477    4.6678379720
   6.9070552763    7.0809331341   15.9694372237
   3.9128820898   13.6653053538    7.9602582267
   8.0620112908    7.4383862906    4.5666622854
   0.5150888950   18.1715910051    3.9005446759
   7.1836032148    8.5605522167   15.8460728961
  10.2224506732    7.4691679954    9.7252459995
   0.8904190821    7.6743774114    2.8500053670
  13.1232243164    2.7561138821   18.8699591206
   2.0903092517    5.5007800327   10.7959601716
   1.3182322198    5.1495424937   12.1202300358
  10.6746767271    5.3221327247    3.2562555615
   9.3512583510    5.8425963332    3.7545842771
   9.0297111293   15.1597976697   17.6407229068
   9.2166363672    7.9978564467   10.8370592092
  12.4880529039    8.3793356972    4.1600759870
   9.0565666058   18.6305617161   11.7520860387
  -0.3173148479   12.9702684025    3.4394133893
  14.1555842042    6.1273203778    6.6589380247
   7.6971051798    8.4401918334   10.4577492597
  13.4318970179    9.4412530002    2.2921210608
  12.2653591564    5.3888322168    1.6795216244
   2.7423035629   14.0515796401    5.8694165017
  12.8655559351    7.8483551872    5.5459268629
  16.5126748069    7.1807360593    3.2885379122
   9.0680327510   17.6043676523   13.9220135836
   9.3702422771   13.0719619466   18.3280470080
  15.2408901166    7.8278449289   14.6223016060
  16.3383449259    7.7012294849   13.4902598249
  16.2083322862    6.2918339630    2.0416626378
  15.0887629347    2.9131839057   11.3477663927
   8.8318102034   11.8966089896   19.3347605139
  15.2272223708    4.4515059710   11.2912875264
  10.0053513797   18.3913474928   14.8472026326
  14.6727457212    5.1095862090   10.0473843764
  16.4952365611    9.1376999625   12.6709705829
  11.7452830600    0.3929583496    6.9455717555
   3.0811120404    9.6999958189   16.0792625867
  -0.4861170410   10.2635648417    0.2252490466
   1.3641742947   13.0654167658   15.7956885682
  16.0367357611   12.2170160896    0.4354490299
   4.9655054200   10.1991391306    7.3478961929
   5.5005703081    9.9207069290    4.3308375778
   9.7134221444   16.5779316963    5.7745373916
   8.6994762817   17.5909356049    6.3223040884
   1.9756603541   11.7758144049   16.4779428515
   2.5440373139    0.3506540950   12.5432642229
   1.2744602147    1.0246088252   11.9860572477
   1.4051950081   17.6838723239   12.6366612008
   0.5740123225    1.3739387045    9.6089282957
   9.9520365717   10.3521586029    1.7549807637
   2.6129486712   10.0054138426    7.3588712272
   6.2925694369    9.7991238881    6.5974220373
  13.6241900703    0.9428806719   15.0808444367
   0.1165308224    8.1719239455   18.6150309663
  16.4303982505    4.4007709384    0.6268154362
  -0.9976448546   12.9706585693   15.6893963828
   0.2752602020   10.3510309611   19.5479865661
   9.6643409261   16.6664854487    3.3071545263
   8.8519504801    6.1607392444   13.6339309714
   6.7429621103    1.7574441959   17.1213297258
   8.9958359553    5.4500131882   19.2205256839
   9.0406524161    3.8008713200   12.7976650801
   7.6832480078    1.3039512606   19.1490969255
   8.8826893088    3.2808137497    0.9927291201
   5.9785465882    2.5102668159   19.0234952377
   6.8259010523    4.8802405704   19.3956302656
   8.3128798161    1.9604315534   13.6929296837
  11.9841499840    3.7105614726   12.8717431774
   9.8158841895    1.8014764346   12.2740826520
  12.5472376250    3.7973548709   15.0369862859
   4.5090518207    7.2697102242   16.3349221586
   5.5479925951    5.2672478879   16.1864130700
  10.8671949764    5.0562733873   14.3577616845
   5.2164109158    6.3705839792   14.3605491849
   2.8661937578    3.6199116683   13.1721421263
   8.8417521772   19.1603131857   18.4532404671
   2.9900110741    5.7787431087   13.8278413472
  11.5093659441    7.6087620671   10.0139033325
   1.2803100053    5.2280756200    9.7851339661
   7.5530499765    8.8143289815   14.5716020446
   8.3569900281    8.8987204022   16.6503662713
   1.3638376567    4.5835892632   14.5448530863
  10.1159815569    8.2896155149    8.5731486425
  10.8610263160   19.0165982148    0.4221933755
  14.1951501074    2.4529377184   18.1844003986
  10.9036870294   19.3857222710   17.8919513144
   3.1434278081    4.6884684222   10.6197305417
  10.0542586764    6.1540563785    9.2615748123
   7.1840729694    9.0470543426   11.5290690596
  14.0109942067    2.1516303361    0.6577008902
  12.8770648347    4.0951269368   18.7730251317
   6.2692232476    9.5538951113   16.1400926214
   2.4660248281    6.7897500445   10.6329898096
   6.8975483809    7.4180292841   10.0217988975
  15.5482666244    8.8719883029   15.3906552841
   7.5916517063    9.4376444128    9.4610720349
  13.7820971982    2.5700499225   11.0442006971
  13.9944026992    8.1061579283   14.1623567466
  15.1851830425    4.5045783059    8.9903338947
  15.7832409026    2.3240316477   10.3506437240
  14.9359268512    6.4260237394   10.0044525697
  15.3715497122    6.7013081425   15.3614821637
  -0.7501143003    8.8299046127   11.4961657622
  15.3088826783    2.4880709149   12.5836799185
  -0.7167276634    9.9939111956   13.4414774260
  13.2423049054    5.0728158332   10.1472364071
  15.3013817195    9.7060818240   12.3849960505
   1.0388732536    0.8024897968   19.0471188768
  13.7206384905   12.6976695889   16.5181164044
   2.0090568155    2.4624385611    4.2633333834
   5.7549294741    5.9923740039    2.1748107770
   5.6765340564   16.1460275385    8.3299757704
   9.4352608600   11.5223135206    7.3554084650
   6.0054822050    6.6708471735    0.5640860801
   4.4850671957    3.0651707295   16.0501255417
  16.4560459971    3.5509224806    5.6942184282
   0.5863963292    1.6937654560    1.4572682157
   1.2682353667   15.4113197183   19.1221641067
   0.2642249500    0.1291806661    0.6824782688
   7.0620441809   14.2829824168    7.7413872708
   0.1293665629    2.3146441852   17.8961272585
   0.8220008281    0.2234913647    2.3157163427
  11.6912648768   12.2403971529   12.8592786051
   0.4369780028   19.1278996272   17.6297367706
   7.4545885895   14.8086646478    6.1318605165
  13.0710232549   15.3541963270   14.8071014456
   5.1198400236   10.4570323045    0.1440107958
  13.2101475501   12.1913954980   11.8679963147
   3.6814357845    4.5710377743   18.7244435209
   2.7709647627    6.1209802523   18.7692105032
  11.8007888858   10.1318414331   17.6778748880
  12.0069660683   10.0964989215    7.6630840753
   1.6135549821    1.6344299693    5.8523769295
  17.4205457022    2.4982830034    6.9470594168
  10.8376035342   13.3502449171    6.3666355002
   3.1990303462    2.3174016486   15.3325486603
   6.0819845573   19.4718672080    9.7052643679
  12.1693487865   14.3379952706   16.0176663683
  12.5324030751   10.8870078609   14.2937103525
   2.7641083638   14.6460923270   18.8193109039
   2.4921064921   16.1961455444   18.0182136627
  11.3397585028   15.5061389999   15.0394274662
   7.0529843155   17.4153599609    8.2933443544
   0.8435570073    3.9517489976   17.6244301532
   3.2300839976   16.8114938557    2.2423884707
  -0.9010392190    7.1262768450    7.0695327974
  13.9989018839   11.1154742643   16.8249393767
   2.2164682981    3.3251040854    5.8058206843
   7.0931670828   16.1454185421    9.4635712468
   8.6337098947   11.3006827048    5.7626430331
   4.0139668790   10.2728427657    1.6111053433
   7.2337165678   12.9786278317    6.4674781506
   3.6967683307    9.4351167166    0.1401368873
   4.5535913278    6.2544891423   18.6428409301
  12.4434575307   13.5924392117   12.1753303980
   2.8699196397    0.9780137123   19.5318224439
   4.6389246701    1.3984444616   15.6308857227
  -0.2282615728    3.6837179123   19.0671651864
   1.8471711498    0.8444714627   16.6668752787
  17.1218785904    1.7795581547    3.9482684368
  16.1475975419    2.5138917689    2.5911798111
  11.2837211469   10.0022571299   15.8773206827
   4.1621639532    7.6763203781    2.6595714390
   3.5159062817    7.5893581894    1.0299984069
   0.3532041330    7.7198631295    6.1401838372
   0.9277176003    4.4788949960    7.5937212927
   1.8747660065   16.5064365541    1.0560811236
  12.7912370930   11.4705957720    6.7109511580
   4.5101549344   18.9963232498   11.5814681546
  11.5231752029   11.9671555725    7.6911994095
  10.1884685318   10.8297184048   17.0368792364
   9.5808427561   13.5231805000    5.1656792461
  14.2575116919   10.9944916407   14.4488179149
   4.8799069771   18.7095762895    8.6595534880
   7.9328829254   14.0623428221    3.5177850141
  -0.8021271409    5.0148321875    7.6547984351
   0.8420250000    6.9856208998    7.7869285236
   6.8342316315   15.2141983484    1.4221765490
   6.1657807431    2.3637186612   11.3646847323
   1.6424361364   14.2051098364    1.3583371493
  13.7258350674   17.3900773388   17.7477726572
  14.3077519687   15.8617728971   16.7683996410
   4.8565102146   14.7757776206   18.9742603864
  15.3138573357   15.5664534582   12.7941460348
   8.9829311216   12.6709804675    3.0351875542
   4.4219319715    2.2668929465   10.7886290328
   3.3077627131   18.0185595400   10.6345736974
   6.1393083596   11.5818096072   17.5957433983
  -1.5624488668   14.2093001092   12.3504623427
  14.3570814238    0.5658532911    3.2349198409
  14.7813431330    1.9898641056    4.4316203507
   5.3603688383   16.8364375842    4.0221609436
   5.7648637958    0.9635310285    7.5683307663
   7.2544549797    0.0460233625    1.5423929219
   1.6029385026   15.0003009166    3.0799762088
   5.8635377471    1.7016645610    3.8395225972
   2.9386803329    1.7036914784    2.1848788529
  -1.8837628698   17.5728737369   12.1678416275
   2.6137800022   12.3113737214    3.5751453626
   2.5495029133   12.1889563166    1.8490384551
   7.1262325780   12.5067142564    3.4134586434
  13.0600194278   14.4533791871   18.1686315368
   5.1160866303    1.3266417820   12.0804839389
  13.9052289398   15.4261252662   19.3851967825
   6.8458284536   13.1795479488   17.2885691103
  12.4110175468   14.7617895797    8.0217323652
  13.9085947776   16.2289441476   10.9657974935
   5.5428489394   13.8338539483    1.6729431549
   2.7138053471   14.9781516298   11.9453974689
   5.9190261277   18.3702286113    4.7738575174
   4.4726018408   14.7177274957   12.1619402388
  13.7736211865   14.5564251823    9.2626909685
   4.3046962853    2.7461456682    1.7021789991
  -0.8248403455   15.5556388658   12.9423052655
   6.6763603220   14.9523865457   18.9516880072
   4.2583497966   12.3592383759    2.6637981425
   6.8673002909    0.5635804187    6.0297883608
   5.0308984144    0.5810873251    5.9503308492
   5.0590808878   12.8983223893   17.1058547998
   7.5740616911    4.0170259978   17.4297305621
  12.3350173585   18.4434146434   13.0219862877
   4.0415525744   14.4533140047   15.4277929000
   5.3737217334   14.7467650856   14.2061870133
  10.0079812613   14.3469302980    9.1443125489
   3.9107840566   16.4351043507   12.0088985005
   6.6201841267   17.9109999666    3.1125615368
   8.0293066837    0.7804698944    3.0199658444
  -1.3886668055   17.7103476354   10.3606759160
  13.9132223968   17.7311421813    3.6408660337
   6.4103819210    2.1205722510    2.1946653658
  12.2261627812   18.2600872300    3.4288813972
  12.4341047584   17.4591711751    5.0322362233
   4.1134252710    2.4325839735    3.3978704879
  12.9096232348   16.0274345768    9.1094509089
  14.2978317438   17.4687267367    9.5541497820
  10.5902404619   14.3601713477   12.2501618633
   1.4726919642   18.6241288778    9.5686213383
   2.6947315200   12.5468337823   11.8838430269
  12.5441147133   12.0760380943    4.1247399908
  14.2030421514   12.2909253166    3.3430208368
  11.8525427447   17.9323870989   11.2712982174
  11.7674868956   16.5300067834    0.8997370672
  13.2427932140   15.6971033353    1.6131858625
   1.1226037540   12.7327521409   11.1736725230
  12.7667141473   16.8408124483   12.2970911091
   2.1519577502   11.4574585509   10.5803553727
  12.7786327659   13.2144183682    2.6716422084
   4.1800555493    2.8915068292    5.9025792760
  10.4152841676   15.6397968697   10.2743779276
  -1.6430593007   13.7300733282    7.4520511583
  10.3621726721   10.8994483353    9.9805805843
   4.7143680991    3.0099604150    7.6345439148
  13.4461578651   17.1093551958    0.6318264731
   6.0018455270    4.9920410107    5.5513273205
   5.9408505714    4.9741738692    7.3546785349
  15.0910380562   11.5424300813    7.6507975214
   5.6691985418   18.7773945985   13.2141057362
   1.5757528951   19.4582487259    7.8854981116
   2.5718721308   18.1744367438    8.2742115412
   9.0113853868   14.0795378623   11.3747311520
   5.5386425375   16.1333821157   16.1008126922
   4.1192217715   16.9371683459   15.8934708644
  -0.1583482900   12.7892662693    7.7585397292
  -0.2490605237   10.7145989158    7.5187081990
  11.0991526857    1.7467959666   14.6045977557
  14.4375101532   14.8993390055    3.2688743547
   5.9116643779   19.0892700998   14.9506932993
   9.6757164599   12.3599525186    9.2017086577
  15.8762978594   11.2031952191    5.4749763736
   4.3796610730   18.9826902005   14.4053746707
  -0.6649567247   18.9323729455    5.8470410899
  -1.7363261615   17.6275214833    6.0477010649
   8.6036959862   11.4593166140   10.3531117956
   3.6520674425   11.8036529049    8.9566309897
  -0.5233953827   14.2398033136    8.8076396993
  14.2534550002   15.6909494859    4.9371464707
   4.7272752322   12.9637414056    9.9467084408
   1.3197148023   17.3091905501    6.1828748950
  11.1958860960    2.0999701181   19.3251823339
  15.0731223576   10.5974014090    9.0308851674
   0.2125822902   16.0001166012    6.6877266969
  15.9264280699    9.7044282619    4.6947642987
   3.0476026569    6.0150422195    4.8175661096
   7.9869750204    8.4890305593    4.7835460832
   4.8648330254    6.4570102940    4.9860973063
  -0.9498659943    9.4766478636    8.6878842624
  15.8475007402   13.6829765746    5.6100947137
   0.9969648541    7.1167079014    3.8637219146
  -0.4818136531   10.4719055897    5.4913620984
   0.6941002501   17.8236087936    2.8236751869
   1.5197094250   17.9164870409    4.3144571810
   4.2514181762   14.7972718951    8.1871621901
   0.9010499857    6.8634997982    2.0309724460
  -1.3274700051   15.0812988305    4.7673216842
   4.7659566716   13.3383591827    7.4330310555
  11.3587056752    5.7823098433    3.9473754418
   6.9437450470    6.9314272170   17.0797262421
   3.6352600566    7.2758323924    6.0313698984
   1.5956710699    8.5104802494    2.6301137349
   7.3213779840    7.1163781676    3.7836288837
   8.4333961508   16.0722069426   17.9731853174
  10.7344890828    4.2287411304    3.2628826322
   7.8570810066    6.8316518410    5.5405648288
   0.8365307842    4.1344729073   11.8549595283
   7.9789402420   18.6892818670   11.6992051581
  11.8533808156    9.1838177382    4.3464122766
   8.5784480460   14.6946576848   16.6554364606
  13.4354239260    5.4359093170    7.2107888986
  12.1295101709    7.4826722698    3.5659310980
   9.4211106595   19.4969727606   12.3484083530
   0.2488253223   19.2171007000    3.9020751828
  14.4321351095    9.9257686948    2.1100802359
  12.9829007042    5.8717206863    2.2924385584
   8.6220578848    5.6894355039    3.0231432875
  -0.0052145415   12.3565469882    4.2287521164
  12.6973789039   10.1683361718    1.9760574892
  12.3794831824    4.3747626842    1.8083190478
  10.0202415706   15.5130879244   17.2504057704
   9.2026253189    5.2188024308    4.6585914904
   9.4076950064   18.3636597495   10.7370769087
   2.2517731076   14.9983595270    5.8280145345
   0.1513774338   13.9992608520    3.4530657625
   9.5677096976    9.0812734950   10.9272847477
  14.5032214600    6.8919560288    7.3675735114
  -0.2020403501   12.4881663889    2.4956227769
  15.6998210151    7.6939450494    3.7268342506
   3.7794553416   14.2678813861    5.5456173685
  15.0747598511    5.6460834558    6.2042383187
   8.0391323202   17.9971394736   14.1798176902
  16.7540382424    6.5049050211    4.1478872714
  11.9129176652    7.7189005541    6.1308302984
  13.2819431637    8.5632140270    1.5838325363
   2.3029473681   13.3811236040    5.1471036415
  13.5154941181    8.5322379038    6.1406912987
  12.6634883667    5.7134991268    0.7284859857
   9.2968368284   12.6812670563   17.3064728638
  -0.5764661244    7.5489247506   14.0088740103
   8.6865826531   11.0245318708   18.6579513865
   9.1017749303   16.5562662203   14.3147943814
  10.4716484855   13.1411964518   18.4705757233
  15.1914252069    5.7422314204    2.2538859886
  11.0241487025   17.9801792606   14.6339155629
  16.0786522351    7.0037791764    1.1665467415
   8.5607856529   11.8496029870    0.1601283975
   2.3065912264    8.9571631690   16.4894262218
   1.1261398842   13.7411356432   16.5887814787
  10.7679022853   16.9288073069    5.8152455918
  11.2541301057    0.7569522291    5.9921854666
   5.0430081200   10.2628545545    8.4383846061
   5.2723982898   10.8642447639    3.7126640061
  11.5326351166    1.2318333055    7.6248610488
  16.8161185818    9.6738766074    0.7380180956
  -1.7250413617   10.6005069073   18.8693591704
  14.6603731630    4.9344205827   12.1863005766
  16.0037897632   13.1185153444    0.9663524136
  15.2459181672   12.6720362412   18.8749055149
   0.3957418186    0.3992436958   11.9513591667
   3.4421481446    0.9796177995   12.7061519819
   0.8312785354   17.5984574589   13.5672808501
  -0.1358747583    0.7190886613   10.0592143330
   9.6957033722   18.2570860444   15.8612799008
   4.6444699580   11.2582970587    6.9713783578
  -1.8203278205   13.0445536719   14.9486890114
   8.8347490026   17.3590375006    3.0483170136
   2.2502346304   10.0390172602    8.3961603949
   3.8104231014    9.3443493821   15.3090383197
   8.3101323250   18.2498020507    5.5699422881
   0.7917524720    7.7194697484   19.4443092251
   2.0850557951   13.6754382407   15.2681963265
  10.6374155909   10.2036091725    2.5883557048
   2.7288892505   11.1103227199    7.1104273825
  12.1172407737   19.5355241474   15.4060836437
   6.0431209616    9.1758473632    3.6400927360
   2.8521496127   12.2123092925   17.0481673951
   2.4271046742   18.0257072489   12.8748405025
   1.1218096563    0.8285765761    8.8050476088
   9.7117998546   15.6995580022    6.4775047227
  -1.2767168142   12.0989170910   16.2774012380
  15.3887028170    4.6409159251    0.5480120844
   3.7309684785    9.9426596783   16.9648513142
  15.1417388040   11.5710610086    0.8322020462
  12.8345737675    0.1792338122    6.7745199948
   4.5763859298    9.7225844736    4.8265106869
   9.5434066856    9.3222135434    1.4031978481
  16.2207197578    5.2865842057   19.3091646194
   7.0292752669   10.2390170398    7.2672686291
  14.1293653721    1.4348888313   14.2632145727
   0.3559844996    7.6805396289   17.7066883801
  10.6523916559   17.2259785359    3.1990464093
  -0.8984741919    7.9517075233   18.9840957977
  -0.0718892191   19.4076878567   13.4686569571
   1.0377167482    1.9345582540   12.5211544721
   1.3793646604   16.6415659856   12.1383737250
   0.0678005761    2.2842522651    9.2650795413
   1.5558834477    9.3649433871    0.6990412377
  16.8722840101    3.4183291183    0.6975248888
   0.9204490281   11.0952994775   19.1536131972
   1.1974449167   11.3819136840   17.1885409041
  13.5929538236    1.5019572711   15.9268803022
   9.8327808821   15.8688768492    2.5959998570
   1.9448633831    9.3413711238    6.7287998209
   7.9172554334   16.8946705531    6.6536954163
   6.4059322561    8.7311537421    6.6011138883
   9.1171714203   10.9120879207    2.2059739648
  -1.0683299391   13.8816416462   16.2263224209
   5.3034641815    8.6976228369    1.2517820468
   8.9278838012   13.9122331782    7.2004222253
  13.5571519149   12.7879284089   13.9238330728
   3.7415742424    1.4766872090   17.4004780286
   1.7296197478    2.6768521758   19.1438330665
   0.4118449726    5.6499443568    6.1170706833
   4.5841916221    5.2682396010    0.8423760204
   0.2997633524    3.0512100604    5.1451890105
  10.8456090542   10.9987040045    5.9524651309
   5.7238142953   17.3990848238    9.9721448206
  16.7917838605    0.5862022815    2.1620360088
  11.9995867580   11.9207285631   16.7591277817
   3.5858923658   15.9318386161    0.4363012546
  12.5179991339   16.5484765422   16.3134196289
   5.5578745464    0.6754360474   10.1404683866
   3.3943203780   13.9888331590    2.3663849823
   7.7741958971   13.4621633249    1.5733576940
  13.2806538078   19.4584283027    4.8345691858
   5.8196060024   13.0604524641   19.0503998626
  -1.3063893166   15.8175398701   11.0785928836
   4.6175302010   18.4371214138    3.2343661150
   4.8124205378    0.8050070176    2.2359748318
  11.9508538953   15.8637551516   19.1651843838
   6.2260685246    2.4187447116    6.3064658741
  13.9282076458   18.2457273089   11.5411919606
  11.8897946835   14.1648703932    9.9177013732
   3.2588091638   15.2599134683   13.8359655037
   5.3986895003   17.1310477289   14.2412757353
   9.7643415987    3.0087031688   15.6528895552
   9.4481618359    2.9400213677   18.0816032537
   0.5267056755   17.5896597533    8.0168050879
  10.3200057030   12.4358457618   11.2304213363
  13.4604791655   13.7951195860    4.6503212409
   2.6464623866   13.3639569139    9.9630176377
  -1.6504304159   12.4055166421    9.1828392273
  16.1623842577    9.5641251559    6.7413659511
  11.5310817169    2.2186347163   17.2379310617
   4.0491523126    5.2701506136    6.4636687896
  -0.5062122981   17.2959278052    4.4390088048
   9.4113706481    7.1498946004    4.1847545676
   7.8376007100    6.3903674384   15.2902986233
  16.1720028464   13.2691353102    3.6067473437
   2.7092283458   13.4970392457    7.2319744603
   9.2016372579    7.4233144751   12.0272223322
  13.6908452441    6.7066598394    5.4143197324
  -0.3910490098    8.2408312103    2.9907302480
   0.4125360005    6.1283805573   12.4169776360
   8.7879856097   14.2969677158   18.6310508884
  10.9694021795    5.9103148604    1.9969941648
  13.6881518030    8.9755709295    3.6888687043
   9.4674897798   17.4892913775   12.5831804765
  16.6102162514    4.7250932039   11.4256740192
  16.0341847694    6.7180489432   12.5935116615
  16.9519194510    5.1353189484    1.7939775176
   2.4503995862   10.8677499946   15.5540901121
  12.3629322212    0.4170242368   14.4701417086
   6.5100209408   10.3456750747    5.3231205091
   8.9834507854   18.5621921512    7.3760040873
  10.4699842006   11.1474882171    0.6908504395
   0.2769904730    9.5470666251   18.3092347632
   0.7373940874   18.5797566884   11.7858904579
   1.5570978161    1.6552009702   10.6672064872
  -0.6802952832   11.5427268574    0.7363088761
   9.5189044801   15.8344909221    4.5410428376
   0.2149740209   12.8219044891   14.9403320935
   3.8367348448    9.3510408131    7.0618905976
