B2 C140 Ca1 F48 H298 O66 
1.0
1.7814791040266602e+01 7.2146987018020876e-17 -3.5354275954598207e-17 
-3.1028423838172037e+00 1.9364079057340817e+01 -3.6734625261763033e-16 
-1.7404444800634497e-01 1.2507136541197343e+00 1.9579498619196983e+01 
B C Ca F H O 
2 140 1 48 298 66 
Cartesian
  10.5094313612    3.5801211051   16.7997671815
  -0.8524351657    6.3245787957   12.1072215973
   0.3803311486    1.6458770310    1.6158152823
   7.0151893192   13.7484450396    7.6332429868
   4.5407500724    6.6144584170    0.9184966411
  12.5773150116   12.5750490815   12.6554449884
   4.3648202525    2.8746366204   16.6647423387
   2.2128826211    1.7979517017   18.4007671330
   1.7701841398    2.4555285916    5.7952471135
   2.7510477620    1.1665753127   16.9947939464
  -0.1357902282    3.7887100075    6.0951762709
   2.9324309734    6.4284099164   19.2496754822
   2.2229660411   17.7093416699   18.3357094824
   0.9685447839    3.4981832046   17.3666515161
  12.0072701017   16.0950601547   14.8641899888
   5.4804308255    9.9225419178    0.9440571710
   5.8491919071   17.2407126718    9.5675209713
  12.0449675018   11.7214289965   16.2426952278
   9.6183837953   11.8411762022    6.9317821076
   9.2951400575   13.3566202024    6.7884736481
  12.7439486674   11.6983369995   14.9360987481
   3.9218076117    8.0329454154    0.8171026817
  12.1735336086    9.5051770702   17.0582544444
  12.0077814649   11.9054178254    6.6107770043
   0.0952066312    5.0725901454    6.9906693813
   0.4900978318    7.5352985705    6.8725989972
   4.8036308809   19.2340746782    9.7153231139
   2.0537655680   16.6084939331    1.1706854693
  16.0088244747    1.7955232024    2.6622910118
   7.1927499532    0.8554396391   10.5372102058
   1.4234963300   15.2373605859    1.4800806895
  13.1271416639   16.9105342755   16.7954546321
   5.5170483474    2.3743830314   10.5987762066
   6.8121757995   14.0776269748    2.9451882949
  14.8235941077    0.8511566871    3.1537059192
   5.7810928271   14.0567429281    0.8703013207
   5.7105493811   15.0899705494   18.9583628963
  14.8128400232   15.2233975545   12.1759691267
   1.8552027518   13.0204095499    1.9881259692
  12.9456574218   15.8983657696   17.8844846119
   5.9234045046   13.2610545137   17.3981028248
   4.8251035675   17.8208537184    3.8976093941
   7.2301711168    0.3185886722    2.5201126583
   6.4413874147    1.6776587192    2.5370550466
   4.2975799105    2.6192949348    2.1624354833
  14.8331677943   16.9936751490   10.5383054538
   6.8789230662    1.3485419608    7.0357533657
  12.2805159526   14.9174806758    8.7189393190
  13.4572724939   17.6361239609   10.3757595790
   3.6453455109   16.3549997647   12.1687553701
  12.9126346333   18.4828100263    4.3774288908
   7.9274303752    2.4158659081   18.3243208587
   8.1952709800    4.9791208014   19.2051149181
   8.4610427592    3.8490799615   18.0623290917
   4.0893695788   15.3292707947   14.3282879290
  11.9162780649   18.9131150912   11.6473828848
  10.1788712601   15.0553353281    9.9075328610
   9.7863155311    3.3877702524   13.2647451796
  12.0981600128   15.9418569072    0.0599388924
  11.8173436953   13.2937995895    3.3459445506
   9.5285881475   14.7127770463   11.3509738961
   5.4106050309    2.9271176790    6.0114363117
   1.3165136000   12.8415950956   10.9790269229
   3.9884244124   16.5658026790   15.1094677570
   0.2930724900   18.6267575938    8.7761985016
  10.6941040271    3.7178052126   14.3634773696
  11.6787763393    4.8583369076   14.0039019117
   5.3046299656    4.4042045235    5.6372215658
   4.6710625774   18.8448192469   15.1634863523
   8.5376432723   12.7152554825   10.9319694227
  -1.8371484838   13.3743283787    8.8598282874
  15.2605241447   11.1741116888    8.8537594768
  -0.5545014898   17.1321929367    6.9824038480
  -1.4060557204   10.4612422751    8.1063386307
   6.1339872785    6.6910566710   15.6868058689
  13.2102486321   14.9993345041    4.5162353878
  -1.5350927824   17.7151980000    6.0372112573
   2.8747086504   13.6236627859    9.4631724585
  16.0041019645   10.1159001011    5.7645678073
   3.8489065175    6.1876720931    5.3301020953
  12.0865137475    2.5763773181   18.3680935306
   2.1941544951    5.4745576258   13.5236192455
   9.0355742643   20.4020276582   18.7524973545
  14.4179272140   14.2731674206    5.0446543554
   7.3078293896    7.5287957694   16.3722069227
   2.9532002585   14.5442516751    8.1749537490
   7.5358585867    7.4362381461    4.1378144718
  -0.6713098364   17.8594470480    3.7847081725
   7.1328553625    9.1024663448   16.2548558059
   9.6866182599    7.6651671680    9.5285563763
   0.5512355484    7.6860137815    2.7614101108
  13.2883866286    3.4536021730   18.7790271154
   2.2533026361    6.2121232842   11.0189439335
   1.4191178463    5.6711526748   12.2009496549
  10.7841485453    5.9386656893    3.2039074769
   9.3343975105    6.0494307036    3.5996768740
   9.0595127759   15.6750392454   16.9021714593
   8.7928346297    8.3953245286   10.5435574631
  11.9036060505    9.4875490610    3.8319918558
   8.3944489597   18.0367694176   12.1215286753
  -1.4448965041   13.3692443635    3.9536700346
  13.5058749607    7.0488294422    6.0542117348
   7.3989955060    8.7499965044    9.9753260189
  12.3604360509   10.0723769793    1.4599857824
  12.2157566633    6.3070250997    1.2077266155
   2.8793901056   14.4770063460    5.7910030241
  12.7257892358    9.0199629672    4.9341772171
  16.2349041750    7.0894985729    3.0059476595
   7.9288654518   18.6603944217   14.2953117248
   9.7590779359   13.7539428049   18.2106226676
  15.0289099225    7.9838122538   14.6513447499
  16.1338064806    8.0988036852   13.5700137516
  15.5503112584    6.2635392774    1.9520416460
  15.0645689097    3.3705592910   11.0771886111
   9.1298954700   12.6880548418   19.2634906989
  15.2508790760    4.8619557930   11.1222036328
   8.6668763891   19.5120794173   15.3307233305
  14.5969413885    5.7317669761   10.0618470873
  16.0724330643    9.4581239769   12.6595400149
  11.5785254830    1.0005305174    7.2543797848
   2.4682157977   10.0983718820   15.7363770004
  -1.3389040336   10.2684522235    0.0236862895
   1.1202764075   13.5654438612   15.2215193980
  15.0750086318   12.1761990890    0.7841738805
   4.6307442872   10.6574436426    7.3305536565
   4.3283698090   11.1279493046    4.3727961063
   9.5322910525   17.7341252741    6.2516245521
   7.9665249217   18.2295500819    6.3440352272
   1.6602834715   12.2829186025   15.8197361459
  -0.7723595488   19.9505753081   13.1844685265
   0.9520209313    1.2239730253   12.6301372557
   1.0311884571   18.3880045628   12.8696726746
   2.0729532361    2.4660670339   10.8435777455
   8.9598117750   11.2245489000    2.1200116382
   2.8050982256    9.9941158730    8.5341991167
   5.5856953649   10.2382012405    6.0895168518
  13.9418350417    1.5709257340   14.7574894959
  -0.5345789453    8.8460785996   19.1167677367
  16.2905740718    4.5709777417    0.3751334319
  -1.2075583693   13.3159636739   15.4817729237
  -0.0583464726   11.2478914994   19.1880934427
   9.7581699923   16.8108992016    3.9969859807
   8.8003090833    6.8565054971   13.6876564100
   8.0002828070    1.9008482698   17.0077279001
   8.7520360366    6.1438696768   18.8264402752
   9.1076982071    4.5370594971   12.7156941009
   8.7268574189    1.6440623420   19.0787961918
   8.8177777260    3.4215999630    0.8067680770
   6.7105648734    2.3683791569   18.8280579229
   6.8622812544    5.2037388385   19.3708654639
   8.7872662258    2.6680979339   13.8588711673
  12.3476461700    4.6003734805   12.8003040539
  10.3736225020    2.8087524188   12.2926397840
  12.5892728613    5.0330872730   14.9935908637
   4.8949508259    7.1352405037   15.9797670825
   6.2826816174    5.3553536958   16.1367538827
  11.1122518377    6.1457276183   13.7038078760
   6.2257067099    6.5987056586   14.3048112441
   3.0017496333    4.3516786344   13.4346881687
   7.8892249970   19.9976039088   18.1611429173
   2.9034561119    6.5347476932   13.8007125402
  10.9650728787    7.8646259310    9.9559484966
   1.5902190712    5.8150193092    9.8907868395
   6.8421585974    9.4441449652   14.9650322014
   8.3368677545    9.7321196935   16.5997231624
   1.1805437963    5.4217413626   14.4494341455
   9.7192243598    8.1593493852    8.2456434784
   8.9841927541   18.8870855417    0.5100616746
  14.3411457056    3.3093210598   17.9290008484
  10.0929149936   19.7285096300   18.3829247435
   3.5617388532    5.9069990018   10.9270506840
   9.4991412030    6.2902441692    9.4053842064
   6.6037990130    8.8279211059   11.0955672587
  13.7451185673    1.8089295680    0.4817548974
  12.9373894994    4.7500534209   18.8293739451
   6.2193174573    9.5531392239   17.1081124169
   2.2630693473    7.5297406904   11.0078142635
   6.6985195772    7.7860167412    9.1843926243
  14.8481103881    9.1669211304   15.2061724405
   7.2688358592    9.9074970136    9.3721645122
  13.8161731386    2.9447944895   11.1494652634
  13.7500626267    7.8496305459   14.0662510146
  14.5676651103    5.1055386792    8.8747559394
  15.5834530094    2.9031204587    9.8440422960
  15.2397433622    6.9113811948   10.0480044425
  15.2939721081    7.0108864044   15.5300181993
  -0.9362064754    9.3140334813   11.5364985436
  15.7746922576    2.8203973977   12.0340224705
  -1.3820526916   10.5738646383   13.3404741714
  13.3499543994    6.0529292307   10.3588082374
  14.8412417658    9.6078932764   12.2940535046
   1.3107396337    1.2867037957   18.5829223270
  11.3602398408   12.5297040911   16.0936476589
   2.5942437280    2.5545310156    5.1282431581
   5.2621700207    6.4980908380    1.7013071265
   5.3154055424   16.5617775016    8.8812426703
   9.6357934579   11.6328191636    7.9729571902
   5.2395129095    6.4264937631    0.0319391083
   5.4008152469    3.1334093209   16.8207499731
  16.7644493659    3.8542709965    5.4814713482
   0.4920579270    2.6825692649    1.8815420113
   1.3871753464   18.4305695593   18.2975106392
   0.7054575271    1.4910925951    0.6238797423
   6.5204863743   14.1517328816    8.6157034493
   0.8374029173    4.5531430377   17.4977502187
   0.9134915308    1.0919993652    2.4510340822
  12.0315288366   11.8104558138   12.1561683359
  -0.3981024843   19.4732814552   17.2275265883
   6.6730012620   14.3778899017    6.7700631423
  12.9644271609   16.0499519230   14.3700816829
   6.0422535748   10.3040567646    1.7851145205
  13.6581396397   12.5138644302   12.5946569092
   2.0390876765    5.8339259576   19.3260554230
   2.8635522261    7.3592329852   18.6723710362
  11.5125360293    8.8489486908   17.6609325979
  11.9001486283   11.9181573932    7.6852077323
   1.2756614786    1.4805677905    5.8101714425
  -0.3228773019    2.9339318509    6.7779512133
  10.2144744737   13.9583198940    6.9718428252
   3.7817986785    3.1284046164   17.5773258158
   5.6256545794   19.6378967443    9.2121797051
  11.9013598873   15.1826203615   15.3447715364
  12.8161927204   10.6823604497   14.5583110838
   1.7482186805   16.6899080262   18.0947536975
   3.0113092056   18.0866112415   17.6239674421
  11.2012804138   16.3883508151   14.2002676096
   6.4554352607   17.9448877807    8.9434563433
   0.0042142248    2.9941619021   17.6910793666
   2.6337160921   16.8851016579    2.0126228899
   0.7357357547    8.2425653251    6.0877350869
  12.7600856766   11.9321848129   17.0139228920
   2.1585428201    2.7055494830    6.8214919176
   6.5311144012   16.5577418509   10.1194011613
   8.7818175615   11.2126041474    6.6159455116
   4.7818972406   10.6740235725    0.4582392834
   6.7055098987   12.7186199069    7.5235159621
   6.2238889414    9.5087959465    0.2150354567
   3.7054655172    5.7060136105   18.7836166455
  12.2891627508   13.5045248826   12.0972910235
   2.8496822396    1.6440446838   19.2258275746
   3.9766499370    3.5184473695   15.8842302219
   1.3142070887    3.0370594816   16.3737240830
   2.0288565347    1.5340401995   16.2847008595
  16.4784485928    2.1591880502    3.5323585139
  15.6081724006    2.6937231482    2.1183522886
  13.0376537739    9.9459740742   17.5300287309
   2.8946166932    7.8992785645    1.2230732539
   3.7988447133    9.6125561180   19.3329462775
   1.4039374584    7.2141870576    7.4760561940
   1.1647564046    4.8473282255    7.0781179423
   1.2906441496   17.4060179588    0.9635273548
  12.8009794363   11.3036642869    6.2329794925
   7.8728475625    1.6261133762   10.9549516395
  12.2986010451   12.8577465255    6.1537117157
  12.5411170784    8.8964185624   16.1905222040
   8.7998982151   13.4353665054    5.8000514425
  13.8254689888   11.9690850017   15.0970470858
   4.1638542461   18.8816107526    8.9603608712
   6.0164189028   14.7530694691    3.1592362089
  -0.3737860812    5.1109557270    7.9873398159
  -0.2024267944    7.9782521216    7.5362451089
   5.3615249268   15.1048722432    1.0438849902
   6.0502523062    3.1076097290   11.1984589198
   1.3816041881   14.7391465177    0.4488804038
  13.3077854496   17.8893786689   17.3892905533
  14.1289513577   16.7102698551   16.3175666880
   4.7857491181   15.6040014973   18.6263032568
  13.7234141301   15.2562323148   12.6140002413
   7.6968257801   14.4709701899    3.3365930692
   4.7900001813    2.8793267929    9.9758870649
   3.4768991671   19.6114543320   11.3467900387
   5.2602117489   12.3761894184   17.2772160908
  15.1431226800   14.1385973476   12.3539399435
  11.4672435637   19.3309559468    2.4811696224
  13.9780054485    1.6271557323    3.2593569452
   4.9712229590   17.7032115122    4.9697476813
   6.5251800723    1.4038382725    8.0600240964
   3.8147136387   19.2437891833    1.5981622538
   0.4058756923   15.2888564520    1.9506566645
   6.7620908648    2.3536170261    3.3889763456
   3.2344074772    2.5225037678    2.3850159658
  -2.1800231127   17.5407581976   11.1844719333
   0.8756924262   12.8377236685    2.2468790584
   2.2224309032   12.7930818810    1.0140452818
   6.6363538349   13.1104952209    3.4901696065
  12.7132860475   14.8895850747   17.5821024278
   4.8879385836    1.7181640690   11.3275179931
  13.9291942258   15.7079742674   18.3913368638
   6.9919947047   13.0564198179   17.2419729560
  12.2253458430   14.0364015163    8.1712699805
  12.6719457100   16.8047138367   10.3466521608
   4.9785741651   13.2798110187    1.1977879367
   2.9214173911   16.5259054011   11.2749058201
   5.7034232609   17.9661777348    3.3551020505
   4.5996567013   16.3117614520   11.7166396818
  13.3020724032   15.1221000910    8.9090015502
   4.5130995243    2.9562002386    1.1843128934
  -2.4204762565   15.8353221989   12.7970475163
   6.6080193854   15.6777945301   18.6871902496
   2.5391434674   12.3169549504    2.4962992101
   7.9874218729    1.0831263762    6.9993703402
   6.3517710120    0.5554154786    6.3371075475
   5.6937500141   14.0260221916   16.6764856528
   7.8406367217    4.2210857180   17.1878887062
  11.8584367795   20.0072188353   11.6359810898
   3.5413953532   14.5131743461   14.8824791475
   5.1282554351   14.9159633414   13.9795774028
   9.7646933669   14.3226325149    9.0819342061
   3.6298861281   17.2895664757   12.7938390454
   4.1821023313   16.9075266553    3.5766412913
   8.2123879279    0.3006833326    2.4607639483
  -2.5488073115   16.9888528323    9.5597138952
  13.9596048456   18.9571224546    4.0140171165
   6.7218556192    2.1074642360    1.6108141163
  12.5869374686   17.6178040707    3.7574051726
  13.0678723605   18.2938690470    5.4816696545
   4.6052522616    3.5323021747    2.8252781810
  11.8888115183   15.7248744723    7.9476571748
  13.4394695624   18.2023374583    9.4407891762
   9.9072127542   15.3136098716   12.2820821444
   0.4064393625   18.5111811446    9.8836076939
   1.8004635578   11.9065698128   10.6672178218
  12.5051433022   13.3993341379    2.4382464483
  10.7511409101   13.3717436551    3.0000908992
  11.1676229065   18.4226664716   11.0212178622
  11.6104256622   18.0850847656   19.0707844897
  11.3118186544   15.7425333163    0.7648711739
   1.7821770832   13.2473150966   11.9116381021
  11.6442547724   18.5847010873   12.7169325140
   0.2907536293   12.7497290009   11.1868848002
  12.0083458914   12.2635641267    3.7022913786
   4.9151022182    2.1576736588    5.3936893014
   9.8001708911   15.9439788610    9.3885497908
  15.3238685154   13.5415480083    7.9578786627
   8.7302728416   11.6401266185   10.7723226709
   4.6609227055    2.8818936700    6.8582546769
  13.0432637917   16.1938295400    0.5076184587
   5.9124898468    4.7352087847    4.7827317998
   5.8011451184    4.9080249136    6.4753269461
  14.3087225106   11.2742788971    8.2944514465
   5.4807786701   19.4173782955   14.8519346335
   0.0556287908   19.6665386062    8.5731189795
   1.2898132786   18.4727628250    8.2800081275
   8.4768636091   15.0812893574   11.2977928214
   4.3301431493   16.2164329764   16.1829857755
   2.8565021630   16.7475998029   15.2974877551
  -0.7620845820   13.3285501949    8.5278647762
  -0.7856615946   11.2607652148    7.6464618674
  11.2793849632    2.8209015707   14.4398017433
  13.6026561989   15.4605041949    3.4182820771
   4.8724191840   18.8568013976   16.2359121547
   8.2143207852   12.9785032725    9.8572720997
  15.6545404661   11.1194420542    5.6072386830
   3.6924157643   19.2289325335   14.9414990386
  -1.4090045008   18.7717752030    6.1500908933
  -2.4907338960   17.4909342299    6.5517768926
   7.6205613841   12.7510759184   11.6297776143
   3.1442889031   12.5665169901    9.1430392232
  -1.9886186681   14.1754454452    9.5513100367
  12.9786431709   15.9335582843    4.9927154613
   3.5858651679   14.0528245082   10.2600556032
   0.4708035321   17.3385735268    6.5858508402
  11.3957977965    3.0203295744   19.1098840388
  15.0409909596   10.4076402040    9.6300612848
  -0.7841563994   15.9755841211    6.9681366018
  15.4880597630    9.4775809968    5.1135308508
   4.4436192987    6.5094072430    4.4169249010
   7.3543187212    8.4565493676    4.2123575742
   4.3651750204    6.7935036447    6.1791726013
  -0.8466721409    9.8574353005    8.8837429910
  14.3148464948   13.6745852941    5.9779523501
   0.6207633679    7.1936472869    3.8372339056
  -0.6890689278   10.0653310848    5.6128970438
  -0.6546002218   17.1229776843    2.9168242198
   0.3862073230   17.7950919851    4.2236815920
   1.9320967658   15.0437986620    8.0070334409
   0.9004668989    6.8067021786    2.0836056080
  15.3265873912   14.8604956192    5.1877013746
   3.6573449822   15.3982483183    8.4328255143
  11.4287260648    6.5300829849    3.8139193899
   7.2638534192    7.3491521239   17.4138480663
   2.7753548507    6.5816924049    5.3849653655
   1.2757837555    8.5851998430    2.7382094664
   6.8356793478    6.9191321876    3.5324017963
   8.1400417025   16.2449417218   16.6392808977
  11.0981797387    4.8754986658    3.1607867100
   7.6331914563    7.0461535543    5.1968600377
   0.8562783191    4.7666997729   12.0198569487
   8.2639581027   19.0650780732   11.8586151656
  11.3156389198   10.3457505121    4.1875361638
   9.4141380101   15.0387813257   16.1202351360
  12.6056780457    7.0230542638    6.8623549565
  11.1087816889    8.7721851578    3.3536913634
   9.1661108372   17.6527830305   11.5105848941
  -0.8268746250   18.8805606094    3.4116325023
  11.8798820427   11.0168239459    1.4889079039
  13.0373121989    6.8789116671    1.5834978080
   8.5647488436    5.3216272227    3.0389417736
  -0.8850225571   13.4273418071    4.9189042137
  11.8693323633    9.1900336794    1.0234504107
  12.4690798439    5.2230275178    1.1653066507
   9.7851081794   16.3943966901   17.1961811818
   9.3270958160    5.5910454556    4.6414724091
   7.5782904651   17.5001372962   11.7284320973
   1.8370904669   14.5013615946    5.5830033097
  -1.1087571378   14.3257171199    3.4097926088
   9.2960197221    9.3660817363   10.5949855071
  14.3205881677    7.7123177294    6.4803373598
  -1.0321689967   12.4355963631    3.5310315636
  15.4131819161    7.5439347167    3.5692677218
   3.3087039284   15.5598704317    5.9076045039
  13.9692128048    6.0210427684    5.7581656668
   7.1379434939   19.2931562217   13.6979910627
  16.6625357047    6.5433925672    3.8111527042
  12.1030898156    9.1730431132    5.8552447922
  12.9509137226   10.3225410254    0.5801725860
   3.2638837757   13.8199244589    4.9996295391
  13.5262980939    9.6674261732    5.0663288865
  12.2302732606    6.6341326229    0.2061268881
   9.8062446824   13.1821389902   17.2725064596
  -0.7397025375    7.9227740054   14.2331001450
   9.3963838618   11.7173385534   19.1402787503
   7.3694769762   18.0346316709   14.9877753010
  10.7073817765   14.1764465987   18.5838054370
  14.7033496646    5.6817300580    2.3464143476
   9.3916691113   18.8386309886   15.8501294635
  15.1071351083    6.9550325436    1.2477299913
   8.0412650619   12.5988270275   19.2073353159
   1.8327459689   10.0356302977   16.7202092589
   1.2303960412   14.1972798147   16.1169755711
  10.1176648087   18.6383481192    5.8265250058
  11.1977746921    1.6803356138    6.4069602594
   5.3228703238   10.5687726604    8.1939959022
   3.6818467319   11.6475446705    5.1629669738
  11.2568224795    1.5631161101    8.1500202306
  16.0551569987    9.5469048077    0.7304147898
  15.6436403252   11.4564715357   18.7019367039
  14.6941971799    5.1718153193   11.9841000445
  15.1384906550   12.8386688288    1.6997151977
  14.4062852192   12.7122977031    0.0404455784
  -2.8263188518   19.8729588286   12.0816297561
   2.9491699332    1.4338114681   13.4361279671
   0.7609205484   17.4723435573   13.3600519103
   1.4321384744    2.3613174252    9.9667427457
   7.8588553695   19.9275838019   16.0586880437
   4.4015716321   11.7273190702    7.2916895628
  -2.0414638637   14.1392821567   15.3112685986
   9.1387431422   17.7011303544    3.6939139423
   3.5788444745   10.0959266715    9.2546063284
   2.4247440359    9.0990573582   15.2067258579
   7.6732108207   18.5772902526    5.3435218274
   0.4556156423    7.3081981755    0.1495811665
   1.7931276043   13.8899287429   14.4130170812
   9.7428532458   10.8703290757    2.8296091574
   2.0154141438   10.7747708946    8.6000066465
  11.3418507451   20.0767237567   14.3270873766
   4.3638173919   11.8689066449    3.6540070053
   2.7138941625   12.7023625437   16.0622071103
   1.4772178785   19.0247413575   13.6326214616
   2.9306772512    1.7836556148   11.0611586569
   9.9228277107   17.3486100201    7.2229178227
  -1.5648919498   12.2673867615   15.4241265085
  15.4274587414    3.8101443520    0.4271651953
   3.5138337364   10.3890701446   15.9998877455
  14.4314931812   11.4883344856    1.3390747486
  12.6747346135    0.9786012223    7.1196124125
   4.0376973592   10.1051551434    3.9697413348
   8.5725743937   10.2406939447    1.6961849730
  15.8641856271    6.3667943026   18.9845471094
   6.5740608240   10.2070351299    6.4386148377
  13.9967286948    2.5166993560   14.1416199972
  -0.8307486025    8.0932130484   18.3750951990
  10.7821594624   16.9426718828    3.7408183405
  -1.2040005458    7.8753555175    0.0927572371
  -0.9549285046   19.4373677138   14.2086876011
   0.3859976406    1.4719229524   13.5379324721
   1.6258380321   18.1343136340   12.0726971218
   2.5623007443    3.4870555095   10.9282799702
   0.7806846409   10.0736829834    0.4994306710
  17.1721872794    3.9985064493    0.1511224331
   0.2260966842   12.0612623795   18.5642137831
   1.0895686832   11.9636701414   16.6194524645
  14.1577582823    1.7409417441   15.7900778462
   9.5053140789   15.9893065150    3.3412168687
   2.2432245149    9.0905381199    8.6555261942
   7.4676299707   17.2531928033    6.3904250283
   5.2296929743    9.2473138306    5.7626064910
   8.1503533391   11.8602561745    2.5628453223
  -0.8387235842   13.2976787974   16.5238809260
   4.5427685645    9.0166956745    1.6191033735
   8.3688827325   13.9272180781    7.7734657803
  12.1447574808   12.6695855506   14.0232574266
   4.1099725692    1.4535588884   16.4479305965
   1.9819233101    3.1358347034   18.3240141450
  -0.0683061294    6.2560199983    6.2743444896
   3.4449215260    5.6537194226    0.9776320485
   0.9481056307    3.5008052928    5.3057974211
  10.7872018522   11.2646510961    6.1253697422
   5.0659426708   18.0065264994   10.4347632597
  16.8044218187    1.0643596449    1.8287994081
  11.2968444064   10.5244494207   16.6010348209
   2.9789713590   16.6136820848    0.0516318331
  12.2074586515   17.1753642942   15.8576601595
   6.2564640805    1.4596909709    9.7641431296
   2.3102709347   14.3228295663    2.3286643160
   7.0117628579   13.8692356665    1.4722791773
  11.8822374678   19.4863880814    4.4580413067
   5.7120369680   13.7216971929   18.7271891641
  14.8253066506   15.6254021160   10.8253732358
   3.9142680849   18.9101677061    3.7154522586
   5.0164202477    1.4521917799    2.5519281279
  11.8819302699   16.0865041595   18.7714544402
   6.7169196497    2.6975216645    6.4197466612
  13.2664426157   18.5215966764   11.4603799104
  11.5892233594   15.1360809848   10.0441596832
   3.2697890834   15.3485571684   13.0385141781
   4.7867530493   17.5140848215   14.6116679210
  10.0796384389    4.0526245246   15.5963692872
   9.8047155700    3.8071825245   17.9855500139
  -0.7370550925   17.7384608413    8.2600360382
   9.5976304170   13.3732827404   11.5688558847
  12.0629985250   14.1728932387    4.4283989525
   1.5791541089   13.7570129942    9.9247564144
  15.5518119008   12.3181349438    9.7142602183
  15.7896819557    9.6298412642    7.1013517457
  11.7175364110    2.9035656935   16.9826710190
   3.8961267960    4.7572839646    5.5267806918
  -1.7182509975   17.4245276082    4.6154479533
   8.7902799340    7.2564390454    3.5001515184
   8.3879289196    7.0032007124   15.7516462854
  14.8703409412   13.2757694598    4.0503465165
   3.1168960802   13.7584074859    6.9856647618
   8.7521256160    7.8119926451   11.8144565358
  13.0780844307    7.5552282953    4.8884589439
  -0.7217151347    8.1132654283    2.5610069591
   0.4191483131    6.6525239007   12.4401062959
   8.7331819091   14.7432186751   18.0066266474
  10.9714391590    6.5234393350    1.8527303372
  12.9085322882    9.6918517887    2.7128223373
   8.6136286145   17.7954511654   13.4885503259
  16.6486153661    5.1299649599   11.3578564981
  15.9780725423    6.9712517751   12.6962379553
  16.5552561385    5.3157376541    1.5203600419
   1.8035094171   11.0879168249   15.0378124445
  12.4925670374    1.2760259955   14.6142152108
   5.6343647486   11.0625707045    4.9816010510
   7.7357052516   19.1710380069    7.3809711959
   9.5942303273   11.8891170627    1.0249452168
  -0.0971774449   10.0622503579   18.4192852578
  -0.1189545566   19.0952059992   12.2435505099
   1.1615026559    2.5102537127   12.0934571769
  -1.4794720966   11.6553153414    0.4599765198
   9.5770059063   16.5504608910    5.4122551712
  -0.1401975045   13.6732367750   14.6340286912
   3.4652852290    9.8732880211    7.2508369766
