B2 C140 Ca1 F48 H298 O66 
1.0
1.7854280427859894e+01 2.8898369924568804e-16 -3.3671976961717965e-17 
-3.0242068238167135e+00 1.9237481534408222e+01 -2.0232844704339009e-16 
-1.0018632151650116e-01 1.3851631587938376e+00 1.9395705635163807e+01 
B C Ca F H O 
2 140 1 48 298 66 
Cartesian
  10.5094527284    3.7695597121   16.7463216304
  -0.7976834131    6.2669089825   12.0696272447
   0.0546961768    1.6337745018    1.5526169998
   7.3467170417   13.6512164652    7.3709592514
   4.7249831791    6.5722681905    1.0502095787
  12.9377682936   12.6475048154   12.3361327345
   4.5526757152    2.9756900982   16.4580251300
   2.4211347348    1.9907462325   18.1149051954
   1.5841978257    2.5311915600    5.5744112834
   2.7914937104    1.2519852231   16.8079404386
  -0.2037748680    4.0045814616    5.9400381115
   3.2710706203    6.4712634791   19.0645358779
   2.4081729961   17.4588802686   18.2221814826
   1.0935551323    3.7025483348   17.2753133978
  12.1986713652   15.8726980148   15.0008273256
   5.2511300372    9.9242300424    0.7986055723
   6.0542237986   17.0057475554    9.3664204474
  12.3980283875   11.8442406200   16.0529727830
   9.6261032200   11.9785638341    6.8514555366
   9.5002943055   13.4058565866    6.5390684169
  13.0620127736   11.7040981484   14.6390760218
   4.0414857256    7.9657703801    0.9699288793
  12.2248079830    9.5496555747   16.7993478491
  12.0056341956   11.8407534670    6.2968257475
  -0.0250040323    4.9930715425    7.0548422818
   0.7881537365    7.2522389122    6.7597295915
   4.8439706912   19.0931499295    9.6189466621
   2.1052490296   16.3953896350    1.1580713286
  15.9696300356    1.7006378453    2.7940611540
   3.9523613593   19.8763734527   10.6031744539
   1.3356790205   15.1741502464    1.4936064693
  13.3915362623   16.8648622559   16.7508466987
   5.4902484953    2.4810241099   10.6751049972
   7.3738763281   13.9681055139    2.9988010893
  14.8313213083    0.8167184443    3.2423458859
   5.9557104993   13.6953052304    1.0148506599
   5.8119246310   14.8686649202   18.9640230444
  15.0222966378   15.3128792069   12.1153546304
   1.9010072041   12.8182053453    1.9488140274
  13.0782733913   15.7822202813   17.8924183625
   6.0773178875   13.3350244995   17.1242590252
   4.9454093817   17.8836968766    3.8632048623
   7.2342580669    0.4287001270    2.6199047729
   6.3655693350    1.6303553851    2.6341673093
   4.3653662803    2.5275680970    2.0781603340
  15.1666698929   17.0999139561   10.3826267771
   6.9747818110    1.3295943711    6.7398749052
  12.4248557872   15.1110063326    8.8433867895
  13.7226151388   17.7000387015   10.3017912521
   3.7258174440   16.1187662336   11.9183636736
  13.0442204156   18.3944006499    4.3677306377
   7.8689496201    2.5877609726   18.1295332521
   8.1584393666    5.0204335629   19.0633714253
   8.3386059423    4.0346331134   17.9926675955
   4.0797811842   15.4880477659   14.1506261196
  12.1628008795   18.8189534497   11.5188985182
  10.2921957997   14.9537911520    9.7964717517
   9.6867520593    3.4750633432   13.1876934751
  12.0253265569   17.1710488311   19.3775746796
  11.9804411814   13.3880310857    3.2482828934
   9.7454906658   14.6637833759   11.2211614708
   5.4811234566    3.0460335041    6.2725678083
   1.5709127070   12.8570726439   11.1294186727
   3.8437579951   16.7363807198   15.0061816170
   0.2141067344   18.5289898991    8.6081486243
  10.7548987860    3.7463230607   14.3456910863
  11.7845401444    4.8342855509   13.9457652465
   5.4730591650    4.4649262993    5.7997861001
   4.6857031903   18.9231919936   15.0436106241
   8.8093081543   12.5599195881   10.7192722195
  -1.5971470090   13.4599191962    8.7128622474
  15.2687835359   11.3034934319    8.8903219711
  -0.5803049340   16.8941079499    6.8150352098
  -1.4086276221   10.5810584726    8.1833629967
   6.0565041056    6.7681307181   15.4092256872
  13.3128526627   15.0988954181    4.5057779100
  -1.4273501078   17.7395445086    5.9645457279
   2.9924656996   13.6613886819    9.3385752854
  16.0336411888   10.2571904290    5.7890851366
   3.9284222944    6.1784536323    5.3105477652
  12.0877310512    2.6991697894   18.2422710832
   2.3406070937    5.6118057770   13.3233833423
   9.1022435954   20.4611959859   18.4810459383
  14.4637986296   14.0054198995    5.0488969412
   7.3454259783    7.4434809413   16.1723475809
   2.9206756679   14.3731060252    8.0221655759
   7.6036647723    7.3458746017    4.1201739435
  -0.4654570029   17.7860581547    3.7332803936
   7.3253066967    9.0090742052   16.0524749654
   9.8057767587    7.5748185128    9.5245119237
   0.5858094414    7.6537191625    2.9873448550
  13.4433884578    3.4623296900   18.5813690049
   2.3395378073    6.1088042073   10.7238666000
   1.5582111032    5.7536314121   12.0265278241
  10.8378116898    5.9509019500    3.0767011672
   9.3866054702    6.0213314363    3.6667240317
   9.1270563320   15.7234353531   16.7401859854
   8.7865392511    8.3952972857   10.4282427638
  12.3119271201    9.4152061748    3.7080534871
   8.5979000167   17.7965141191   11.8601749834
  -1.3080809382   13.1432995417    3.9907669706
  13.9898359160    7.1405791318    6.0172050317
   7.2736424158    8.6575544904   10.0176680350
  12.4253685317    9.9242136617    1.4816841645
  12.0737115504    6.3127136496    1.1012008874
   2.9274010871   14.4498960534    5.6721891886
  12.7686300950    8.8534362470    5.0248360013
  16.0134653317    7.1810148213    3.1033097306
   8.2403013281   18.7062942330   14.0261267258
   9.7339159355   13.7508000300   17.9924183194
  15.0576206530    8.1344557376   14.4316465644
  16.1283182084    8.2004754564   13.3095748120
  15.6126122189    6.2181753606    2.0385018355
  15.3395480294    3.4103190010   10.9115873924
   9.2089146975   12.7713345489   19.0833701674
  15.3460781648    4.9374169074   11.1403445199
   8.9475380402   19.4733089228   15.0509704184
  14.7206012835    5.7091004681    9.9078949019
  16.1942225959    9.4991170110   12.5605146163
  11.4474212439    1.1479893171    7.1015187132
   2.6893731495   10.2376195333   15.5878395048
  -1.4990791913   11.5734977200   19.2352946731
   1.3924680608   13.6090693473   14.9795437148
  15.2907715459   12.0397900687    0.7877651353
   4.7035209437   10.9340094884    7.3062722344
   4.6722975552   11.0910119064    4.0926711182
   9.4822608822   17.6522482777    6.1239496704
   8.0563057276   18.2421420691    6.1050543592
   1.9395253641   12.4260869211   15.7061358177
  -0.5903093527   19.9933240913   13.0938391841
   1.1581063417    1.3778762782   12.4821907999
   1.0000010592   18.4193924285   12.5254280735
   2.0241770860    2.2976403437   10.5185203413
   8.8292124894   11.2087327511    1.9250172594
   2.6351039873   10.0759868312    8.3297289336
   5.6865362856   10.3459565574    6.2308999296
  13.9396139158    1.5148564278   14.6927710852
  -0.4121864027    8.7956135297   18.6171747907
  16.5852175950    4.6124532590    0.5019805241
  -0.9258029823   13.2383675420   15.4935585637
  -0.0247555191   11.1683210071   19.0748732144
   9.8320757817   16.6566028219    3.8571969117
   8.7507801017    7.0303471469   13.4605422578
   7.8934367097    2.1019738692   16.8836422141
   8.7750763322    6.2355929979   18.7964566727
   9.2234753884    4.5200832904   12.4507441419
   8.7175820683    1.8152059451   18.9058799637
   8.7689797556    3.2995670194    0.9153068358
   6.5369829641    2.5377409716   18.6587251722
   6.8504390638    5.4421280215   19.2401048512
   8.6424159172    2.9002158045   13.6539820461
  12.4337215702    4.4076324693   12.7378774738
  10.2589479098    2.5940693327   12.2626155941
  12.7273425977    5.0562738436   14.8895097137
   4.8049188088    6.9719033067   15.7492300698
   6.2559902415    5.4101965375   15.7672081801
  11.3067174874    6.1884748894   13.7503907109
   6.2057682890    6.8351943631   13.9938932827
   3.1001003863    4.5041923447   13.3016702457
   8.1515235417   19.6993824374   17.8474363492
   3.1751168406    6.7068705444   13.6369281768
  11.0878721775    7.7599528377   10.0620023065
   1.5797850048    5.7685835867    9.6406511955
   7.1661726145    9.4340695902   14.7529325527
   8.5079129275    9.4792580657   16.4456792000
   1.5072841568    5.4091428908   14.3470403637
   9.7104016135    8.0499106548    8.2556979066
   9.1855365961   18.8895998817    0.4096977023
  14.5237359127    3.4339519838   17.8356122143
  10.3626674073   19.9838813240   18.0878867415
   3.5665311358    5.4547341593   10.7009014298
   9.7303640440    6.2206211934    9.4552007369
   6.5304356250    9.0145014726   11.0388600321
  13.9059323040    1.6415918197    0.4503696810
  13.0669748785    4.8034102096   18.5498692153
   6.2537755738    9.6392406006   16.8839585204
   2.5239548691    7.4740241767   10.7216515629
   6.6299466700    7.6472939541    9.4027157129
  15.2703965892    9.2236240490   15.2603135698
   7.3134430499    9.7232290577    9.0757258727
  14.0661635007    3.0154081975   11.2806099368
  13.7901522800    8.0773356928   14.0543416820
  14.7657408903    5.2650004580    8.6879469975
  15.6878693559    2.9706477303    9.7327009211
  15.2872184547    6.9460695734    9.7720535712
  15.2632791544    7.0080532027   15.1909127624
  -0.9014330987    9.4194452800   11.4384243266
  16.1224916737    2.8094203430   11.8226219062
  -1.2752998727   10.4519164890   13.4862609000
  13.3384585140    5.7785098169   10.1966268726
  14.9219009352    9.9196046187   12.1156103914
  -1.2009945099   20.4635094429   18.7538935944
  11.7991800093   12.7114953732   15.8837776558
   2.0856450094    2.1145709003    4.6619020015
   5.2310703167    6.6592551178    2.0433567934
   5.2533804898   16.5958084444    8.6676313242
   9.9312233341   12.0345789531    7.9189133261
   5.5112403520    6.4569119038    0.2285695959
   5.4795710044    3.0631269191   15.9222841440
  16.9080913264    4.5144524886    5.2602860085
   0.3210268476    2.6671129880    1.7623663927
   1.5422071457   18.0294894182   18.1299277291
   0.3425235527    1.4469924838    0.5796805633
   6.8988196248   14.2195387207    8.2195850456
   0.4639492683    4.4561993014   17.8015681415
   0.9039518152    1.0129649551    2.0251416914
  12.3857211755   11.7378846395   11.9573166372
  -0.3265345547   19.3913484044   16.8809901420
   7.0059485979   14.2392360873    6.4654043241
  13.0477112835   16.0228963249   14.3526974853
   6.0963788844   10.3923606236    1.3442171323
  14.0278939165   12.4290922319   12.3148632756
   2.4949317335    5.7611996675   19.1384361750
   2.7559097043    7.3963204417   18.6042511255
  11.7711527387    9.1509324537   17.7107504113
  12.2487363545   11.4509307037    7.3141245575
   0.8863628272    1.8374795223    6.1195736583
  17.3686552268    3.1215528809    6.4676232900
  10.4922219890   13.8528025766    6.5864825298
   4.6299209807    3.4205146786   17.4893302446
   5.5483001168   19.8127579175    9.0265223959
  12.1971906392   14.8695308225   15.4904091261
  12.7768467094   10.7524055619   14.2393685682
   2.2918119812   16.3983020108   18.0003041794
   3.1794083223   17.6975644086   17.4641670071
  11.2164647506   15.9595188007   14.4363106716
   6.9048178218   17.4626622980    8.9247773925
   0.5072094725    2.8182119110   16.9340053173
   2.7142245258   16.5233015188    2.0082082145
   1.4609791766    7.9158027091    6.1999485994
  13.1804698452   12.0889368932   16.8119716930
   2.3514732237    2.8920141973    6.3019997447
   6.5339509026   16.2220092482   10.0993622708
   8.6565619798   11.3462705152    6.6188568247
   4.4619308829   10.7567517009    0.8244920533
   7.0668744005   12.6503669389    7.2493109156
   5.5072870294   11.0435353719   19.1735262380
   3.9817247494    6.2013098202   18.3176297445
  12.6261218568   13.5280251544   11.7431702207
   3.5345992288    2.0373236478   18.5907492432
   3.6935931044    3.5494473774   15.9563570885
   1.4871090098    4.1364186234   16.4636121242
   2.1684058288    1.5342208225   15.8713738502
  16.4776822223    1.9910637285    3.7077138028
  15.7040359641    2.7670412716    2.4565070121
  13.2696976775    9.7043159819   16.8682001326
   3.0520598295    7.8134210100    1.4603459085
   3.7743794855    9.6738020328   19.3648776392
   1.5662477767    6.9553635745    7.5408807674
   0.8098320969    4.7567585118    7.6802841063
   1.4595395430   17.2248403038    0.9300073546
  12.7666185788   11.3054675185    5.6224447032
   7.4842570952    1.4015885375   11.1931535154
  12.1013133300   12.9799800821    6.3171293401
  11.9727672977    8.7668694192   16.1062199589
   9.1569935468   13.6197169699    5.5172462468
  14.0766568937   12.0868619836   14.6820377304
   4.1845374845   18.4997735461    9.0195768907
   6.7761550276   14.8524643407    3.3355554000
  16.9289471684    5.1999644045    7.6164387602
  -0.0230944870    7.8445244452    7.2501616404
   5.3572862917   14.6681633802    1.2512409295
   6.2086207053    3.2306224312   11.0094734633
   0.6896638444   14.6535121421    0.8142100611
  13.5587367193   17.8907214807   17.1714766423
  14.3562063460   16.5427615073   16.3014737247
   4.7794224989   15.1333501400   18.8231692189
  13.9662539412   15.2217151224   12.4578522549
   8.3984428017   14.1137231727    3.2078408001
   4.7775053890    2.9823773797   10.0578032362
   3.5252414695   19.0912842927   11.2795457888
   6.0777149850   12.2871945939   16.8521569153
  15.5265276270   14.2803838978   12.1545108767
  11.4776768992   19.2890871568    2.5822883695
  14.0690004406    1.5932734372    3.3467981855
   4.7334623249   17.2095091510    4.7301014355
   6.3750192551    1.3042278739    7.6125101593
   3.9932719626   18.9077602421    1.6673641432
   0.6099268381   15.5039792500    2.2461340333
   6.4599504871    2.2566804906    3.5241208135
   3.3111113105    2.3558770322    1.9665136721
  -2.1570416737   17.5830853144   11.2330452484
   0.8988806885   12.4879309067    2.3261711488
   2.1392834460   12.6581702414    0.8363507125
   7.0487778798   13.1634491577    3.6673619553
  12.9732849938   14.7637005018   17.5345764710
   5.0693933974    2.2846551059   11.6559795467
  13.9157894384   15.9084771930   18.5533073517
   7.0089856495   13.6679633964   16.7086714605
  12.2253810450   14.1820121716    8.2491371520
  12.8481252985   17.0581883116   10.3301193630
   5.4538879416   12.8732018532    1.5153446394
   3.0127239936   16.0155890898   11.0762789694
   6.0598303003   18.0915991502    3.9111092811
   4.6509592157   15.6711906044   11.4951217990
  13.5214071945   15.1821808820    9.0039564562
   4.6937395047    2.9392957514    1.1132593185
  -2.2316520407   15.9244111435   12.7752022972
   6.4775943749   15.6009154042   18.5007488289
   2.7725831131   12.3153047122    2.5481985962
   8.0050948611    1.1663749586    7.0418110246
   6.7305314260    0.6117536817    5.9517683108
   5.2071439472   13.8706193566   16.5686545512
   7.9527256681    4.4233412331   17.0243877418
  11.8319943487   19.8984514309   11.6177901446
   3.8261379404   14.6790038155   14.8334942166
   5.1423342249   15.3899319545   13.8444077705
  10.0792728386   14.1556103837    9.0819273271
   3.9465384823   17.1673780277   12.2059989971
   4.8961714917   17.4036101119    2.8421019524
   8.3478894232    0.8860987197    2.4532547064
  -2.2804715806   17.1185128195    9.4451668762
  14.0088824052   18.8091990083    4.0198849102
   6.6842160024    2.2585221978    1.8034210238
  12.8102914307   17.5190901090    3.6968437031
  13.2007429358   17.9745180845    5.3706980430
   4.5416393760    3.3373778720    2.8881212151
  12.1505963574   16.0695148854    8.2093165450
  13.5600425611   18.1490150253    9.2589985228
  10.6524622924   14.8841506944   11.9683047486
   0.3494480825   18.5545577761    9.7016169686
   2.0740089572   11.9303867881   10.8730772880
  12.5931227912   13.6117255926    2.3892112193
  10.9273249672   13.1696940621    3.0783660569
  11.5367490918   18.3284408161   10.8510485049
  12.2701425302   18.0635675210   18.7219444524
  11.1992023453   16.0583586489    0.4974761648
   1.9905702978   13.2997612871   12.0205020366
  11.8441936722   18.3755594032   12.5054709023
   0.5054742463   12.6568345630   11.3833815354
  12.3070650771   12.4581201339    3.7185675695
   4.8139897763    2.2860902713    5.6542050174
  10.0529316589   16.0232520346    9.4664045922
  15.5329271996   13.7101079415    7.8710682619
   9.4065134973   11.7305090642   10.2962507893
   5.1884889172    2.9952262300    7.3916470149
  12.8921179801   15.6482570117    0.8483073129
   5.9630977931    4.5977669144    4.8318363590
   5.9748673273    4.9968159402    6.5864619919
  14.5008250131   11.5792694794    8.1568978719
   5.3137944583   19.7282919464   14.5204104373
  -0.0505017142   19.4578634895    8.2181724385
   1.1488874142   18.2069173407    8.1400919346
   8.8111733067   15.0923238132   11.4523215072
   4.1412493793   16.5178406442   16.0882048517
   2.8747124216   17.1235359113   14.8944551360
  -0.6507191266   13.1948024619    8.1831108515
  -0.6877573002   11.3601799502    7.8167311862
  11.4477944530    2.7768897111   14.4960010870
  13.6786365018   15.4064718617    3.5044757514
   4.8290496104   18.8828178921   16.1733902228
   8.3450008942   13.1397830208    9.8346853356
  15.4644871391   11.1547337064    5.6127371739
   3.5927762597   19.1689302847   14.8838869492
  -1.2381781654   18.8213569604    5.9432345620
  -2.4303606559   17.5529221913    6.2876268351
   8.0127336945   12.2151201963   11.3102285068
   3.2214860684   12.5865300440    9.1680357964
  -1.4954394230   14.3644927842    9.3886659950
  13.1997314881   15.8531510738    5.2613963236
   3.7457590166   14.1346051117    9.9195109945
   0.3513901707   17.1711073212    6.4294993011
  11.4496710847    3.0509194568   19.0433830342
  14.7617950871   10.6673066174    9.6060153720
  -0.9736429820   15.8040882778    6.8714086384
  15.7509915836    9.4669476758    5.0416821040
   4.6813020710    6.2668665522    4.5610949418
   7.3938096134    8.3961223010    4.1755512177
   3.8560495400    6.8763357309    6.1394589780
  -0.7378863034    9.9904118028    8.8711089360
  14.2073628351   13.3166176349    5.8376758610
   0.6577180721    7.1004027688    3.7886864038
  -0.6745266240   10.3714453919    5.5680882375
  -0.4613269038   17.2473347236    2.8547434098
   0.6047070497   17.7438414414    4.0933007017
   2.0914064268   15.0732747374    7.8598630166
   0.9953088480    7.1580706890    2.0692971326
  15.2159793637   14.7279970707    5.5488572723
   3.6328787290   15.1606793319    8.0681306823
  11.6274024907    6.6063473605    3.5767264451
   7.3528794199    7.2333312340   17.2842551210
   3.0161350319    6.3491039417    4.8041583069
   1.1251945263    8.5532120758    3.0904530560
   6.7826595160    6.7975904945    3.6049043983
   8.5273722790   16.6547043657   16.7506052580
  11.0610568784    4.8356069967    3.1692742440
   7.6403868901    6.9662204862    5.1870015727
   1.1205660216    4.8069569938   11.8694569144
   8.4206306648   18.9107345015   11.5405354814
  11.6546910863   10.2272839457    3.9819394626
   9.1977483571   15.1518189466   15.7589628025
  13.4918330604    6.8730530670    6.8810620530
  11.4783901523    8.6896914229    3.3543968551
   9.4370541120   17.3575709803   11.2912431194
  -0.7979158570   18.7539215264    3.3882018995
  11.4779600160   10.4314012449    1.7882169085
  12.8184799476    6.8735546036    1.7466355717
   8.8470702804    5.1668453468    3.2481434544
  -0.9507896382   12.5327638869    4.8488095954
  12.0369585043    8.8694730235    1.2118569296
  12.2922442021    5.1943825291    1.0890986577
  10.1725133300   16.0867696045   16.7749996800
   9.4308983153    5.7640321663    4.7284919699
   7.6213663918   17.2652053216   11.7185691178
   1.8767826338   14.6898928967    5.3993736827
  -0.7761698491   14.1156470313    3.7933796110
   9.2979846005    9.3745140700   10.3460347635
  14.6275696896    7.9449863581    6.3303295475
  -1.0517940482   12.3623010628    3.1855946192
  15.1962085791    8.0013939036    3.0235869240
   3.3113866952   15.4471022317    6.0095845598
  14.4067251637    6.2149973451    5.6943710462
   7.7261505661   19.4630711657   13.4096956279
  16.1451413647    6.6220632692    4.0493000071
  11.7216791440    8.8115002035    5.4418340253
  12.9518181921   10.5546751748    0.7686055426
   3.4975339958   13.9085584667    4.8804963472
  13.4306544260    9.4835940427    5.5960772199
  12.0454393677    6.7752423694    0.1257566984
   9.8802148382   13.2350053490   16.9923301209
  -0.8142382199    8.0883972751   13.9070729681
   9.6370365448   11.7467987483   18.8973422594
   7.4301185681   18.0109046950   14.4304601301
  10.7762773702   14.1075191578   18.1499406385
  14.8268634069    5.5346419478    2.3590425970
   9.7640023558   18.8667601193   15.3718029505
  15.1230573840    6.8899849633    1.2537601839
   8.1233718550   12.6126953109   19.0300314736
   2.0204229135   10.1057476890   16.4059157253
   1.5890009244   14.5320966465   15.6017245626
  10.4022191661   18.2780141254    5.8164185962
  10.6740386759    1.7090036333    6.5497319569
   5.2918678266   11.1079702944    8.2755067403
   3.8243590719   10.8883556697    4.7227071953
  11.5109122497    1.5274363923    8.0910934737
  15.8265395940    9.6294160690    0.6094397556
  15.7599751142   11.6832024871   18.2660268750
  14.7473533434    5.2067348740   11.9742046674
  15.4591142934   13.1320520311    1.2451948317
  14.4399015561   13.4276834097   19.2834781506
  -2.1866201251   19.8441833237   11.6715364539
   3.0798974274    1.4250257734   13.6601918140
   0.5456524285   17.6054055622   13.0806281799
   1.2764162168    1.6900632757    9.7371522952
   8.2478791521   19.6850914837   15.9729038959
   4.1371546064   11.8083975208    6.9308497001
  -1.8648650863   13.8459073984   15.2588437015
   9.5422449033   17.6652049529    3.6284431289
   3.1371060345   10.3315752110    9.3240981331
   2.6314936053    9.4275880993   14.9466654218
   7.7862223803   18.9087097616    5.2837234318
   0.1724605383    6.9996172386    0.1057005358
   1.8983544890   13.7486341399   14.0115064137
   9.1057109902   11.4095083443    2.9501476858
   1.8436032783   10.8090297625    8.0847280339
  11.3624034093   19.8037632054   14.5303633842
   4.6883438594   12.0548075772    3.5570714243
   2.9506868068   12.8126831847   16.0705474544
   1.7273465580   19.0213060649   13.1570218919
   2.8658795670    1.6378214878   10.6571522471
   9.8450015961   17.2646808474    7.0435848278
  -1.2160414134   12.2065285596   15.6571625907
  15.7701163873    3.8414268871    0.7535664084
   3.6587337740   10.5508689933   15.8598545844
  14.8925517750   11.3150475397    1.4859222948
  12.3624570657    1.0822500607    6.5068774981
   4.5539301912   10.2926327257    3.2521964149
   8.7344625247   10.1343976074    1.8588087761
  16.1217839928    6.6418339682   19.0424785981
   6.6893400919   10.3596933595    6.5988376323
  14.4736171423    2.1298581687   13.9614861435
  -0.4265792616    8.2183912091   17.6907825822
  10.9626241890   16.4208792067    3.7563255710
  16.4260951522    9.0690343493   18.8860287296
  -0.9560287592   19.1904128389   13.7830391579
   0.2773364992    1.5129492407   13.1046807866
   1.4987773250   17.9498773605   11.6859594096
   2.1829788515    3.1919762462    9.8717501308
   0.5590567274    9.8525173746    0.7314780215
  -0.1839853836    4.2941743606    0.2553546567
   0.4285231943   12.0004569545   18.5048970384
   1.1902004276   12.1999495831   16.5113499572
  14.1929320526    1.8312532837   15.8008277272
   9.2603036559   15.9408315659    3.1808107422
   2.1871410035    9.0946882966    8.3898559110
   7.3222534892   17.4172156885    6.2153364756
   5.5310488412    9.2333121666    5.8108538445
   7.8441870649   11.6207879883    1.7951082955
  -0.6998062773   13.6563780506   16.4597438448
   4.8594000572    8.8717939789    1.6557750198
   8.6802738346   13.9104380270    7.6347984645
  12.4972388731   12.8651130271   13.7951177554
   4.2971941006    1.5681912710   16.5008594310
   2.0593026895    3.2859293971   18.1546819817
   0.2759913910    6.1732538111    6.1853239954
   3.8805076734    5.3909335615    0.9133799796
   0.8651803513    3.6824164142    5.0511245842
  10.6369430046   11.4557863480    5.9586630280
   5.5931539350   18.0578856999   10.4290208422
  16.6979368624    1.0416699479    1.7359722049
  11.5486249033   10.8384191933   16.4385393716
   3.0811156645   16.3777546111    0.0761124512
  12.3211405616   17.0695219675   15.8226027555
   5.8305942672    1.3224564247    9.9206007360
   2.1638696152   14.2257705151    2.0782329014
   7.1948939084   13.7245678315    1.6046869286
  12.0234741082   19.3646159856    4.4886584278
   6.0354435131   13.5348865064   18.5290637639
  15.1675326778   15.6033822407   10.6782394545
   4.1119257612   18.9804780803    3.8091749440
   5.0157933923    1.3136602532    2.4442473448
  11.8087508626   16.0390902650   18.5591523622
   6.8875462776    2.6945033869    6.2098646087
  13.5869915858   18.6081044996   11.3457937096
  11.6977512793   15.1966909876   10.0251146927
   3.1024962037   15.5168138209   13.0627638307
   4.8448706174   17.6813494621   14.4779671472
  10.1158203598    4.2328512016   15.4898630880
   9.7933222352    4.0488430545   17.9089064577
  -0.6960243048   17.4782860899    8.2556045931
   9.6532458693   13.2945043752   11.5593986185
  11.9879218637   14.4501338394    4.2833572459
   1.7219791624   13.7618506631   10.0935712132
  15.7763647633   12.4361079093    9.5403568813
  15.8879271697    9.7420341386    7.1277593267
  11.6548525911    2.9905096198   16.9420072098
   4.0913451615    4.8238970877    5.7980420030
  -1.5789569666   17.2139321111    4.6302986884
   8.7802167736    7.2864863962    3.4278482512
   8.4873606185    7.0266633681   15.6648364649
  15.1299068354   13.2552500518    3.9146496945
   2.9593737258   13.5568848619    6.8053199350
   8.8448826997    7.8035727795   11.6195562205
  13.1900112501    7.5164855594    4.8029161458
  -0.7689353324    7.9976236532    2.8339356362
   0.4663250451    6.6963956739   12.0992915331
   8.7514629850   14.8359725193   17.8127770454
  10.7841819543    6.4159830052    1.7066067221
  13.2192146377    9.6088624660    2.6839379470
   9.0232398749   17.8034689167   13.2132663188
  16.7225664677    5.2151641255   11.2683784768
  15.9574006453    7.0737322058   12.5534954304
  16.7968179394    5.3630978786    1.7244513696
   1.9755305027   11.3452185220   14.8803667488
  12.4692182855    1.4492157607   14.4565980371
   5.7602214242   11.1907074850    5.0776499277
   7.9374796344   18.9784034323    7.3032353263
   9.8469826480   11.7122184916    1.0403367481
   0.3375992130    9.9979026041   18.2905102684
   0.1512031078   19.3727264176   12.0230325473
   1.3859324592    2.6434066064   11.6951264395
  -1.2435197798   11.5480387810    0.3354413620
   9.5095530559   16.4537537637    5.2524679083
   0.0561788947   13.4524341055   14.4822065600
   3.7029864706    9.9281531140    7.3678152144
