B2 C140 Ca1 F48 H298 O66 
1.0
1.8930798605059760e+01 -4.0150760920369814e-16 7.5085628599425486e-17 
-2.6433027973915477e+00 1.9823193538942146e+01 -3.0248895561263083e-18 
-1.1779160049142654e+00 6.1311266486407143e-04 1.9303452976944570e+01 
B C Ca F H O 
2 140 1 48 298 66 
Cartesian
  10.1819236713    2.1833916786   16.6860376916
  -1.2267015852    5.6036667919   12.0864564617
  18.5786006739    0.0681322645    1.3527894218
   7.9119763988   14.4070910906    6.6772605985
   5.8964324525    6.6363583618    1.0510992671
  14.1843815944   13.3490532601   12.6598592523
   3.8079463652    1.6470243135   16.2342615771
   1.8073950570    0.2038094975   18.7488769662
   1.2398099171    2.5202308224    4.8709975692
   2.4626098392    0.2569122681   17.4009202994
  18.1231705490    3.2913206579    5.9501234355
   4.2189700411    4.8573662847    0.3255882920
   1.6190740560   15.6191047999   17.7403255819
   0.6106988486    2.4444686005   18.5642952128
  11.8808752626   15.3174667335   15.5477171483
   4.3966857801   10.0325501386    0.3272014775
   6.3454851481   16.7943332819    9.3435938338
  13.8511425898   11.8063331620   15.7921266997
   9.4279805457   11.6091576517    6.3373144963
   9.8236634522   13.1066357343    6.2148598119
  13.5880657142   11.9270941704   14.2895998726
   4.9147480112    7.8279473477    0.8709949592
  11.9652809147   10.8718070183   16.9554526427
  11.4620234908   10.3302842511    6.7377674154
  -0.2848337926    4.3631840215    6.8243231289
  -0.0019313127    6.7062586016    6.7274599525
   4.6088945249   18.4202856220    9.3664229154
   2.4499690244   16.3621444532    0.8119607579
  16.9909982822    1.1776157598    2.8762955634
   3.8652990217   19.0043163132   10.5448716078
   2.1825595585   15.1303898745    1.7325817337
  13.5122839435   16.3799702200   17.0193610802
   6.0155302434    1.2642736588   11.2345701674
   7.5891504712   13.0506197656    3.5370709437
  15.6788251005    0.7374564647    3.5163363548
   6.5843913679   13.8132707039    1.7219392201
   6.6476038828   14.0972302963    0.2174571281
  -1.6882275218   15.0610094455   11.7590983773
   3.2369890672   13.4300562323    2.9134108498
  13.4235484789   15.2935906306   18.1526148449
   5.1271440758   12.7287891960   17.5402041743
   4.8775947404   17.4661743272    4.1420996072
   4.6280133113   19.5923246534    3.0712426178
   6.6981060220    1.1828447284    3.1631615107
   4.8837827731    2.3943882762    2.5488362743
  -2.3883843068   17.2170702312   11.0283283321
   6.1294769046    0.6823663826    6.5779032850
  12.8960939714   14.3351724104    8.3186113884
  15.0320764197   17.2367804131   10.6967624672
   3.3934244652   15.8558840624   12.1450314784
  13.3984810112   18.2704393361    3.7940555893
   7.0774537064    2.2956933902   17.8457611202
   8.2930994746    4.3292900759   18.8717336666
   8.2906305010    3.3059379831   17.7534294885
   3.8823384769   15.3674142702   14.5073314389
  13.0659755223   17.9654823724   11.7207097238
  11.0564406151   14.9377965386    9.8895798707
   9.4029385966    2.2951880465   13.2586146030
  13.9128937220   16.4020122616    0.9274143214
  13.8458007564   12.8602648153    4.9731614540
  10.4307162869   14.3430658226   11.1114858791
   4.8959033114    2.6660564144    6.7024074097
   1.2422757129   12.7604054214   11.3983517883
   4.2640133357   16.7589375568   14.9273340409
   0.8981267414   18.3933686939    7.9538868939
  10.4097773221    2.3115766336   14.3331833658
  11.6378559432    3.3460494255   13.9079004452
   4.9492749472    4.0059890744    6.0183356274
   5.2630656051   18.6795099159   13.9620109203
   9.6115954504   12.5411629434    9.8935810712
  -0.7182215507   13.5705219199    8.4698196010
  16.6686284005   12.0685732027    7.9261009392
  -0.2420948007   17.0046285790    6.8061016632
  -1.4473091893   10.9157478506    7.1252203266
   5.6787192378    6.3256911021   14.7460046434
  15.2313594508   14.6702843528    4.2069226786
  -0.8921966642   17.9107709678    5.7364307718
   2.6755530202   12.9178779915    9.4835794691
  16.6403712578   10.2155857737    5.0602979610
   3.9636808554    6.2153622384    6.0467580754
  11.7173462892    1.1834670386   18.2320988802
   2.0084329565    4.7356939553   13.0622903423
   9.6693747377   19.6147418612   18.4242139826
  16.7330251971   14.4722343674    4.1465198332
   6.9284105952    6.6624206461   15.7797189976
   3.1040237657   13.7176375581    8.2619431978
   8.8195299760    7.8537223745    5.1506210110
   0.3821006051   18.5620471059    3.8219702667
   7.3739661003    8.1291036797   15.5936247621
  10.3463071490    7.4374478357    9.7531317215
   1.2513795410    6.6465304507    2.6132597204
  12.7864295437    2.2851010478   18.5631740402
   1.8249885104    5.1348051349   10.5557508712
   1.1729227573    4.7640419491   11.9299481271
  10.8310512376    5.2097812726    3.3868072884
   9.6230534718    5.8066193582    4.1661990085
   8.4794435884   15.5594127758   17.8115290585
   9.4225926670    7.9597879779   10.9846202090
  13.1100870627    8.1957632714    3.7119671654
   8.6374230634   18.5003733714   12.3571413818
  -0.4276384912   12.8753399536    3.7344286690
  14.7013495072    5.6504798966    5.7782242169
   7.8912076666    8.3070648748   10.5437375059
  14.3270696105    9.8873869750    2.1447274195
  12.3224663676    5.4408232963    1.4869613908
   2.3308873656   14.6693219423    6.3190759358
  13.3966216496    7.4681867381    4.9429979265
  17.7770974864    6.8071166637    2.9584891940
   9.0049026604   17.6711949003   14.4232759916
   8.9217374007   13.1730458178   17.9787743231
  15.7842951464    7.7144327479   14.3020037571
  17.0219007746    7.6328522358   13.4723557431
  17.0343199298    5.8747309504    1.9777269928
  15.3916970836    2.8612337438   11.3981440675
   8.3527513656   11.9559777787   18.7421645812
  15.6271359937    4.3239154002   11.1863946071
  10.5060775821   18.0931785034   14.4717457270
  15.3172817240    4.7631063755    9.6982953672
  -1.7076150268    8.9228760891   12.7092962610
  10.3231080785   19.2954822716    7.2384840949
   2.5094168069    9.9173957300   15.7130612632
  -2.0717606759   11.0288258679   18.8048973028
   0.5845213283   12.9599410911   15.3351522077
  16.5881277171   12.8285635676    0.2279012675
   4.6991233613   10.3059072572    6.6306766135
   5.6251886883    9.3624949272    4.0751664833
  10.1080020800   16.8731267746    4.8851801365
   9.0752180738   17.8961734085    5.6521371269
   1.4231432118   12.1052023609   16.2794810822
   2.2031563221    0.4067896652   12.6586583524
   0.8016118767    0.7883930081   12.1939987075
   0.8746748888   18.2290447235   12.5851320675
   0.7312983678    0.7118856903    9.7533171326
   9.7956980767   10.4521841605    1.1851224560
   2.3246582113    9.8532722468    6.4454438291
   6.0880011166    9.7446063928    6.3319030674
  12.1615368700   19.8232802427   14.8073441812
  -1.1028860384    8.2481648675   18.1229212360
  17.2655595053    4.1239283204    0.4989713154
  -1.6167591418   12.0938085937   15.4971354551
   0.4057025834   10.4567398458    0.0059900274
   9.7177327534   16.8653994754    2.5055519571
   9.2579818055    5.9066571967   13.6737318292
   6.8940827386    1.9988197507   16.4708992601
   9.2615649613    5.2808863603   18.6752056383
   9.1202121739    3.6106752080   12.7291997690
   7.4628642811    1.0763082676   18.5710207691
   9.6532689610    3.8247835052    0.8724670569
   5.9021222606    2.7910803432   18.4421859914
   7.0257795778    4.9344452697   18.8957495184
   8.2669631429    1.7501129334   13.6728613114
  11.8336742351    3.4438007658   12.6608990087
   9.8035919025    1.6303745394   12.1116591185
  12.7369429546    2.9902374555   14.5690821457
   4.5494968147    7.0362537674   15.0502386066
   5.3981901164    4.9802687929   14.8290951769
  11.3541699468    4.7449694937   14.3453696361
   5.9770662715    6.6694803241   13.4315148988
   3.0421284646    3.8985543278   12.9637138899
   8.8555963624   18.6042883656   18.0427323826
   2.5373671499    5.9596065255   13.1863279986
  11.5788065114    7.1131306906   10.0214789282
   0.8336886104    5.0064739676    9.6571688282
   7.9174050887    8.4460247174   14.2396505519
   8.3992099868    8.4139943053   16.4724926909
   1.2673151470    4.3527296065   14.1987827058
  10.4176260838    8.4878676689    8.8787188595
  10.9649873043   19.6361919673    0.4993668515
  13.9833955430    2.0797275505   17.9914635705
  10.9553768966   19.2190319740   17.9036474895
   2.7297899104    4.1252873887   10.2256493898
   9.7607897353    6.3744042805    9.0965639162
   7.2070098220    8.7235443097   11.6467592479
  14.2197505732    2.6358468695    0.5494389472
  12.2193837518    3.4517240786   18.0297993324
   6.3123397964    8.9783620719   15.8100784803
   2.3795664664    6.3804373212   10.4086663768
   7.1540303953    7.1592522182    9.8987466274
  15.6483018854    8.7704370059   14.9889626477
   7.7435241340    9.2951288482    9.5489341655
  14.0356871051    2.6282424492   11.3390202242
  14.6967133437    7.7567816032   13.3125633055
  15.9654122171    4.0160668954    8.7885361361
  16.0110611358    2.1717395877   10.4004276128
  16.0508397128    5.9563473953    9.5980207045
  15.6116584884    6.5792854316   15.0679869645
  -0.7344671089    8.5815239046   11.8182249309
  15.8209802171    2.3640315727   12.6394110165
  -1.1898045126    9.8715178151   13.5027479594
  14.0311784927    4.9323179655    9.2674565072
  16.1075836283    9.3701076851   12.0458632812
  -1.6253376114   19.3551830638   18.6816551283
  14.4275727804   12.6172402764   16.1504753432
   1.4398686431    1.8869316893    3.9427593996
   6.5274154331    6.6588385750    2.0517080106
   6.4394127809   16.6384061987    8.2771597541
   9.2396347721   11.2786159745    7.3934841489
   6.3104511952    6.4517922583    0.0143872935
   4.3652369046    2.4683042213   16.1801383448
  17.0575428345    3.5027662461    5.7388495391
   0.4053680730    0.6378482827    1.8273324414
   1.2488114327   16.5399295906   17.2276226577
  18.4897614633    0.5998876193    0.4201099597
   7.4413080947   14.7786053830    7.5570348802
  -0.4543580791    2.0443389620   18.0872019505
  16.1588050445   18.8372644579    1.0959333013
  13.5297572283   12.7448259273   12.0189067465
  -0.0941092380   19.0477923836   16.9939150293
   7.9649361170   15.1525387480    5.7596289473
  12.5648503504   14.3550983478   15.7713421953
   4.7648129796   11.0559811478    0.0479924369
  15.1525200310   12.7167113633   12.5972902275
   3.7808727300    3.9125303825    0.7624959047
   2.0574887777    5.3982194080   19.2409785591
  12.4231185263   10.6148186825   17.9170419150
  12.2368384713    9.6434915741    6.2392558579
   1.1430471735    1.9673325841    5.7358872535
  18.0423586033    2.2633906226    6.3278652683
  10.8207518598   13.0562752329    6.5268710582
   2.7883108734    1.7519703637   15.8438497506
   5.4592666884   19.1187969953    9.2143526571
  10.8805675656   15.0738834519   16.0761094332
  12.4854137117   11.3922467869   14.0295139468
   0.7667590384   15.0136151697   18.1098783340
   2.3230935570   15.1775377775   17.0391179343
  11.7712590129   15.3324801790   14.5110555333
   7.1313657466   17.5325254324    9.6472704229
   1.2801798516    2.8234660783   17.7924166828
   2.8427909165   17.2041659179    1.4146388760
  -0.6248273381    7.5961620383    6.7040591245
  14.0561742613   10.7612671411   16.1279914065
   2.0386636765    3.2279962801    5.1239611347
   6.6535607110   15.9637196382    9.9011394816
   8.5553174024   11.3068240489    5.6886077808
   3.7051034841   10.0775086680    1.0991405401
   7.3777912274   13.4607360362    6.4345640158
   2.7149482618    9.7413777565   18.7531895910
   3.6906501126    4.6804164635   18.7906273087
  14.2477838048   14.4576020479   12.4007046455
   1.0861412652   19.6493372468    0.1940717491
   4.1480877825    0.9713414682   15.4374007819
   0.2719894126    3.2622228059   19.1902013284
   1.6561179690    0.7612983518   16.7080864228
  17.6960398773    1.4288325036    3.7039266457
  16.9389802397    2.1458396776    2.4288458337
  12.1805184836    9.9745775250   16.2649587447
   4.2947341829    7.9634199761    1.7964352137
   4.1243856040    7.5109883358    0.0679048286
   0.8718481720    6.5142776307    6.0038524965
   0.7928411721    4.4249094555    6.7339621205
   1.4310068373   16.6370900736    0.3936427408
  12.2410706896   11.0056976657    7.0835780140
   4.3915783606   18.9839170808   11.4888793664
  11.0455460358    9.7709208906    7.6080341973
  10.9110998835   11.0197902290   17.1625446870
   9.7265384694   13.2881058500    5.1430785312
  14.4689825868   11.4332598165   13.8492826644
   4.0546806208   18.5496538261    8.3114742991
   7.7695568836   14.2014977132    3.8879640664
  -0.4109951279    4.1588571143    7.9428019749
   0.6359546613    6.6938241821    7.6910715595
   6.6222855624   14.8578447680    2.2813627776
   6.9831183097    1.7324903404   11.4026509541
   1.8716656491   14.3962117399    1.0396426640
  13.5153077698   17.3336210463   17.5717806424
  14.4339660785   16.4381675127   16.4994515187
   5.7594531822   14.7863019922    0.0954034539
  16.1817308937   14.8590774151   12.1406313515
   8.4993457745   12.4544437963    3.9071348145
   5.3545229789    2.2072416262   10.9346630277
   2.9859613545   18.2910678575   10.7150517336
   4.2541709640   12.1786496781   17.2511140993
  -1.2944359650   14.1165188739   11.3833356211
  14.8601760155    0.6336341783    2.8023219684
  15.3422940299    1.5494220689    4.3325386367
   5.1557082306   17.2471988988    3.1076552570
   6.0671144485    0.5264123621    7.6615016820
   3.9948488248   19.1191968510    2.2861955020
   1.3494893633   15.3243482257    2.4089910084
   6.9138002793    1.8642200300    3.9720290944
   3.7910973168    2.6132933124    2.2467455059
  -2.1286487434   17.4365640143   12.0288788921
   2.3059566991   13.2448487071    3.4458782514
   3.5183769673   12.7104515741    2.0941312823
   6.6944438921   12.4742088769    3.8343466116
  12.9807279991   14.3493889321   17.8346833269
   5.6635102387    0.8391622075   12.2127089237
  14.3636981058   15.2849850546   18.7854323652
   6.0018490477   12.0792640239   17.2075033498
  12.0240486425   13.9161835983    7.8537573415
  14.5152662741   16.3476175920   10.8215145490
   5.6925103922   13.4163502937    1.9955874320
   2.6234580688   15.4758036852   11.4280354655
   4.0454125508   16.8132683726    4.4443351259
   4.4712611689   15.5231203797   12.0060726010
  13.6507922249   13.4642994884    8.3466780473
   5.4873389832    2.8672569372    1.7201840343
  -1.1944350916   15.5990644622   12.5928650547
   6.5712965478   14.4338543266   19.2689196673
   3.9989108982   13.2420976946    3.7179073484
   7.0907968106    0.3459965258    6.2330454791
   5.4217573888    0.0325981932    6.0260938219
   5.3262303468   13.6867407154   17.0196732762
   8.2515084586    3.8981594861   16.8022218688
  12.6777699127   18.7944543086   12.4206983266
   3.4389971209   14.7619542041   15.3966688701
   4.8260980585   14.8279544667   14.2353357882
  10.5799320243   14.5478403879    8.9564266963
   3.4282330978   16.9835437658   12.2613818584
   5.7225407854   17.1952787794    4.8319126286
   5.6308005135   19.5531992045    2.6923478735
  -1.8435083631   17.9422361649   10.4735324542
  14.5078727625   18.0743726039    3.5493179351
   7.1342150250    1.5982664521    2.2075365288
  12.6895718216   18.1082447001    2.9482323429
  13.1527406004   17.5826825000    4.5112514526
   5.1175886901    3.1084185920    3.4115659628
  13.2880495445   15.2034975064    7.8735506768
  14.9680945792   17.4702243702    9.6417192875
  11.1249212495   14.5660131384   12.0054008858
   1.1471907478   18.7582612975    8.9374713651
   1.2586438350   13.3621135588   12.3978352968
  13.1816849710   12.6209412227    5.8524417410
  14.3723321405   11.9015501154    4.5614773360
  12.4204634246   17.8164851674   10.9435048273
  13.1067910385   16.2711272889    1.6577465372
  14.7567050733   16.1907839068    1.6339674192
   0.2408796142   12.5126920074   11.0031531747
  12.9334718823   16.9884122873   12.3156848364
   1.8973718818   11.9273675933   11.6372220907
  13.1616057446   13.2197938038    4.1593864521
   3.9504220840    2.0897967231    6.4624631035
  10.9161133199   16.0703409992   10.0015949188
  -1.3960775462   14.3522200747    8.0383470924
   9.3662345994   11.4322080129   10.1104444893
   4.9143243782    2.6300263630    7.8439699602
  13.9803753528   17.5167204031    0.7151550533
   5.0366736630    3.8149979766    4.9596193268
   5.6949403098    4.7858343312    6.2965742501
  16.3617898871   12.9103468521    7.2395808297
   5.8776819974   19.0291338905   13.0907371067
   0.5497105169   19.2981655519    7.4443209160
   1.6849401262   17.8695295379    7.3672473473
   9.4976545438   14.9411891059   11.3738032823
   4.8307493965   16.5669505838   15.8706701186
   3.3057314633   17.3186858111   15.1935638241
  -0.0224259131   13.1559262825    7.6246429090
  -0.6385806029   11.2941046261    6.4596905150
  10.9125646111    1.2689182681   14.3289421685
  14.7879129027   14.1385739213    3.3333984385
   5.7577348168   19.1228026448   14.8318008856
  10.3517483729   12.5616277293    9.0330537873
  16.5692049989   11.2227873040    4.8035547871
   4.3261352083   19.3022433738   13.8678801313
  -0.7442641561   18.9871488757    5.8403397950
  -1.9893880273   17.8110172854    5.7851670061
   8.6745335609   12.9642621180    9.6281505675
   2.2023109048   11.9909307870    9.0900040516
  -0.1193250986   14.0824394378    9.1920516773
  15.0136435352   15.8278487395    4.3787143512
   3.5993051865   12.6111334050    9.9275370725
   0.7335689103   16.6985317626    6.4425919167
  10.8416872854    1.2121693152   18.9118355850
  15.7936051746   11.5526105199    8.4016044562
  -0.8633946274   16.1138601273    6.7868421973
  15.7668396381    9.6274352017    4.6441191207
   3.0863315922    6.6492670122    6.6140702571
   9.2223180177    8.8401944568    5.3362372485
   3.8885376489    6.6278563897    5.0728901159
  -0.7819511134   10.4452615880    7.9579867910
  -1.7983821304   14.7519311468    5.1234191192
   1.2535956708    6.2220586286    3.6491714289
  -1.2990040158    9.8401857696    4.6224707522
   0.5043564602   18.1379487214    2.7645167693
   1.3509439369   18.8571564969    4.2392857254
   3.3560891912   14.7832188018    8.5399983801
   1.5557843213    5.8782558937    1.9544515323
  -1.8063963813   15.2809551723    3.4493361181
   4.1834415376   13.2874369644    7.9626560433
  11.6469399673    5.2680566969    4.1051329962
   6.5548966341    6.8142945020   16.8548103161
   4.8889265740    6.4971320566    6.5816167569
   2.0630371345    7.4684947290    2.5903473268
   7.8621845491    7.8870043143    4.5184365269
   8.3824436745   16.4487669957   18.5197877730
  10.5395231318    4.1660448993    3.1955990720
   8.5281948583    7.3061180194    6.0576678389
   0.6766839766    3.7862074127   11.7763391701
   8.2323042377   19.4017329751   12.9594662221
  12.2605985723    8.9519998554    3.8026912313
   7.5074775888   15.6662550901   17.2875225799
  13.8080808236    5.3387069818    6.3563104264
  12.4460516903    7.5679110635    3.0612140098
   9.5892948233   18.6977636676   11.9860725258
  -0.3083140712   19.4567401356    3.7240685624
  15.0756075127    9.5312866540    1.4196141932
  13.1292361827    5.0656532623    2.1971403026
   8.6465007225    5.6865120960    3.6556152771
   0.1218044886   12.8512955943    4.7213771112
  14.6810793417   10.7625210673    2.6995817385
  12.0329953059    4.5607356041    0.8838685718
   9.3764001812   15.7277650706   17.2157692052
   9.7028284394    5.0714036215    5.0371181746
   7.9531903020   18.2974431633   11.4221869306
   2.1666956308   15.7366525156    6.7346430974
   0.1411899200   13.5533239066    3.1494170785
   9.9404292982    9.0026841134   11.0141121435
  15.2255146585    6.3797318217    6.5433072478
  -0.3016816523   11.8606586159    3.3639848143
  17.1345616955    7.6383218753    3.2191013118
   3.3293456040   14.5894447910    5.8626548808
  15.5045051131    4.8395116267    5.5174441306
   8.3324180180   18.4198660085   14.8588213909
  -0.8842100072    6.1812530640    3.8016970562
  12.4147234390    7.1647747689    5.4069337180
  13.3091675560   10.1466996844    1.7070885973
   1.4841947312   14.6597967360    5.5834603868
  13.9604287172    8.2001962217    5.5188139755
  12.3652462617    6.2483562342    0.7383014541
   8.5926186710   13.2988122394   16.9359483592
  -1.0272059816    7.5809967861   14.0877501936
   8.5437126410   11.1676028134   18.0206610463
   8.7992469138   16.7991477932   15.0812291726
   9.9711686961   13.1615433727   18.0435534120
  16.0925491150    5.6847331668    2.4427252290
  10.9212990996   17.5316371325   13.5616740830
  16.9241787424    6.5188926407    1.0486331695
   7.2986420839   12.0879669663   18.8992186021
   1.9090141429    9.6554712563   16.6018305041
   0.1438670209   13.7912260705   15.8714623220
  10.8934872526   17.5455564448    4.7034835830
  12.3456856972    0.3747608323    7.1177503496
   4.6423658883   10.4329131196    7.7512560856
   5.9115226076    9.3862710520    3.0279614331
  10.8885953575   19.2358970329    8.2473716173
  15.9019694427   10.4755753215   18.9753500203
  -2.0448661059   11.0567817201   17.6855162621
  15.0677680246    4.9288829596   11.8558184580
  16.6478302494   13.7398679357    0.8286540778
  15.0305496238   13.2188617370   18.4671433302
  -2.4079584799   19.7015766988   12.0678773733
   2.8648902330    1.2461562870   12.7253803141
   0.1103583000   17.6913574325   13.2102268918
  -0.2045037913    0.0955622974    9.7045084886
  10.9884832377   17.6702164297   15.3529874712
   4.5102269805   11.2485770398    6.1093736322
  -2.4561456738   11.8928326307   14.9140742058
   9.3007033919   16.1945945802    1.6794591981
   2.1174783074    9.8149458356    7.5488547821
   2.2173835473    9.1749503487   14.8715353485
   8.8751708299   18.8232219482    5.0482421271
  -1.0031682790    7.9794958130   16.9995977732
   1.1335910086   13.4396614632   14.5519855493
  10.5029853053   10.1197673310    1.8977753492
   2.2389767324   10.9284211940    6.1868309410
  12.8652605415   19.4071802505   14.0495326173
   5.3573532254    8.3618089791    4.3195687204
   1.9728339476   12.7248480079   16.9937980405
   1.7531313255   18.5202552447   13.0740853939
  -1.1558434785   19.7817794219    9.7852102900
  10.4057166736   16.1608189031    5.6864334380
  -1.3541188984   11.3303931761   16.1779003801
  16.3787024930    3.5555272615    0.8664251210
   3.5691748081    9.7935045700   16.0683823109
  15.8899445122   12.0679358221    0.6384829277
  11.1116486715   19.1763153893    6.3441055717
   4.6435459396    9.9851340477    4.1092704508
   9.6585597133    9.6920576355    0.4757267077
  15.7867228136    4.7899309145   18.9049701962
   6.8395705661   10.2411813116    6.9619835039
  14.9069779941    1.0131445218   14.9454354238
  -2.1824283330    8.4922422009   18.3602416594
   9.2136555258   17.8505032875    2.4228249468
  -0.8147113947    7.4935683738   18.7850064425
   2.0309368066    0.0716934700   13.6952039288
   0.1746732966    1.3754347700   12.8781749448
   1.2482437339   17.5527745977   11.7555365037
   0.7342175042    1.3706548528    8.8318232015
   0.3989243355   10.1256591609    1.0889082203
  18.0227204424    3.3668441716    0.3199999769
  -0.0129452779   11.3422564917   19.2032346469
   0.7737739257   11.4298995294   16.8538071889
  12.3968831002   19.4048253042   15.7619742117
  10.7927100137   16.8670972831    2.2927612380
   1.5267067025    9.2738070833    5.9234817279
   8.0648299260   17.4236361432    5.7336329860
   6.1655356264    8.6969384530    6.6442686683
   8.7806035057   10.5494591812    1.7873904577
  -1.7626018367   13.0176621211   16.1148600886
   5.4414944351    9.1434246064    0.5689053133
   9.2877139311   14.0928159989    7.0276441041
  13.7908959843   13.2506313937   14.0290080252
   3.7153828136    0.9081190880   17.4717747337
   2.5602221718    1.5202183158    0.0909679616
  -0.8404009520    5.6470930983    6.5201794299
   4.8835601972    5.5742517874    1.3174757650
  -0.0629311095    3.2279727357    4.6798733200
  10.4693208967   10.6813794653    5.8863222526
   4.9616404391   17.1127805243    9.6642422432
  17.4017642621    0.1074760323    2.1353326339
  12.4204021968   12.0556800717   16.4002647440
   2.1818786570   16.0468783633   19.0035664900
  12.4595486240   16.4683327729   16.0947118806
   5.9102335384    0.3461407453   10.1559833913
   3.4015504961   14.6969640625    2.3733009776
   7.6989965238   13.0916270030    2.1429618142
  13.1096890021   19.5064304549    4.3812268867
   5.1894683974   12.8310840820   18.9153500566
  -1.8325938222   15.9361618561   10.6500786075
   4.4880055314   18.8431450396    4.2409705309
   5.2376362122    1.1467781657    2.8448678410
  12.4864551896   15.5884708908   19.1572845597
   6.0321608081    2.0419024181    6.2292054916
  14.4296606757   18.3092969490   11.4307394033
  12.4383454350   14.5100114651    9.7639688795
   2.9369578810   15.3563272495   13.4144217301
   5.0665762671   17.2945477344   13.9358785950
   9.7670698682    2.6887735117   15.4519626933
   9.5163495946    2.5750722845   17.7575059687
  -0.2510527903   17.5130607418    8.0652176066
  10.1338230362   12.9704144038   11.1219156725
  14.8180532297   13.8348815015    5.3642643472
   1.7462981139   13.5909819568   10.2645392716
  -1.5479162951   12.6058603996    8.9656860027
  16.8237446812    9.8990115092    6.4691425109
  11.2610291328    1.3709258498   16.9405317834
   3.7028480616    4.8199844967    6.0427681774
  -0.3274230085   17.5266628161    4.4555038514
   9.8911217402    7.0859711528    4.6034877430
   7.9573901674    5.8007803654   15.6854240340
  -1.8815603143   13.1101224980    3.8089946181
   2.1782814617   13.5858326629    7.2324111062
   9.4469948505    7.1728962336   12.0969565988
  14.4245766545    6.4693100414    4.6315417285
   0.0371228268    7.2300930447    2.2317352881
   0.1085521883    5.7031458974   12.1850235551
   8.5229254280   14.3948960080   18.6751277122
  11.1866299126    5.9686047556    2.2644168855
  14.3265488904    8.8075719951    3.1392163034
   8.4335763429   17.3393314790   13.2113482727
  17.0135729063    4.4733271747   11.4357074396
  16.9395092680    6.6195492913   12.6485801694
  17.8585330695    4.7893609289    1.5761167068
   2.3339376723   11.3543728371   15.4359031036
  10.8004839728   19.5582236388   14.3167230847
   6.6386781707    9.8321689239    4.9845292368
   9.3831342847   18.1863519583    7.0136802371
  10.2563725204   11.7239938661    0.6778689948
  -0.3052897403    9.3326664298   18.4785869455
   0.3245645405   19.3285336243   11.9243945255
   0.7420682352    1.5056209807   10.8973118758
  -1.0172358751   12.3673996531    0.1335784135
   9.5757572266   16.2293762941    3.7529305981
  -0.5594741974   12.2574307110   14.6284342417
   3.6342746508    9.4454397257    6.1707725407
