B2 C140 Ca1 F48 H298 O66 
1.0
1.7842822276224314e+01 2.0448833649527194e-16 -6.7340277584087161e-18 
-3.0374327547694815e+00 1.9242506336044574e+01 -6.4652863301489782e-17 
-1.3022888421659126e-01 1.4002151663429201e+00 1.9407162235268700e+01 
B C Ca F H O 
2 140 1 48 298 66 
Cartesian
  10.4662103878    3.7875837350   16.7506938830
  -0.8408388872    6.2794796186   12.0785818382
   0.0390178034    1.6396505627    1.5561299457
   7.3063903905   13.6500044266    7.3433787753
   4.7151346829    6.5773702519    1.0511939503
  12.9069969356   12.6586112483   12.3366211943
   4.5162755470    2.9918474078   16.4710125396
   2.3886538988    1.9799531133   18.1306894772
   1.5771500624    2.5492421776    5.5564001488
   2.7826862682    1.2828733328   16.8370461670
  -0.2463376489    4.0186932409    5.9322860647
   3.2400879802    6.4766184590   19.0639350521
   2.3643721277   17.4637349671   18.2248188206
   1.0629676805    3.7135437631   17.3038743523
  12.1575485884   15.8996954396   15.0326245096
   5.2247446839    9.9218581481    0.8061621143
   6.0333234155   16.9982672538    9.3798001607
  12.3865996471   11.8685046884   16.0523414936
   9.6198799688   11.9848150715    6.8516649280
   9.4662704010   13.4374644723    6.5475980019
  13.0186457316   11.7119439822   14.6390020097
   4.0350273745    7.9652116078    0.9899819754
  12.1740887105    9.5669621201   16.8029226514
  11.9598817079   11.8396437491    6.2854520957
  -0.0421147925    5.0094520931    7.0597253971
   0.7854571246    7.2509428550    6.7698468265
   4.8109085154   19.0966638770    9.6321465011
   2.0845826011   16.4196484066    1.1649781751
  15.9355552368    1.7004317959    2.8064580911
   3.9099641959   19.8847413195   10.6036264366
   1.3080483908   15.1742934860    1.4934666304
  13.3432982282   16.8751576351   16.7696678753
   5.4711611741    2.4971404665   10.7004830024
   7.3691132169   13.9644310853    2.9894667602
  14.8242347977    0.8277901160    3.2679229014
   5.9367029817   13.6847074716    1.0353490380
   5.7703050656   14.8754009376   18.9722169149
  14.9895493200   15.3382116263   12.1241376603
   1.9040537950   12.8049075120    1.9522279852
  13.0291442889   15.7888443125   17.9048356591
   6.0244901495   13.3675450791   17.1267687110
   4.9351341503   17.8750023314    3.8816721495
   7.2438286743    0.4371439350    2.6220609909
   6.3727598500    1.6278864929    2.6419463907
   4.3445113915    2.5251128303    2.0777212132
  15.1393005236   17.1067409674   10.3872633402
   6.9746137425    1.3398407862    6.7264534038
  12.3991932483   15.1238033946    8.8548106321
  13.6980776586   17.7251158866   10.3103576979
   3.7122254535   16.1401939675   11.9148923283
  13.0070244609   18.3999127363    4.3678842329
   7.8204210652    2.6036566114   18.1230210176
   8.0909102540    5.0510438997   19.0751152822
   8.3009804319    4.0434894671   18.0132488266
   4.0404429668   15.5176957439   14.1353709805
  12.1342711416   18.8327528419   11.5321701065
  10.2586598260   14.9899795615    9.8162286200
   9.6627191058    3.4873312787   13.1886880523
  11.9630880956   17.2037764272   19.3993693917
  11.9641059480   13.3915422383    3.2583788504
   9.7016571058   14.6739675462   11.2257169633
   5.4737877048    3.0520191421    6.2838416345
   1.5335853501   12.8662831482   11.1438177869
   3.8131707342   16.7578316917   15.0137657934
   0.1694888408   18.5336519605    8.6067256735
  10.7383395822    3.7351046791   14.3434466957
  11.7779162633    4.8321156163   13.9398973907
   5.4532526733    4.4899085207    5.8075771976
   4.6480024607   18.9538966219   15.0567551334
   8.7933322422   12.5610947675   10.7212925320
  -1.5984996605   13.4865890095    8.7269074959
  15.2230199321   11.3243129221    8.8963627287
  -0.6004905963   16.9075549615    6.8188722660
  -1.4379671191   10.6057216232    8.1747874493
   6.0307758288    6.7714516355   15.4300937113
  13.2816975900   15.1182762905    4.5290730372
  -1.4505350837   17.7658022988    5.9699330100
   2.9641032290   13.6799057113    9.3251372567
  15.9991560446   10.2617776462    5.8078115442
   3.8988955739    6.1848160485    5.3284745535
  12.0606781862    2.7032463565   18.2530336589
   2.3275747034    5.6385488973   13.3330396484
   9.0514707648   20.5021027917   18.4951580211
  14.4440278725   14.0050895260    5.0455285474
   7.2904986829    7.4665594414   16.1728967446
   2.8871896284   14.3783167378    8.0143666684
   7.5914447075    7.3448078332    4.1129656600
  -0.4927212781   17.7975033294    3.7350380141
   7.2989129826    9.0334383926   16.0746223156
   9.7854101666    7.5783704195    9.5328350074
   0.5638576961    7.6649623743    2.9994209329
  13.4112610097    3.4693699716   18.5912665038
   2.3177812699    6.1027952164   10.7364665863
   1.5420369329    5.7652747567   12.0512610747
  10.8123789166    5.9734792319    3.0661872387
   9.3666369761    6.0025186207    3.6662205561
   9.0895162227   15.7429044565   16.7521601312
   8.7686031308    8.3973651236   10.4234030840
  12.2969791290    9.4271927977    3.7161211882
   8.5556423742   17.8003129734   11.8568933222
  -1.3171658570   13.1340163685    3.9960005218
  13.9756829633    7.1503891409    6.0273507249
   7.2617177934    8.6691995091   10.0325944333
  12.4051817362    9.9209222009    1.4784647895
  12.0581387750    6.3266021127    1.0989295261
   2.8855526385   14.4472324470    5.6704271102
  12.7451314090    8.8470773626    5.0201461270
  15.9746531743    7.1870893982    3.1327290587
   8.1946565708   18.7086727121   14.0257225479
   9.6836840494   13.7600880590   17.9960143670
  15.0059746308    8.1424013737   14.4435185280
  16.1110879016    8.2007016570   13.3216959494
  15.5956374818    6.2053889695    2.0505463669
  15.3047414244    3.4256784113   10.9093250784
   9.1753144215   12.7732609061   19.1081028535
  15.3179451061    4.9549020795   11.1615289025
   8.9129401993   19.5046979477   15.0353976098
  14.6903879096    5.7146761632    9.9079568073
  16.1722569582    9.5183721380   12.5705405449
  11.4128401411    1.1628893291    7.1027752183
   2.6529170022   10.2652032440   15.5961677189
  -1.5414040823   11.6053361290   19.2341021646
   1.3512298616   13.6230443190   14.9781970903
  15.2865315297   12.0515815915    0.8028385326
   4.6923338892   10.9450882569    7.2993760905
   4.6734061830   11.1075664306    4.0723286677
   9.4461332285   17.6442606079    6.1157498161
   8.0288055385   18.2511705215    6.1048617650
   1.8879507033   12.4299616358   15.7113315008
  -0.6384872398   20.0050149151   13.0982429615
   1.1618403285    1.3942174563   12.4929259292
   0.9671926025   18.4289680942   12.5228583219
   1.9789594950    2.3083895497   10.5070271496
   8.8132480481   11.2052970397    1.9202453774
   2.6091858655   10.0872842673    8.3390108263
   5.6649489464   10.3457619081    6.2463398974
  13.8860892447    1.5249085835   14.7176899410
  -0.4496889864    8.8259527463   18.6316298065
  16.5899846423    4.6242631121    0.5054097975
  -0.9520889226   13.2534243567   15.5116745900
  -0.0562193514   11.1924095119   19.0982514691
   9.8057383439   16.6512997740    3.8507077109
   8.7159980019    7.0463232470   13.4631318304
   7.8553100015    2.1074969227   16.8964209911
   8.7298823280    6.2527736258   18.8158264076
   9.2094299512    4.5406293965   12.4545784834
   8.6672447442    1.8447654410   18.9048835698
   8.7452149859    3.2845414059    0.9013991540
   6.4982005698    2.5577598922   18.6744864926
   6.8136367744    5.4534062506   19.2518847013
   8.5963916848    2.9179551474   13.6667742457
  12.3937582412    4.4153924686   12.7559909006
  10.2238948975    2.5907119174   12.2663032519
  12.6951300628    5.0637610493   14.9102241421
   4.7781027277    6.9873244295   15.7544837275
   6.2258415643    5.4224224580   15.7612022217
  11.2662497805    6.2035701427   13.7670199615
   6.1762819273    6.8591904933   13.9986505940
   3.0787011908    4.5130484290   13.3171069657
   8.0954078827   19.7001562906   17.8529485665
   3.1305666229    6.7088715366   13.6414391760
  11.0481446019    7.7690290251   10.0705023031
   1.5708001706    5.7918240549    9.6321070121
   7.1391828609    9.4443636002   14.7623411927
   8.4609194584    9.4814997973   16.4432304768
   1.4994620282    5.4236541782   14.3561867527
   9.6855436401    8.0518702846    8.2654189434
   9.1690703793   18.9078208866    0.4073212846
  14.4804142665    3.4461704114   17.8336103316
  10.3289104337   20.0147906460   18.0909480090
   3.5361353564    5.4499579389   10.6999840392
   9.6991382056    6.2427343566    9.4732050243
   6.5081842223    9.0342620052   11.0345210434
  13.8968959522    1.6535886580    0.4524789797
  13.0329591199    4.8051691359   18.5639781576
   6.2161154129    9.6499958935   16.8794219764
   2.5246533005    7.4579318109   10.7039795645
   6.5900745539    7.6443521949    9.4215200675
  15.2438547471    9.2341585463   15.2794128214
   7.2894295905    9.7216950653    9.0665052383
  14.0453531339    3.0256389410   11.2889460776
  13.7502557111    8.1168431709   14.0620358609
  14.7400431533    5.2540243452    8.6817614948
  15.6695027174    2.9698957627    9.7324873897
  15.2419658201    6.9657321130    9.7863936207
  15.2285353813    7.0063395331   15.2060940531
  -0.9335645627    9.4297086571   11.4351559009
  16.1071655696    2.8086062295   11.8374876479
  -1.3186330556   10.4612018895   13.5024576761
  13.3126304566    5.7880498339   10.1974226735
  14.8879532236    9.9543363004   12.1251579801
  -1.2361888410   20.5375256637   18.7640588466
  11.7716696459   12.7183348183   15.8967546305
   2.0861998956    2.0472871165    4.7070170459
   5.2021488822    6.6685739652    2.0689116760
   5.2714703369   16.5862863711    8.6196899934
   9.9386347908   12.0421052564    7.8958963020
   5.4754290305    6.4456539861    0.1857878226
   5.4895694542    3.0580914427   15.8756327239
  16.8892877605    4.5110798098    5.2535741276
   0.2551281085    2.6460520942    1.7619230847
   1.5005602354   18.0068545446   18.1326231231
   0.3303900874    1.4304513941    0.5667168640
   6.8548839826   14.2329767895    8.2211311259
   0.4889119714    4.4255481557   17.8200758133
   0.8980970159    1.0102090363    2.0283394912
  12.3835718175   11.7325083007   11.9505615174
  -0.3676841296   19.4323016170   16.8661111980
   6.9802199492   14.2207325501    6.4515937579
  13.0019080831   16.0206349854   14.3619088296
   6.0540613104   10.4057955001    1.3232703140
  13.9783574364   12.4669813152   12.3252918046
   2.4690223760    5.7659249327   19.1294979343
   2.7014838348    7.3539727203   18.6212074965
  11.7751885305    9.1963968346   17.7301537396
  12.2204779461   11.4298633540    7.2839453622
   0.9039622370    1.8600518987    6.1223592491
  17.3051449677    3.1172712851    6.4733966846
  10.5074362477   13.8938214109    6.5401069523
   4.6492063492    3.4416544282   17.4938284293
   5.4514873276   19.8073168878    9.0438061544
  12.1280528711   14.8559914357   15.5028825253
  12.7410593470   10.8347135012   14.2247169757
   2.2476011448   16.3906248474   18.0108595849
   3.1047936028   17.6770091215   17.4677371917
  11.2103762051   15.9631562852   14.4735566247
   6.8892399418   17.4544004321    8.9618921395
   0.4883330078    2.8363160342   16.9151779483
   2.7022117591   16.5502489099    2.0309582670
   1.4448778037    7.9140018843    6.2205596060
  13.1189347018   12.0734604754   16.8177255714
   2.3247262533    2.8904656042    6.2722608101
   6.4891089141   16.2311499997   10.0828614615
   8.6443714335   11.3760802174    6.6438776852
   4.4383025318   10.7679839489    0.8301234368
   7.0310549787   12.6446814418    7.2345351632
   5.4112265374   11.0980894583   19.1596619419
   3.9512057183    6.2368581117   18.2892720186
  12.5621585836   13.5339883041   11.7977413190
   3.4620513358    2.1322302511   18.5939770337
   3.6944466907    3.5397727507   15.9565076659
   1.4354871627    4.2302377723   16.4602397772
   2.1902486059    1.5254080049   15.8935107899
  16.4583794626    1.9603978713    3.7148453250
  15.7090822838    2.7576258065    2.4828997946
  13.2120078333    9.6753819570   16.8762289652
   3.0184474900    7.8030609708    1.4923804507
   3.7654852316    9.6567937089   19.3738942312
   1.5887406958    6.9711381913    7.5800667112
   0.7727091785    4.7454069230    7.6960336778
   1.4405638792   17.2523023571    0.9356598303
  12.7336555142   11.3677947624    5.6389648539
   7.4708430590    1.3655992834   11.2645380125
  12.0245124656   12.9491509622    6.3096269214
  11.9289351790    8.8081426049   16.1155997532
   9.1162878226   13.6482495972    5.5233289322
  14.0271496554   12.0764305963   14.6777443158
   4.1423892274   18.5278534430    8.9907871001
   6.8253629242   14.8531512951    3.3536769942
  16.9061473212    5.2316866952    7.6358110903
  -0.0497269688    7.8046245894    7.2303680175
   5.3102662410   14.6726440494    1.2102812251
   6.2413146284    3.2156801980   10.9578638913
   0.6618336600   14.6382247196    0.8275561942
  13.5183490697   17.9615046604   17.1806197630
  14.3053620730   16.5357923107   16.3031778913
   4.7547331326   15.1281456978   18.8460422472
  13.8975159829   15.2239522419   12.4874511450
   8.3955821851   14.1002431518    3.1538634758
   4.7628564665    2.9365167513   10.0344529566
   3.4581910419   19.0594002253   11.2855782542
   6.0455917755   12.2960154379   16.8308742375
  15.4900727930   14.2825930301   12.1126205366
  11.4690573732   19.2752109723    2.5942156932
  14.0302877481    1.5872718453    3.3519560532
   4.7348860341   17.1955918518    4.6933252684
   6.3279541977    1.2858519682    7.5591981317
   3.9335129823   18.9070073041    1.7063762852
   0.5717797286   15.5131087935    2.2511187829
   6.4152658274    2.3197736727    3.5385367406
   3.2852884346    2.3800866769    1.9285381174
  -2.1564846280   17.5503818977   11.2724661060
   0.9377852701   12.4474397415    2.2559889135
   2.0531038609   12.6521237586    0.8472805531
   7.0425514316   13.1538972276    3.6903305078
  12.9372786650   14.7835333316   17.5613856173
   5.0183764770    2.2908437999   11.7180588124
  13.8893964043   15.9492256556   18.5644669279
   6.9849363767   13.7014243089   16.7063913130
  12.1531742476   14.1908602871    8.2943236775
  12.7726927372   17.0488617711   10.3390029266
   5.4373342144   12.8598638000    1.5494977091
   2.9606988061   15.9946866872   11.0461615964
   5.9709177350   18.1180745922    3.9496405247
   4.6258837777   15.6416314252   11.5274510356
  13.4721580555   15.1904080571    9.0421487424
   4.6802372303    2.9013153236    1.1327251987
  -2.2518196593   15.9343381502   12.8027514197
   6.4538162286   15.6042951347   18.5247396122
   2.7594991029   12.3033128164    2.5638377883
   8.0025148959    1.1600704010    7.0465864983
   6.7235413315    0.5728028687    5.9227479548
   5.1541461728   13.8489265942   16.5783690432
   7.9170881098    4.4371393450   17.0511362625
  11.7984791333   19.9195642788   11.6039627057
   3.7824792721   14.6797849120   14.8297068385
   5.1709494788   15.4059798380   13.8669745438
  10.0746709113   14.1087963563    9.1088279623
   3.9242739084   17.1868327713   12.1772908009
   4.8872787692   17.4207226435    2.8429860088
   8.2993942259    0.8846915109    2.4609084206
  -2.2992390446   17.1712013077    9.4227096983
  13.9907820450   18.8602020992    4.0028209332
   6.6640189175    2.2735055473    1.8602022576
  12.7757185335   17.5600346265    3.6674928760
  13.1752476547   17.9352484570    5.3815885259
   4.5138230762    3.3132522899    2.9052733300
  12.0915735443   16.1309824547    8.1781650292
  13.5386947977   18.1526121012    9.2938298290
  10.6489255432   14.8474876302   11.9696856834
   0.3387243924   18.6156868730    9.7265032480
   2.0564621546   11.9295015399   10.9220789454
  12.5421272776   13.6385561469    2.3343257430
  10.9230424844   13.1984448112    3.0815041233
  11.5325430530   18.3586060563   10.8222964964
  12.2660615781   18.0770700512   18.7863211700
  11.1680445789   16.0791229930    0.4679938594
   2.0162469710   13.3063426610   12.0432932605
  11.8238739162   18.3833920850   12.5316726968
   0.5010004981   12.6258069573   11.4122035676
  12.3149154507   12.4519083660    3.6932306247
   4.8003181926    2.3107918587    5.6722341464
  10.0161281079   15.9703593152    9.4474622369
  15.5199680065   13.6945559223    7.9045421201
   9.3577388182   11.7255110190   10.2831534846
   5.1972432592    3.0246067300    7.4148509714
  12.8302061310   15.6077890678    0.8003650631
   5.9317499112    4.6365355588    4.8385242335
   5.9375604183    4.9718481683    6.5979546730
  14.4814744465   11.5946390930    8.1693456987
   5.2121393048   19.7104478087   14.5246974878
  -0.0617462058   19.4543333883    8.1925921976
   1.1128496338   18.2017870969    8.1522120932
   8.7545500645   15.1463519327   11.4874494623
   4.1034250302   16.5250883593   16.1373950680
   2.7802744390   17.1432616646   14.8585310602
  -0.6546015600   13.1886461165    8.2074265729
  -0.6804332213   11.3657585869    7.8338531187
  11.3795480284    2.7888360946   14.5077520159
  13.6766752354   15.4079902690    3.4740195613
   4.7756368558   18.8957893143   16.1629835856
   8.3399327835   13.1597309456    9.8705650767
  15.4454146130   11.1610615825    5.6090124726
   3.6030192565   19.2185891523   14.8876515929
  -1.2144690125   18.8365329586    5.9120610564
  -2.4553915817   17.5651659715    6.3012219565
   7.9956822053   12.2157347860   11.3371568525
   3.2073025081   12.5799538967    9.1845005170
  -1.4687655713   14.4214371265    9.3643302789
  13.1603043341   15.8914478639    5.2505392093
   3.7404571331   14.1456454209    9.9002922948
   0.3722414958   17.1565918367    6.3870324388
  11.4093726971    3.0791459714   19.0832355562
  14.7204587441   10.6834120142    9.6023750990
  -0.9601102189   15.7982177368    6.8592998397
  15.7597561002    9.4970112960    5.0655113271
   4.6385993910    6.2987966241    4.5539677936
   7.3685877921    8.3591306720    4.1783536964
   3.8382139415    6.9055589791    6.1676376363
  -0.7974690053    9.9927169675    8.8563186389
  14.1602128276   13.2917424753    5.8538657989
   0.6222003188    7.0553868477    3.8465421233
  -0.6794881187   10.4087983460    5.6041724129
  -0.4751121552   17.2463651105    2.8069692888
   0.5664648457   17.7304596842    4.1067033502
   2.0221703464   15.0709716759    7.8946101447
   0.9563347432    7.1646227600    2.0994089886
  15.1600354923   14.7019623385    5.5320052994
   3.6461232164   15.1317598191    8.0509233413
  11.6047742273    6.5750195436    3.5848195216
   7.2823631894    7.2584899528   17.2294078938
   2.9670502605    6.3337198036    4.7416080222
   1.1352810402    8.5623016724    3.1162677170
   6.7654347842    6.8100474316    3.6374055029
   8.4905630874   16.6705019141   16.7473182006
  11.0696400582    4.8553075247    3.1698445555
   7.5982588799    6.9662938246    5.2043834574
   1.1211730226    4.7854450741   11.9202910919
   8.3753854423   18.8858441462   11.5351900284
  11.6520903618   10.2444781516    3.9465050722
   9.1087784766   15.2121987607   15.7567259707
  13.5066492871    6.8604555383    6.8868329459
  11.4517416858    8.6289910077    3.3579768215
   9.3895759368   17.3736831669   11.3367450877
  -0.8235899987   18.7725231160    3.4330507425
  11.4598524073   10.3853945817    1.8056196188
  12.7731374441    6.8419906705    1.7556544626
   8.8136841038    5.1345541294    3.2690204376
  -1.0172480560   12.5538391207    4.8846315537
  12.0124061662    8.9165455693    1.2235450857
  12.2580053133    5.2329100855    1.0846026088
  10.1150701475   16.0689329803   16.7984738211
   9.3865940847    5.8549380643    4.7768383840
   7.6294185601   17.2806061942   11.7621750811
   1.8879593084   14.7255487974    5.3788400678
  -0.7856881571   14.1327806910    3.8006549588
   9.2825671029    9.3979038736   10.3876098435
  14.6301730528    7.9542615893    6.3382568647
  -1.0278499880   12.3876273480    3.1713110029
  15.1662674767    7.9778819395    2.9657460217
   3.3377509329   15.4910642294    5.9723281528
  14.4536451052    6.2350009726    5.7321998190
   7.6625675640   19.5313071185   13.3955059959
  16.1159116037    6.6359120356    4.0569243616
  11.7346808596    8.7644997622    5.5076505428
  12.9934296138   10.5186095923    0.7702999510
   3.4847223636   13.9478080122    4.8775929312
  13.3895100579    9.4499959295    5.5972214109
  11.9991372817    6.7551885647    0.1327366613
   9.8342496409   13.2808250623   16.9977497381
  -0.8391147491    8.1370379729   13.9676520154
   9.6002808057   11.7861164029   18.9005599899
   7.4169499552   18.0179141903   14.4285383584
  10.6834597634   14.1008186678   18.1764181999
  14.8463133000    5.5136206643    2.3922449794
   9.7286773694   18.8423950555   15.3896333031
  15.1376267938    6.9309084681    1.2882386495
   8.0750985221   12.6590751435   18.9908195204
   2.0036210209   10.1127076115   16.4412155968
   1.5488878804   14.5377859629   15.5956090232
  10.3592481901   18.2911514705    5.8538254457
  10.6170305238    1.7140741365    6.5426005066
   5.2513378950   11.1092588900    8.2858130781
   3.8400060751   10.8478754185    4.6827546971
  11.5197282059    1.5307019704    8.1389320711
  15.8101176467    9.6786244294    0.5995108287
  15.7428129644   11.6705224178   18.2382771201
  14.6844634351    5.2253054766   11.9239744942
  15.4889612912   13.1525539484    1.1778973525
  14.4411378518   13.4387199213   19.2774418800
  -2.2034403560   19.9097272247   11.6843386639
   3.0423823301    1.4182089701   13.6318939711
   0.5007793756   17.6238474763   13.0991808566
   1.2926985273    1.6627487071    9.7523314062
   8.2073241609   19.7023440418   15.9719213016
   4.1022722131   11.8235589233    6.9467594414
  -1.9386652388   13.8475482996   15.3006361703
   9.5278316810   17.6610657911    3.6009410963
   3.0791754137   10.3257187309    9.3003924584
   2.6215271533    9.4508801104   14.9095012969
   7.7923457639   18.9152822782    5.3110433907
   0.1423858471    6.9983998748    0.0906901300
   1.8987212810   13.7469121179   14.0093742641
   9.0794422469   11.4988500209    2.9818688094
   1.8393515744   10.8544332108    8.0558333698
  11.3519531556   19.7864743494   14.5206986773
   4.6879881655   11.9889599469    3.5483403146
   2.9172533726   12.8434220072   16.1222821423
   1.6769406983   19.0591898722   13.1445831096
   2.8449826630    1.6460845060   10.6578777021
   9.7960428973   17.2444064888    7.0402029236
  -1.2521426510   12.2392330414   15.6390313762
  15.7842815872    3.7956601080    0.8008568551
   3.6591289004   10.5609919120   15.9086039462
  14.8738066279   11.2900542701    1.5064261841
  12.2984338857    1.1023808146    6.5118011700
   4.5295827909   10.3053669791    3.2716291255
   8.7256859323   10.1260795616    1.8792032974
  16.0565299275    6.6943903962   19.0148135082
   6.6414648719   10.3623015103    6.6383203502
  14.4607895456    2.1106488227   13.9522844735
  -0.4218470262    8.2070053224   17.6678357462
  10.9025594269   16.4596289171    3.7836659816
  16.3758880412    9.0531715787   18.8558155087
  -0.9662830417   19.1673943783   13.8137759874
   0.2841905802    1.5443922397   13.1395863139
   1.4330644413   18.0111062828   11.7020796255
   2.1788765688    3.2024797667    9.8025836558
   0.5595294268    9.8267047482    0.7638754713
  -0.2314618763    4.2921998027    0.2623570883
   0.3957866380   11.9847631536   18.4934768286
   1.2241331534   12.3024571426   16.5569753665
  14.1635593602    1.7980879667   15.7730986882
   9.2324912781   15.9939807355    3.1522056649
   2.1685506955    9.0891929537    8.4251804565
   7.2969457364   17.4645582408    6.2264266578
   5.5507477672    9.2741493421    5.8531714657
   7.8141486391   11.5601784409    1.7780191548
  -0.7459232015   13.6932312278   16.4975436292
   4.8633191195    8.8722309424    1.6463922998
   8.6771767784   13.9430762006    7.6359485875
  12.4780199660   12.8828697999   13.8016132645
   4.2651391441    1.5747596646   16.5052659778
   2.0341185133    3.2982363457   18.1541533715
   0.2811454046    6.1889039355    6.1792021363
   3.8898301317    5.3881979069    0.9201714395
   0.8391242365    3.6916161152    5.0532388591
  10.6108705886   11.4714983862    5.9633230746
   5.5756162928   18.0911792391   10.4293546429
  16.6832930063    1.0364719755    1.7334857776
  11.5146700560   10.8768676426   16.4460743755
   3.0735107044   16.3676730128    0.0762801308
  12.2628977632   17.0770444016   15.8310044519
   5.8024851402    1.3300313339    9.9441888161
   2.1434916637   14.2453215264    2.0741360360
   7.1849510936   13.7382782765    1.6328608108
  11.9885493200   19.3864152400    4.4966951742
   6.0037359948   13.5445475400   18.5350151302
  15.1399807409   15.6230809253   10.6842999043
   4.0699511953   18.9876368441    3.8139986889
   5.0002610311    1.3043187307    2.4345623912
  11.7673888565   16.0594084202   18.5789638236
   6.8736364804    2.6739011617    6.2163537151
  13.5354531435   18.6227504065   11.3411503578
  11.6779144323   15.1935225161   10.0343105951
   3.0560672305   15.5341379674   13.0961219267
   4.7904062045   17.7109721615   14.4760313824
  10.0755202231    4.2525428475   15.5080808517
   9.7337724679    4.0615311092   17.9367599157
  -0.7278636060   17.4880270884    8.2648598259
   9.6127942662   13.2939300471   11.5702817649
  11.9724540965   14.4677730927    4.2840204037
   1.6926270931   13.7899129650   10.1041283668
  15.7534824074   12.4348249421    9.5299565925
  15.8616850181    9.7465399210    7.1358110666
  11.6132145217    2.9974458207   16.9534997958
   4.0874447862    4.8403017450    5.8147803958
  -1.5925142634   17.2088245159    4.6382208875
   8.7784538160    7.2961298037    3.4420084402
   8.4430562693    7.0286874879   15.6724314622
  15.1072734681   13.2568174241    3.9025047340
   2.9370580458   13.5793789877    6.8132115661
   8.8189056077    7.8004596877   11.6370471677
  13.1781792166    7.5184535059    4.8082189904
  -0.7823940623    8.0209350216    2.8457728929
   0.4311761939    6.7089458729   12.1145244692
   8.6884553565   14.8662607662   17.8220074713
  10.7569518452    6.4043373641    1.7072076920
  13.2087386457    9.6171661106    2.6945413768
   9.0060150800   17.8319297768   13.2178914058
  16.6872280181    5.2137439751   11.2740309841
  15.9290015133    7.0839265986   12.5528908152
  16.7752374135    5.3748741995    1.7234703495
   1.9414112402   11.3705238741   14.8762133945
  12.4458826585    1.4424638508   14.4662562071
   5.7356284131   11.2045748775    5.0883339572
   7.9044568951   18.9831272054    7.2925832637
   9.8213545260   11.7202803551    1.0268777128
   0.3171631786   10.0067918800   18.2895736752
   0.1311508571   19.3930579202   12.0470018881
   1.3792019158    2.6536192196   11.6823636019
  -1.2615472523   11.5389899044    0.3290830893
   9.4641512494   16.4539608964    5.2454895254
   0.0188345736   13.4459372400   14.4956625620
   3.6884133707    9.9380988843    7.3687421318
