B2 C140 Ca1 F48 H298 O66 
1.0
1.8129030666139691e+01 1.8123560964898546e-16 1.1493689402290452e-16 
-2.2788408020930024e+00 1.9550478173259727e+01 -4.1530726676166819e-17 
-8.6479940211514716e-01 5.7996137553101637e-02 1.9431948443250356e+01 
B C Ca F H O 
2 140 1 48 298 66 
Cartesian
  10.1034852602    2.2888837993   16.8607917083
  -1.1269230811    5.7084872079   11.9966326926
   0.0827504148    0.6916170202    1.4813383089
   7.5599903797   13.8314243655    6.6055267752
   5.4371220084    6.3906402236    1.3144144878
  12.9432235385   12.6252730544   12.4910364152
   3.8617643384    1.6042052328   16.0569090533
   1.7743386338    0.7344584807   18.8315717875
   1.4980081861    2.5120738384    5.3016170686
   2.4297454317    0.4411909165   17.5014342563
  -0.5513222614    3.1803830768    6.2825759828
   3.5044328544    5.2701244252   18.9948600135
   2.0709257229   15.2555916994   18.4909933146
   0.4242960496    2.6957831040   18.2816850749
  12.1149974934   15.1096063017   15.4538392160
   4.3736187283    9.9001059624    0.7374243763
   6.1954698160   16.6218132221    8.8696495118
  13.2551310645   11.7256132778   16.0154268846
   9.4975297498   11.6267202579    6.2698094886
   9.7820958853   13.1596390920    6.0313438090
  13.2694233436   11.4017746023   14.5448772175
   4.4680287651    7.6267351001    1.5991560735
  11.2927018120   10.6730342933   16.7025685877
  11.6533470926   10.9161327306    6.9521531340
   0.0078294923    4.3910850904    6.8901894379
   0.0771553490    6.6795946490    6.7528417795
   5.0268757262   18.6267752195    9.5222042071
   2.5959792969   16.0791173830    1.2877240780
  16.5353858623    1.3916758318    2.9542447837
   3.8185934679   18.9374291645   10.3639240368
   2.2185789910   14.8450353009    1.9316440818
  13.4532970474   16.1547987108   17.1639720118
   5.3236517796    1.3844822233   11.1378834513
   8.0131047501   13.0796054624    3.0951470067
  15.2135166796    0.9810554946    3.7083781248
   6.7998761692   14.1792823884    1.3822569336
   5.5760484609   14.2271553245   19.3223725347
  -1.7889036447   15.0692343909   12.2784709998
   3.3288253468   12.6222234283    2.7465023467
  13.0714717351   15.3240406546   18.4060568671
   5.7164550412   12.4198678555   17.6911533633
   5.5470682229   17.6870968747    3.9899185338
   7.1614808436    0.1138741840    2.5763874932
   6.1393597563    1.2078112729    2.8447790912
   4.0238574889    2.1359352640    2.2898457899
  -1.9671908337   17.1479281880   11.0429292971
   5.9104353545    0.7742645455    6.4674221082
  12.7092072863   14.7879739258    8.7873750119
  14.6831055728   17.0753273073   10.7550585729
   3.4807097881   15.2126155094   12.2405117149
  13.0624943029   18.1122652842    4.1902040780
   7.0214918542    2.0498951286   18.0808713634
   7.9238864216    4.0399641301   19.1359359952
   8.1019111216    3.1116070326   17.8978892165
   4.2508804882   14.9003514475   14.4956143325
  12.6088403296   17.7777905350   11.9745740094
  10.6054043136   14.4780767473    9.9301494482
   9.3208635750    2.2476585921   13.2049181397
  13.0179450932   16.3553379453    0.7110861845
  13.4010086484   12.7442723608    3.7851973453
  10.0815784105   13.8005159489   11.1720139930
   5.0332067914    2.9637546005    6.4656207080
   1.9311327968   12.4155370023   10.9952707779
   4.8857763387   16.2039799274   15.1575222131
   1.2488488850   18.3983047410    8.1988006199
  10.3979018919    2.4150530643   14.3451164661
  11.4535729518    3.4835351965   14.0832855143
   5.2595631104    4.5643308194    6.3174650066
   5.3119720396   18.3425526227   14.1153492277
   9.6867196330   11.7805104986   10.0545115386
  -1.1971724133   13.3111643246    8.1543447399
  15.8030072378   11.2417432913    8.3747083119
   0.3526013611   17.0938671944    6.6273921260
  -1.3153444104   10.2006980771    7.7586620192
   5.4547462016    6.3289895283   15.4244970655
  14.6490708592   14.7123880580    4.2942634188
  -0.6730900830   17.7402262603    5.7848660440
   3.6805835005   12.6054002115    9.2590103128
  16.5359354838   10.2247379876    5.4282197926
   3.6664709194    6.3276300934    5.5438806001
  11.7385018520    1.5528884331   18.4126701032
   1.9779642321    4.5943679378   13.1697224140
   9.7491814486   19.5170966235   18.5895787480
  16.0833393869   14.3546552878    4.5084000185
   6.8420228577    6.7910585633   16.0311099222
   3.6574763878   13.5537929925    8.0061207723
   8.1754537117    7.4962271939    4.6694061481
   0.4012363929   18.1393035945    3.8847631591
   7.1505010494    8.2621162089   15.7277573633
  10.1708148106    7.3969887251    9.6847970435
   1.0065104777    7.4947930583    2.7208452303
  12.9670956648    2.4302705538   18.6994619807
   1.9361739625    5.2689164182   10.6505309356
   1.1532945778    4.9878351979   11.9376908585
  10.7506708037    5.2147631449    3.2787909461
   9.4225814070    5.7523087327    3.7892085982
   8.7919163631   14.9222685490   17.3924098166
   9.1914559161    7.9162184678   10.7946592057
  12.5980773912    8.3625912103    4.1065528549
   8.8129952240   18.6256430206   11.8967262278
  -0.3278802324   12.8051702405    3.7784154681
  14.1653283770    5.8113067216    6.6341700697
   7.7486063414    8.3434416158   10.4859799943
  13.5518662323    9.4484759636    2.1295667322
  12.3676871341    5.3786456619    1.5560533724
   2.6045854011   14.0311724087    6.0075609767
  13.0252127031    7.6566342513    5.4809132102
  16.6812537385    7.0958046159    3.0803077555
   9.0314091501   17.4418840663   13.8855618364
   9.3186931338   12.7986021472   18.3732163630
  15.2878185758    7.7242222517   14.4438793689
  16.4121214253    7.5412373632   13.3558505198
  16.3732897634    6.0983957011    1.9651319510
  15.0784596343    2.6808481598   11.3188947295
   8.6630266079   11.5425007133   19.1574096913
  15.3000087711    4.2179117879   11.2681113892
  10.0605520323   18.1540795166   14.7998719874
  14.8065494355    4.8657454818    9.9952564053
  -1.5226166554    8.8700279479   12.5432166582
  11.8661221039    0.0962919192    6.9917629782
   2.9389942139    9.5915945229   15.9717429946
  -0.5716372955   10.4792044288    0.1470062193
   1.1705311390   12.8422564365   15.6492549591
  16.1513347532   12.3030980970    0.3206204096
   4.8892972306   10.1049853937    7.2034830391
   5.5579142889    9.6996302472    4.1860110481
   9.8318678312   16.5622283017    5.6982205756
   8.6663834146   17.5196940619    6.1434308036
   1.8154481034   11.5711598892   16.1903452025
   2.3276179105    0.0911558599   12.4582080464
   1.1616057306    0.7793828757   11.8382095305
   1.2911359430   17.6322247743   12.5678244889
   0.4431194503    1.1414358025    9.4558399293
   9.8056613119   10.3230571724    1.6986455493
   2.4731659970    9.9636621698    7.0342456147
   6.2201272648    9.6718480093    6.5573611388
  13.5679337488    0.6086187551   14.9276501307
  -0.1558731733    7.8741028355   18.4130115738
  16.4901388717    4.2270096022    0.6710113680
  -1.2050142859   12.4441985811   15.6115080607
  -0.0625658075   10.1644164104   19.3673390831
   9.5905397574   16.5400225152    3.1896857235
   8.9492172618    5.9272748112   13.5466330501
   6.7216664421    1.6455977860   16.8803542016
   8.9195708686    4.9522222890   19.0616100943
   8.9688751163    3.5298129109   12.7197840471
   7.5886691532    0.9940556571   18.7681286882
   9.1808681494    3.2713142674    0.8042045099
   5.8092703486    2.3848395047   18.7352075069
   6.8224480774    4.7863496285   19.2805945274
   8.2471150128    1.6533267595   13.7669798489
  11.8464046331    3.3448871992   12.8121315189
   9.8179064460    1.6281747427   12.0813275893
  12.5975335539    3.4267403266   14.8435602687
   4.4183046015    7.0481564384   15.8348203730
   5.3563851030    4.9948056342   15.8886229748
  11.0043021699    4.8390739298   14.2980426503
   5.2219956720    6.2148996862   14.0791228702
   2.6942893810    3.4666453358   13.0589324687
   8.5449345438   18.7905449208   18.2024599590
   2.8728521162    5.5762502917   13.3781483767
  11.4482566755    7.5339657768    9.9863629707
   1.0480466960    4.9222300292    9.6939985653
   7.5513889450    8.5929335834   14.3877734149
   8.2046314121    8.6796000492   16.5104464323
   1.1385752837    4.2111852858   14.2157748742
   9.8943163289    8.1844692830    8.5350139658
  10.9862918531   19.1426767722    0.4029825060
  14.0999067016    2.0734750377   18.0909559377
  10.7513082140   19.1691005883   17.7914879628
   3.0351917200    4.5127172591   10.6233407235
   9.9942851219    6.0842768616    9.2108117697
   7.1657009416    8.8478485705   11.5437008022
  13.9891019935    2.3361386086    0.6872797872
  12.7468516303    3.7241216921   18.3664214134
   6.1347594782    9.1564209811   16.0050566672
   2.3573582229    6.5424342730   10.5666862840
   6.9739228913    7.2939732941   10.0138678982
  15.4404792700    8.6837141861   15.3360019221
   7.6302705838    9.2390746512    9.4807098711
  13.7219925360    2.5225880720   10.9915432023
  14.1058178682    7.7160944749   13.7914940972
  15.1536784256    4.4126251891    8.8000035027
  15.7893393014    1.9593554088   10.4761143918
  15.2126356606    6.1923156041    9.9877681597
  15.2918896373    6.4884448417   14.9861035539
  -0.7748933020    8.4672399637   11.4821573180
  15.3073747295    2.2332614028   12.5678072910
  -0.8142577903    9.7576456449   13.2833988199
  13.4063394447    4.7753817989    9.9480158646
  15.4769804053    9.4774868397   12.0511152373
   0.7511550629    0.3867252978   18.8105271594
  13.8252493064   12.5420307478   16.2376507132
   2.0365745446    2.2147298042    4.2858492456
   6.1194318256    6.3350478063    2.1843897211
   5.4422473642   16.5955547782    8.1346796624
   9.0610744878   11.5588266980    7.2645552660
   5.9524316643    6.6379602100    0.4369160393
   4.4416842483    2.4758199229   16.2106460591
  16.4920663893    3.2387212442    5.9611783477
   0.1632930136    1.7439364739    1.7473858663
   0.9877150331   15.3754050598   18.5705157415
   0.0830131569    0.5722513425    0.3599920874
   7.0084441434   13.6587416200    7.5655335670
  -0.0806188745    1.9689590845   17.7861515678
   1.0041974585    0.1479543467    1.8200731023
  11.8544556981   12.4248377771   12.3525300670
   0.1949111825   18.9409117093   17.1257618505
   7.4308814521   14.8301961230    6.2778632090
  13.0411413986   14.7656311544   14.9561866775
   5.1042235873   10.7438554679    0.3615778650
  13.5306373177   12.0541127871   11.7486583034
   2.9946145987    4.3160504429   18.7921569376
   2.7259564598    6.0652362202   18.7892441656
  11.8572129678   10.0722125188   17.4860262435
  11.7581047491    9.9223914660    7.3177567336
   1.5939787477    1.5934840322    5.8673046617
  -0.4121803156    2.3339467177    6.9946532383
  10.8390937702   13.5633137394    6.2428341838
   2.9638833227    1.9690938515   15.5943220162
   5.8001872177   19.3573958659    9.6773511527
  11.9203068111   14.1570051081   16.1238991493
  12.5218488067   10.7315066755   14.2375033801
   2.4345638942   14.2348263483   18.4995025709
   2.4499799999   15.7081175822   17.5807125738
  11.3304644211   15.2389684436   14.7743283886
   7.2157866206   17.0025339135    8.4965368216
   0.7229260329    3.5274795483   17.6240290730
   3.2485328028   16.7549079297    1.9719511526
  -0.9602129229    7.1071273345    6.9078298093
  13.7394979788   10.8590104430   16.5599564787
   2.1323065064    3.2646463168    5.7615908423
   6.3533704010   15.6285359106    9.2583373808
   8.5287256613   11.3966645663    5.7032398361
   3.7906185294   10.2971287727    1.6455425508
   7.2885197109   13.0528240736    5.9837211053
   2.8497678430    9.7658689138   19.3246267252
   4.3646510886    5.5109538298   18.3633998653
  13.1265196946   13.6446968542   12.1541315591
   3.2478174867    0.2884088160    0.3807355472
   4.3848308070    0.8458329270   15.4913438909
  -0.0962629399    3.2361868998   19.1442466159
   1.6659669640    0.7798890641   16.8397597320
  17.2915801234    1.6222036462    3.6897582471
  16.2452425966    2.3488991157    2.4806005465
  11.3451415484   10.1874630608   15.6999319388
   4.3324818292    7.9136615640    2.6612591416
   3.5335913194    7.3492500305    1.1686809501
   0.6494594988    7.4548484586    6.1987043871
   0.9724937470    4.3731989788    7.4235913558
   1.7259718765   16.6582720391    1.0300109331
  12.5374491534   11.3598700514    6.4982462224
   4.1767057090   18.8659090496   11.4053032543
  11.5025887137   11.5904920610    7.9113625284
  10.2751262962   10.8278487131   16.9932044750
   9.6127392690   13.4194205081    5.0159411074
  14.1310113880   10.7719656188   14.3813786913
   4.6875479454   18.7319937165    8.5208093828
   8.2908907694   13.9815282135    3.7237725301
  -0.7841685152    4.6216661711    7.6895538552
   0.6477102276    6.5982172327    7.7508324467
   6.8975827034   15.2039866682    1.6803017157
   6.2549607930    1.9142329619   11.3760963576
   1.5738361900   14.0821672254    1.4172425845
  13.6353422873   17.3177804797   17.3724352064
  14.3411920654   15.6924183361   16.6804860455
   4.5878351316   14.6221062349   18.9951541658
  15.3298435254   15.3409177963   12.6068931259
   8.7588320689   12.3020572646    3.1582629280
   4.4653720578    2.1090081155   10.9803077408
   3.0321239878   18.1575890991   10.1334640364
   6.0192500342   11.3789904510   17.5559347495
  -1.9225170133   14.0537077556   11.9706026855
  14.4507951702    0.7365222964    2.9718852471
  14.8581200614    1.8154710010    4.4319180353
   5.1865574153   16.6572499517    4.0257865284
   5.3564038625    0.5333609175    7.4353496817
   5.0188692979   19.3374414467    1.5539446395
   1.5658997827   15.2666511614    2.8632543491
   6.1560754991    1.4571313763    3.9392059606
   2.9153453872    1.9233401947    2.0502174297
  -1.5995343320   17.6555163368   12.0691411088
   2.7472743769   12.3949017232    3.7029545156
   2.8223171719   12.1022527779    2.0803717977
   7.0551514521   12.6799408415    3.3022639697
  12.9542217444   14.2639535301   18.1241246891
   5.2002868779    0.8500186287   12.0507089229
  13.9055067234   15.3665601625   19.1637837451
   6.4802880612   13.0096597087   17.1786356202
  12.3787838338   14.4140318039    7.7822610493
  14.2717049719   16.1320616137   11.1554979858
   5.8315607468   13.7307320244    1.9953121653
   2.6818868645   14.6798673531   11.6407489315
   5.7835431244   17.9618455417    5.0489048297
   4.4593278410   14.7935843617   12.0034948370
  13.8794428505   14.6824664448    8.9380977352
   4.3211739000    2.8504974603    1.5178971116
  -0.9905530452   15.0236017834   13.0039421537
   6.4311595584   14.5142561994   18.7045108678
   4.3619006525   12.3044869056    2.8389118167
   6.8811208756    0.1856896772    6.3872438490
   5.2816543187    0.3720312698    5.6074317297
   4.7036476145   12.5400788600   17.1323707067
   7.8396804285    3.6722719066   16.9753424663
  12.4432425039   18.5282891016   12.7240182729
   3.8820511318   14.2000902855   15.2748581659
   5.0523743539   14.3847906704   13.9071212512
  10.2712831586   14.2529532784    8.9813132662
   3.3741527922   16.3709009141   12.0621234665
   6.4767683338   17.8767196258    3.3816132130
   8.1508505007    0.5328147346    2.9865029032
  -1.3246546519   17.3592547800   10.1609501815
  13.5082757478   17.9623048048    3.1562935957
   6.4618249735    2.1358945141    2.3584956309
  11.8666667155   18.1150111473    3.9607817637
  13.0873130108   17.3098632743    4.9422669694
   4.0680286834    2.6277036823    3.2535505932
  12.6837753743   15.9243200189    8.7700089219
  14.5210524806   17.0266367471    9.6182997882
  10.6025876806   14.2373568062   12.0893166014
   1.2925101129   18.7746670814    9.2486524141
   2.1972741973   12.6533326815   12.1087002968
  12.6230870178   12.0127815170    3.9642900203
  14.3952680398   12.1813136105    3.7226883487
  11.7832366279   17.7474056728   11.2440027770
  12.1155072647   16.5376590553    1.3254506068
  13.8200891317   15.9855552330    1.4586744522
   0.8620281359   12.6964493690   10.9129492657
  12.7085335985   16.8540982562   12.5207729693
   1.9862737895   11.3608599134   10.8844368844
  13.1661781738   13.1719241005    2.7771905114
   4.1217707577    2.9125738022    5.7820320598
  10.4548660049   15.5382376241   10.0715760331
  16.0360241647   13.5595875987    7.5219502608
  10.1409861966   10.7791720605    9.9514313521
   4.6815274521    2.6007723137    7.4379331631
  13.4176383042   17.2672402432    0.4684665353
   5.8385790900    4.7935608546    5.3472007234
   5.9464044509    5.0080364677    7.0555519961
  15.1814548204   11.5293374424    7.5591466486
   5.5292223206   18.7188558777   13.1093969528
   1.4009225490   19.1010583278    7.4175704688
   2.2688500591   17.9155050008    8.0930241181
   8.9697952259   13.8638674602   11.2447777267
   5.5328034044   15.9384931556   16.0519088534
   4.0719547400   16.6391554342   15.7802709089
  -0.3058846701   13.0869648177    7.4733032235
  -0.4825528201   10.8385149705    7.4847739928
  11.0786585205    1.5268158183   14.3592752077
  14.4949801144   14.8193016320    3.2784748440
   5.8728694216   18.8906957272   14.8636355135
   9.7852391558   12.3271934607    9.0892229027
  16.0769635625   11.1937211553    5.1887770313
   4.2881067162   18.6429426717   14.3830085994
  -0.6293074079   18.8774232021    5.8028397855
  -1.5926582620   17.4571506268    6.2568150293
   8.4920909898   11.7194747972   10.1680533586
   3.3913035352   11.6599894854    8.7971190482
  -1.0082705983   14.2271998511    8.6813955194
  14.5911153468   15.5862986815    4.9756879081
   4.7128599977   12.5914980842    9.6804952140
   1.3610849382   17.3071128153    6.2771854305
  10.9869792590    1.7299405976   19.1403024018
  15.2170460246   10.8103616985    9.1743570809
   0.1844565668   15.9471128649    6.6391472957
  16.1734255076    9.5576835347    4.5452845740
   2.7087825335    6.2127344170    4.9234382766
   8.1306429015    8.5736854835    4.6155578199
   4.5486768701    6.4688776248    4.8592321052
  -1.0424052577    9.3305281893    8.4439320081
  16.2164273802   13.9128317692    5.5517908034
   1.3162533730    7.1291292093    3.7220710958
  -0.4374484065   10.2816168368    5.4809093914
   0.8208901723   17.6108767155    2.9707385658
   1.3266769781   18.3967322946    4.4160582261
   3.8705553327   14.6726579603    8.4228921655
   1.1792581230    6.6993339899    1.9697012128
  -1.4689192213   15.2971388235    4.4007531790
   4.5061021110   13.2390821479    7.3523194380
  11.6809420712    5.4002719004    3.7428784661
   6.7606830844    6.7115585523   17.0880204135
   3.4594545333    7.2625613075    6.2284590668
   1.4579205766    8.4647972419    2.5167899710
   7.3567882682    7.1702178631    3.9623181519
   8.5390363189   15.9385152165   17.7934451070
  10.5786951883    4.1235307939    3.1586192137
   8.0951029586    6.9101307592    5.5920076793
   0.6314824226    4.0068732574   11.8790377871
   7.8006718767   18.9452754794   12.2447411952
  11.9881152681    9.0772626430    4.5156295174
   8.1187782021   14.5256873174   16.6180655475
  13.2731535836    5.2920283855    6.9816876295
  12.1043782012    7.6130421726    3.4731488109
   9.4229300698   19.5050163315   12.1433067774
  -0.2471263467   18.9573445170    3.6541189117
  14.5946100875    9.4144645286    1.8113622532
  13.1053099202    5.7909461249    2.3058033171
   8.7246185917    5.7379563973    3.0021483413
  -0.1918497792   12.3725608368    4.7406589998
  13.2056940381   10.5249425239    2.1088558106
  12.5788344899    4.2745721717    1.6870229479
   9.8139806531   15.0024021928   16.8662490343
   9.0752957397    5.0494792099    4.5465161286
   8.7855132191   18.2346888852   10.8948649333
   2.3693658781   15.1059137318    5.9954967204
   0.3761117417   13.7597117156    3.6308721826
   9.7740289550    8.8345978259   11.0711366500
  14.3718731984    6.5727535251    7.3899733914
  -0.1511078096   12.0476490556    3.0258558693
  15.8621930448    7.7466433722    3.3425524184
   3.6112193229   13.8631430752    5.5424747529
  15.1273978423    5.1243739901    6.6054931625
   7.9717516953   17.7318812257   14.0925005726
  16.8485880252    6.4324121600    4.0096985228
  12.0421368636    7.4571882497    5.9699062363
  12.9778992277    8.8363447932    1.4294480049
   1.9885661753   13.3993755432    5.3839872820
  13.5488846361    8.5017128799    5.9437856192
  12.6702576828    5.7457579338    0.5208427614
   9.0715615703   12.5675808280   17.3319635103
  -0.7677149481    7.3586877842   13.9515044793
   8.5351692735   10.7540279089   18.3007952469
   9.0656562992   16.3446409819   14.2698977620
  10.4050557227   12.5969351310   18.3445886772
  15.2786658740    5.6396547380    2.2654612959
  11.0339209898   17.5884953629   14.6970519944
  16.3503553951    6.5929587232    0.9144841165
   8.5528575507   11.8189957603    0.1509185256
   2.0963030219    9.0735511652   16.5087651330
   0.8895354502   13.3762203931   16.6047289238
  10.8550487460   17.0722109159    5.7723440426
  11.2590808082    0.6531807223    6.2627395004
   5.0239520614   10.1854526491    8.2841532456
   5.7576195708   10.4249886370    3.2486661252
  11.7837482404    0.6996383718    7.9054292300
  -1.1606079245    9.7554569199    0.6892972850
  -1.9934077680   10.5758243097   18.6285637822
  14.7435118744    4.5257932698   12.2031804495
  15.8951441102   13.2464876651    0.6765209118
  15.3100119534   12.1688641940   18.6294513076
   0.1724954785    0.3719333218   11.7766676212
   3.2287891049    0.8169130767   12.5641652499
   0.7506289810   17.1601490820   13.3456037561
  -0.3802994567    0.6396076273    9.9387768407
   9.8001310975   18.1945564503   15.8248010762
   4.5954148037   11.1165888403    6.7775478072
  -2.0105563733   12.6779257844   14.8689193471
   8.5848029118   16.9034848321    2.8273472655
   2.1790178125   10.2566701768    8.0107641623
   3.6824039583    9.1274641455   15.3843752775
   8.3864386205   18.0364817592    5.2186751187
   0.6702942200    7.2846080043   18.8829572358
   1.8005017980   13.5354011346   15.1650356732
  10.5516840497    9.9739911105    2.3974884890
   2.6677649616   10.7980040066    6.3920218561
  11.8221639631   19.5142722569   15.7416527706
   5.9498169325    8.6188677164    3.8184622964
   2.6326373026   12.0082851539   16.8739829680
   2.1282631317   18.1125162009   13.0150751912
   0.9504356061    0.4838216998    8.7235584943
   9.9385475328   15.6919295203    6.4071726107
  -1.3604478716   11.4073153150   15.9881432014
  15.4486104270    4.5532169298    0.6452069737
   3.5347497567    9.9898546796   16.7213072292
  15.3756506785   11.5714150516    0.6047374569
  12.9281660118    0.0911191679    6.6843413001
   4.4082890458    9.7401364136    4.4323128186
   9.1404065314    9.4038674417    1.3614742223
  16.2180817980    4.5033704997   19.0689259530
   6.8839937988   10.2810048548    7.1783970980
  14.3978257174    1.0041133014   14.2661506943
  -0.2589181597    7.5433260652   17.3895198543
  10.2863879323   17.4708958337    3.1372854388
  -1.0657282527    7.6197492010   18.9723535690
  -0.3827491092   19.3666443523   13.5235418287
   1.0733866547    1.6270581239   12.6151616169
   1.3785015327   16.7832039017   11.8219693567
   0.0369717748    2.0735979029    9.0274378207
   1.2341902372    9.6073559775    0.8180489826
  16.7677929797    3.2239259526    0.8643486557
   0.5532798128   10.9701527924   19.0838054322
   1.0174145479   11.0256916580   16.8279544912
  13.1876305586    1.3422867138   15.5603228341
   9.9730759419   15.8641739442    2.4784218410
   1.7040930629    9.3069813888    6.5352050736
   7.7803932599   16.9363024460    6.4308948424
   6.2707552936    8.6225225056    6.7596316423
   9.1516915817   11.0517631961    2.2459410863
  -1.3709183515   13.2055427833   16.3817069864
   5.0965071434    8.8036943607    1.1158387897
   8.9606315903   13.8969125626    6.9307267470
  13.4384353917   12.6223855587   13.8518036574
   3.5650138440    1.1490268715   17.3949918369
   1.5499367046    2.1179968435   18.9027604593
   0.0479486500    5.4558619266    6.0069610873
   4.7366838727    5.2149425513    0.9693158493
   0.1581386839    2.8163220727    5.0231730253
  10.5815244866   10.8228567551    6.0166990718
   5.6123228347   17.4177283784    9.9789916889
  16.9482288058    0.3010006056    2.1555183112
  11.9644792668   11.9060664691   16.6856824786
   3.5205925100   15.9523629289    0.2529222806
  12.3991794433   16.2348192105   16.2802397814
   5.5315119619    0.6026509532   10.0131588288
   3.4431912778   14.0926755018    2.4509491492
   7.8650202885   13.3521311781    1.7172620175
  13.2591885836   19.4654294868    4.6053367954
   5.5872096494   12.7843360778   19.0129233179
  -1.4750422015   15.7263101076   11.0720177301
   4.5180170250   18.5187950186    3.4784593090
   4.7918279682    0.9266991964    2.3102753639
  11.8455853101   15.6136366194   19.0176081854
   6.1436026277    2.1820243607    6.0961525106
  13.8942123808   18.0707318083   11.4134806284
  12.0255836410   14.0435003236    9.8108375569
   3.0724446650   15.1848869212   13.6711740487
   5.3790235651   16.9141384537   14.1005946462
   9.7723233151    2.5232794604   15.5936408104
   9.4238036935    2.7671973585   17.9039331869
   0.1847462622   17.6009509241    7.9150964404
  10.2870872026   12.3382875609   11.1352841864
  13.5790304841   13.7941676810    4.7685385070
   2.6379396806   13.1990119245    9.9796504577
  -1.6466333025   12.2965735333    9.0753116910
  16.0676694967    9.6380003952    6.6034775614
  11.3367261779    1.7556429113   17.1222709833
   3.9571382765    5.1906918179    6.3102647499
  -0.4453530492   17.2298906406    4.4858425208
   9.4504868046    7.0839747698    4.2312578313
   7.6721795534    5.8463064289   15.4775455603
  -1.6965814802   13.2153102072    3.6602330271
   2.5615211941   13.4250795822    7.2960633217
   9.0930965452    7.1112966387   11.8521665285
  13.9225876302    6.4932144204    5.3646336834
  -0.3114484997    7.9433948136    2.7491496037
   0.2373489027    6.0082364434   12.2422681912
   8.7448269254   14.1418594249   18.6511734055
  11.0351471938    5.7223002594    1.9300657740
  13.7506029742    8.9305408469    3.4620903706
   9.2504189130   17.3589366709   12.5081581416
  16.6911940168    4.5420720674   11.3706485256
  15.9418145057    6.5815311120   12.4699322825
  17.1142826484    4.9777189396    1.7335377283
   2.3703943130   10.7473168737   15.1840348338
  10.3420478787   19.4347231477   14.1261096209
   6.3874671861   10.2431194813    5.2489180836
   9.0788403693   18.3491894911    7.1751100623
  10.4187645129   11.0621510238    0.6907291619
   0.0913893368    9.2682131676   18.2003969331
   0.4906548815   18.4902487440   11.7918562217
   1.4498429436    1.5595640231   10.5584571541
  -0.6418550784   11.7410269003    0.7410120972
   9.5589024546   15.8705593416    4.5110677106
  -0.0251749109   12.6677006016   14.8193202193
   3.7233077783    9.2303027709    6.9519314930
