B2 C140 Ca1 F48 H298 O66 
1.0
1.7928906776371466e+01 2.9438871962179247e-17 -1.7155659293005757e-17 
-2.2494565983699633e+00 1.9519712764301499e+01 1.1787470363433977e-17 
-7.6517089573403985e-01 3.1329983018919072e-01 1.9543690848835652e+01 
B C Ca F H O 
2 140 1 48 298 66 
Cartesian
  10.1140277857    2.6287494235   16.8968165772
  -1.0248723133    5.7904227497   12.0476056966
   0.1546567713    0.7449511648    1.5566894877
   7.4990948254   13.9853404737    6.7792445342
   5.2559559780    6.4204212441    1.2456274149
  12.6789472845   12.7159079264   12.6207263262
   3.9337311591    1.9751302749   16.0310579087
   1.8093693648    1.0948683552   18.7986016915
   1.5580801298    2.5635322780    5.2888853572
   2.3554966758    0.7365869166   17.5263658100
  -0.5290620077    3.3112287494    6.2590246153
   3.5642178040    5.5318779924   19.0093091178
   2.1924877008   15.5798413956   18.8356538650
   0.5144256365    2.9772776521   18.3639196793
  12.1820570896   15.2825353893   15.4935689271
   4.3958159849    9.8194550204    0.7643209887
   6.2444889846   16.7195109349    8.8692846603
  13.1439424041   11.7768893437   16.1590274342
   9.5180213663   11.7323340923    6.2947205708
   9.6185404485   13.1927388589    6.1444277912
  13.2907852516   11.4746303373   14.6771982169
   4.4631945335    7.6008853083    1.5982554603
  11.1764714855   10.6475026232   16.7898287149
  11.7259497655   11.0237765102    7.0282318175
  -0.0394268162    4.5320625036    7.0096750844
   0.1233949456    6.8435324718    6.7657947342
   5.1295108454   18.7347458943    9.5890767213
   2.6840214726   16.1664779191    1.4355543876
  16.3606009313    1.4525391442    3.1038942477
   3.8850276482   18.9099600322   10.5284297169
   2.1726928083   14.7573235542    2.1654647736
  13.3712796025   16.2975231649   17.3142882892
   5.3021414881    1.6276371573   11.0948497507
   7.9038096830   13.1073438092    2.9737469819
  15.1430926965    1.0119443276    3.8202561760
   6.5439467192   14.2373795268    1.3251109206
   5.6790682616   14.3993856801   19.3678100780
  -1.7594831074   15.1898691004   12.3126515205
   3.2073479695   12.6628736629    2.6819143322
  13.0068455313   15.4465369516   18.5020140340
   5.8362486985   12.6223475096   17.6302173244
   5.6177781702   17.8660552497    3.8671957070
   7.1034421082    0.2181615201    2.6266173770
   6.0019352163    1.2286312045    2.7554809986
   3.9721461174    2.0299800618    2.3745569274
  -1.9665726265   17.1100570839   11.0243549302
   5.8744840680    0.9159348635    6.4329404259
  12.6588250499   14.8739390461    8.9629462412
  14.4168018410   17.1663876649   10.6912104922
   3.4892137692   15.3703083426   12.3562828581
  12.8815516284   18.1668455293    4.2123523220
   6.9961596657    2.1550103027   18.2313257758
   7.9738204107    4.2950445621   19.3404443296
   7.9558449060    3.3670716649   18.1239567770
   4.2800932680   15.0690339533   14.6160144629
  12.5360070888   17.8950559778   12.0311967082
  10.4834354678   14.5171183724   10.0529310517
   9.3464479016    2.4545999857   13.2702193618
  12.8020481918   16.3125409053    0.7022146116
  13.2688671179   12.8311785344    3.6849097306
   9.9913553303   13.8365734784   11.2914392152
   4.9678414536    3.1281488198    6.5098324373
   2.0360179115   12.4705232245   10.9197087111
   4.7632231379   16.3134517399   15.2702665793
   1.4416320004   18.5600603492    8.3654228530
  10.4475940041    2.5498080009   14.4162520431
  11.4203997721    3.6377872726   14.1025892578
   5.2946176088    4.6116010286    6.4142999183
   5.2118012429   18.5313324751   14.1505403071
   9.6282494443   11.7995843018   10.0893165606
  -1.0928830111   13.3845119114    8.2111765528
  15.7384986324   11.2532519242    8.4813432795
   0.3166991699   17.1706668797    6.6041180354
  -1.2360202610   10.2168964436    7.8311616878
   5.4000927885    6.4296016891   15.5962940995
  14.4151941926   14.7538367294    4.3459571074
  -0.7620631974   17.8463591233    5.8249017105
   3.6736228891   12.8085355522    9.2519823771
  16.3533136001   10.2658226017    5.5033064163
   3.7983326550    6.3206571330    5.4928335225
  11.8206914278    1.7953706645   18.5148596562
   2.0214427113    4.7275156199   13.4015218424
  12.0375108248    0.3001150987   18.6935392628
  15.8536017757   14.2709642347    4.6497984743
   6.7858917486    6.9955555752   15.8911411093
   3.8719746384   13.6784071591    7.9623664819
   8.0412669735    7.4064015972    4.5901371278
   0.4576640087   18.1947185569    3.8844999064
   7.0689713213    8.4839301450   15.7336751288
  10.1230373846    7.3923345085    9.6478148439
   0.9385443707    7.6366518438    2.8272078470
  13.0047956731    2.6345067063   18.8493470394
   2.0347991109    5.4915317760   10.7813157604
   1.1941143445    5.1091016685   12.1051391380
  10.5783477330    5.3325715350    3.2525295257
   9.4073299314    5.8483414746    3.7473344678
   8.8550394705   15.1129857735   17.5488089726
   9.1517208112    7.9755778067   10.8284437198
  12.3838093056    8.3915175227    4.1261508762
   8.9022775249   18.6452934610   11.7407110340
  -0.3629355989   12.9948711414    3.5264135326
  14.0946102890    6.0618253290    6.6778558058
   7.6109106281    8.3574734377   10.4182589342
  13.4503302358    9.4499534845    2.2821193793
  12.2166512072    5.3975436952    1.7255794540
   2.6911496691   14.0164149510    5.9587119754
  12.8548450618    7.8460221197    5.4962276487
  16.5529488732    7.1110016837    3.2250482924
   8.9012551331   17.5191123755   13.9131800125
   9.1991981854   12.9872160570   18.3212188952
  15.1766811856    7.7884564365   14.5619447484
  16.2702032561    7.7281720806   13.3897577812
  16.1257350576    6.2367440349    2.0262080846
  14.9417958025    2.8653178873   11.3202506170
   8.6916271523   11.8193754294   19.2150978301
  15.1676390063    4.3812188779   11.2889376033
   9.9297893246   18.3468897930   14.7221179425
  14.6498310780    5.0204952407   10.0504668371
  -1.4726234647    9.0629047616   12.6653397558
  11.7192113855    0.3066851281    6.9312409132
   2.9748790395    9.6789008851   16.0278710418
  -0.5230624591   10.3552085529    0.1422833239
   1.2003312560   13.0029785772   15.7606377404
  15.9958507891   12.1611205136    0.3679681536
   4.8583530124   10.1771456045    7.2791375003
   5.4674674919    9.9150975493    4.2644468877
   9.6507477840   16.5837524490    5.8101570191
   8.6462797215   17.5655986805    6.2425261867
   1.8755663472   11.7605602250   16.3677124335
   2.4268781247    0.2614450854   12.4846021433
   1.2257428681    1.0237466940   11.9024078923
   1.2965762680   17.6455331879   12.6082781244
   0.5446758277    1.2953312102    9.6005797042
   9.8474446760   10.4160667353    1.7370751636
   2.5238664368   10.0176109602    7.2175299209
   6.1832561728    9.8398680868    6.6061440041
  13.5507824202    0.8049516956   15.0280620360
  -0.0130700641    8.0614570043   18.5058822834
  16.4163184080    4.3990799676    0.6439922474
  -1.1138196136   12.8662455322   15.5967790450
   0.1362948490   10.2366978561   19.4704774906
   9.6200812847   16.6803372500    3.2774469550
   8.7738434065    6.1006992513   13.6112882843
   6.6462424647    1.7150583033   17.0162286178
   8.9273615485    5.3377478840   19.1292447054
   8.9378829093    3.7038279125   12.7456606366
   7.5755393956    1.1813370207   19.0742473621
   8.9099760617    3.2570627464    0.9514437993
   5.8926484642    2.4382436874   18.8961477114
   6.7170636499    4.8014055103   19.3141904513
   8.2405004684    1.8328089594   13.6730370849
  11.8705809789    3.5866571958   12.8516998846
   9.7094705297    1.7761799960   12.2426571495
  12.4470937766    3.6870096906   14.9643620840
   4.4007763863    7.2353033980   16.1606339325
   5.4716663106    5.1871333866   16.0680052937
  10.8381224592    4.9786252929   14.3441228697
   5.1335160254    6.3050699291   14.3233833842
   2.7924101022    3.5326565838   13.1313255100
   8.7053063811   19.0536034474   18.3935522978
   2.9222364062    5.7112179655   13.6797312871
  11.4528677209    7.5926493157    9.9756882821
   1.1674290081    5.1136059246    9.7296401077
   7.4602616743    8.7385966986   14.5184062024
   8.2414818671    8.8328776948   16.5884750811
   1.2477663096    4.4524122759   14.4612413481
  10.0033729092    8.2540241080    8.5635437334
  10.7962512453   19.0675369767    0.4027514199
  14.0685630163    2.3195757548   18.0919553998
  10.7441385683   19.3144658460   17.8091745773
   3.0696838430    4.6028445911   10.6118492852
   9.9997066092    6.1567119373    9.2229610752
   7.1105316181    9.0228983135   11.5170099598
  13.9273714136    2.2109805995    0.6613836015
  12.7496652747    3.9802279971   18.6614956338
   6.1410881079    9.4847843414   16.0768358849
   2.3911257595    6.7817023777   10.5911702828
   6.8447005238    7.3524281052    9.9916631932
  15.3969188820    8.8626476556   15.3838596223
   7.5203042021    9.4419843470    9.4495889997
  13.7306190351    2.5374344711   10.9964753832
  13.9316914412    8.0042388056   14.0664358000
  15.1002442980    4.4895490660    8.9306085781
  15.7346906412    2.2058504349   10.3120974334
  14.9194812602    6.3563903757    9.9685051953
  15.2254525361    6.6086037553   15.2476023258
  -0.8136642674    8.7422126179   11.4842769369
  15.2026621445    2.4077814440   12.5920796368
  -0.7888380900    9.9171622523   13.3880810565
  13.2263331767    4.9981264407   10.0806493683
  15.2637987732    9.6353443394   12.2835657477
   0.8647904422    0.4691863403   19.1138657084
  13.7657559173   12.7352974025   16.4709793415
   2.0151408802    2.4845863386    4.3564251883
   5.8283381548    5.9759129289    2.0879594276
   5.5922755468   16.1270194526    8.1457350785
   9.4142867679   11.5068132027    7.3511189685
   6.1628524683    6.8230415604    0.4850440363
   4.4852637103    2.9928797441   16.0522503527
  16.3938772906    3.4711718049    5.8437032941
   0.6435091111    1.7936156916    1.4520124401
   1.1004121635   15.2948572675   18.9432459236
   0.0705453439    0.1958785390    0.6009993661
   6.9850333636   14.2086616807    7.7387067750
  -0.1186027771    2.1121113113   17.7934546432
   0.8569754555    0.1351428513    2.2096624816
  11.7024432958   12.3175021024   12.8061653589
   0.3178140385   19.2134454439   17.6457017988
   7.1823443355   14.8544001603    6.0822621327
  12.9833292123   15.3007501501   14.7118017247
   5.0869621998   10.4899453381    0.3290986120
  13.2434168454   12.0741256165   11.8619274738
   3.6692937328    4.4862387932   18.6526579954
   2.6891738102    6.1843478512   18.7360257121
  11.5379347587    9.9374785586   17.5072612349
  11.8647309861   10.0222200601    7.5174590740
   1.5529655458    1.6320526888    5.9086581593
  17.2992171596    2.4304663693    6.9100386898
  10.6905715459   13.3056823602    6.2223729508
   3.0003157709    2.0874889629   15.3583748899
   5.8699590895   19.5802917714    9.6371610643
  11.9616086958   14.3867665451   16.0052199660
  12.4089401097   10.9702767496   14.2161691412
   2.5904476919   14.4994855397   18.6597269899
   2.3801219804   16.1347882654   17.8705627370
  11.1406890002   15.5121475498   15.0178712125
   6.9372330867   17.3605191258    8.3508025746
   0.7678352633    3.7572486667   17.6029197955
   3.0378399497   16.8107630999    2.1079164104
  -0.8889566560    7.0478276073    7.0745286063
  13.7940512998   11.0275814901   16.6564734311
   2.1788830612    3.3182094111    5.8873568421
   6.8688443532   15.9406501959    9.4660353434
   8.7743276553   11.2559800975    5.7391225681
   3.9018868086   10.4008234115    1.5677566640
   7.2072124332   13.0113597781    6.1892894428
   3.5331722884    9.4461542064    0.0555425973
   4.4636053754    6.0389842884   18.5957286487
  12.4410222899   13.7055048626   12.1518205909
   2.5801142403    0.9209522172   19.4419212437
   4.6490784196    1.2356791919   15.5028813284
  -0.2663362903    3.3974617632   18.9195154627
   1.8534550286    0.7529462801   16.5485316040
  17.0153565858    1.6870636308    3.9678320888
  16.1071895381    2.3302623874    2.5111238480
  11.1927119109   10.1201708955   15.8314133918
   4.1109076051    7.5484295983    2.6408670761
   3.4716372156    7.6417310004    1.0338903022
   0.4251246230    7.7333659335    6.1536283911
   0.8994644700    4.3881448605    7.5787851985
   1.6926931871   16.6728735829    1.0413538281
  12.6790940025   11.4719600397    6.6425828327
   4.2434817208   19.0186077865   11.5763176767
  11.4269003478   11.8190953012    7.5920897347
  10.0990437819   10.8331373389   16.9397539586
   9.5490049429   13.5966295698    5.0663353848
  14.2293506451   11.0000308880   14.3486096238
   4.8678574919   18.7024737022    8.4605599753
   7.9422344510   14.0597801246    3.6221148857
  -0.7957770081    4.8926688757    7.6484743601
   0.6221773787    6.7801945295    7.6664048614
   6.8407772071   15.3547479135    1.4083301269
   6.1452380281    2.3258102187   11.3197077396
   1.6798704895   14.3395362623    1.3241466784
  13.6882763540   17.2161518743   17.7065956722
  14.2614022634   15.8109374014   16.8248329776
   4.6881199575   14.8282372274   19.0541883761
  15.2728531574   15.6052529384   12.7714894736
   8.8331862071   12.5900180556    3.0080776215
   4.3668645879    2.1218149066   10.8694983351
   3.2393499723   18.1193455432   10.6127310097
   6.0723591988   11.5756151789   17.6737770442
  -1.7071456932   14.0183490745   12.2278365412
  14.2907912956    0.5438317798    3.2929230484
  14.7969653089    1.8756787690    4.3336016352
   5.3068221617   16.8091450400    3.9488629953
   5.6277566881    0.9303994218    7.4696240750
   7.2066664966    0.0635792824    1.5103233801
   1.6661296819   14.9452283604    3.0894959035
   5.8395102007    1.6093627803    3.7494178003
   2.9592821963    1.7404143572    2.1907204161
  -1.9593889168   17.5181684431   12.0482545386
   2.6478152594   12.4010767871    3.6035939667
   2.5071861397   12.1407202454    1.7929347493
   7.0970971594   12.5974103025    3.5774478012
  13.0210872738   14.4067498399   18.1420030348
   4.9252067462    1.1296148003   12.0687021501
  13.8311289050   15.4959353230   19.2371932419
   6.7500529210   13.1950426219   17.2210742571
  12.3831674109   14.7856456504    7.8803800179
  13.9333656395   16.1983210595   10.9633681940
   5.6407001779   13.9270970556    1.6623698169
   2.7189406925   14.8913712178   11.7794075115
   5.8285321838   18.3115550013    4.8430165412
   4.4838062523   14.8230313687   12.1817175543
  13.5923878133   14.4919116196    9.1472877077
   4.3510892284    2.7444581620    1.5792658291
  -0.8860785758   15.5572958290   13.0278906974
   6.4716330043   15.0095979969   18.8581537855
   4.2578136304   12.3602312028    2.7553681029
   6.8340107828    0.5158024275    6.2061900940
   5.0568658186    0.4174700895    5.9334450060
   4.8772185181   12.7304667812   17.0945426844
   7.4882361563    4.0263360709   17.3358420007
  12.2049195088   18.5092158989   12.9536734162
   3.9372888151   14.3503069129   15.3980654104
   5.1891470126   14.6761038852   14.1455065806
   9.7573761427   14.2601161116    9.1522111781
   3.7092253737   16.2868474864   11.8942464095
   6.5225237004   17.8437340350    3.2910490645
   8.0203343378    0.6863620893    2.9489424619
  -1.5200262528   17.8642938167   10.3883438184
  13.7259867641   17.7733391106    3.6812418341
   6.4398642587    2.1630537994    2.3368611610
  12.1144604976   18.1771592899    3.5247364271
  12.6806931748   17.6106686278    5.1760646307
   4.2049643277    2.4767361147    3.3949905930
  12.6378401356   15.9922494324    9.0802288754
  14.1799132077   17.4231669919    9.7011166067
  10.3948803822   14.2075179343   12.2164193102
   1.1977661347   18.7408479201    9.3959290164
   2.4754537503   12.5910651694   11.9561236641
  12.5295679405   12.2133591145    4.1792077150
  14.1242915120   12.2881481778    3.3578463067
  11.7114746793   17.9420439618   11.3332873041
  11.8440313503   16.6454914510    1.0568743337
  13.3019608220   15.7000470552    1.3904146202
   0.9672004224   12.7484841903   11.1014904947
  12.5683445581   16.8217132392   12.3244948758
   2.0444481726   11.3676041409   10.6299543231
  12.8858058008   13.2027705527    2.7387484106
   4.2275174978    2.8025238875    5.7935885366
  10.3569713728   15.6306943776   10.1290467116
  -1.7581207616   13.6382371115    7.3895865241
  10.1583966192   10.8552524723    9.8958461318
   4.7220171706    3.0182365618    7.5771008175
  13.4297713818   17.3431328949    0.4820860254
   5.8376691479    4.9392282385    5.5644554278
   5.7996193710    4.9355158113    7.3238889509
  15.1292353579   11.6381121346    7.6127504743
   5.5302225808   18.7097806446   13.1196965470
   1.3677831330   19.5806938275    7.7969792005
   2.3393693407   18.0217311725    8.2483369431
   8.9347215417   14.1217296857   11.3741638145
   5.6835385132   15.9935434501   15.9105323953
   4.0180293641   16.9144585192   15.8237856893
  -0.3080265022   12.8392972245    7.7101022048
  -0.2966174229   10.7267421304    7.4230274810
  10.9977806980    1.5573474903   14.4831390332
  14.2873665836   15.0842509650    3.2577422822
   5.8854639109   19.0555572451   14.9242171024
   9.7235016900   12.4155254983    9.1370162624
  15.8396965134   11.2902204275    5.4548348500
   4.1689015928   19.0184383221   14.2360100869
  -0.6324645074   18.9170192942    5.7785616483
  -1.9045885370   17.7165536496    6.0029879303
   8.6581413101   11.5819527845   10.3055179159
   3.5838038893   11.7652400026    8.9345551033
  -0.6897713173   14.1779447399    8.8557631356
  14.0761900005   15.7122599663    4.7500970288
   4.6497430193   12.8487208940    9.7713856715
   1.3519368374   17.3747905635    6.1929164108
  10.9985859052    2.2069706539   19.1977894981
  14.9137923878   10.6745184182    8.9906478066
   0.1672603497   16.1530330531    6.5737641796
  16.0072415427    9.6849837709    4.6911062489
   2.9989222651    6.0390480106    4.8673745096
   7.9180948716    8.4871539554    4.8724715799
   4.6732315007    6.6637097620    4.9363950079
  -0.9979544227    9.4166669389    8.5157026641
  15.8167819250   13.8526590742    5.6682881968
   1.1042769503    7.1842799014    3.8064012840
  -0.4579643671   10.4206476356    5.4638576786
   0.7045754204   17.8390641639    2.9220944777
   1.4116089966   18.0392330965    4.4500709854
   4.1237114546   14.6645690638    8.1348830316
   0.9168647916    6.9214192503    2.0346269221
  -1.2849784553   15.0941306417    4.5462549982
   4.8256742607   13.3212930880    7.3838648439
  11.3857460481    5.7125736610    4.0363165995
   6.7934936288    6.9735819771   17.0267853625
   3.6404545184    7.2360373963    6.0010008852
   1.6742747854    8.3899204052    2.6017711425
   7.4698735870    7.0391287587    3.7404990861
   8.3287026300   16.0228389324   17.6524103561
  10.6850113789    4.2351498511    3.2347026951
   7.7402078658    7.0135534645    5.5591987452
   0.7363364573    4.1834276433   11.7569971570
   7.7797786355   18.6856571539   11.8124300621
  11.6337196203    9.2884830596    4.2725143909
   8.3731582408   14.7852436115   16.6293668366
  13.3516427896    5.3086538933    7.0500089870
  11.9675456017    7.6267321389    3.4958537701
   9.3989435458   19.4922928648   12.2464050885
   0.1175252584   19.2972515850    3.9546087936
  14.3695242136    9.8656196432    1.9038697929
  12.9847021423    5.9809606900    2.3570833076
   8.4965249781    5.6679814455    2.9961240194
  -0.0046286231   12.3717188763    4.4518971541
  12.7409534614   10.3199698786    2.0271083638
  12.3415295365    4.2347895193    1.7442541385
   9.8670427769   15.3150815123   17.1826412220
   9.0821047892    5.2541342153    4.6401677107
   9.2052031720   18.5516420952   10.6683520871
   2.1838115887   15.0392044053    5.8527403950
   0.2207599131   13.8953126169    3.4209897826
   9.4798943774    9.0077595620   10.8630599142
  14.4439246103    6.8611144061    7.3820374720
  -0.3035569388   12.4770114407    2.5372464486
  15.5452554042    7.7166334493    3.3801691148
   3.6748160925   14.2577031927    5.5406316571
  14.8975530384    5.4499366909    6.3002571649
   7.9344578537   17.9391773334   14.1706441452
  16.7542746042    6.6456994243    4.2159716009
  12.0198703183    7.5406043578    6.1539255898
  13.1045021813    8.6492281421    1.5915292356
   2.1296896203   13.4177566377    5.1838753115
  13.4586309485    8.4732713749    6.1992478563
  12.5528152857    5.6548606096    0.6983297512
   9.0882269844   12.5848044542   17.2768598754
  -0.6727305975    7.5128768903   13.7168346553
   8.4721096669   10.8955602688   18.6389422847
   9.0834839776   16.5194070609   14.2761943537
  10.2923011556   13.0138665721   18.5267044095
  15.1117409783    5.9585846257    2.1490387533
  10.9485783538   17.9463226520   14.7137478982
  16.0043591604    7.0217339593    1.2898294026
   8.5479886446   11.7943916008    0.1987739369
   2.2713939694    8.9049293854   16.2778025600
   0.9053984024   13.7194509140   16.5916482829
  10.6596587845   17.0069810343    5.7793963140
  11.2681445545    0.7148529164    5.9877159774
   5.0272644077   10.1783025830    8.3884476645
   5.3841283401   10.7470430891    3.6181845608
  11.4922665658    1.0299307788    7.7498413560
  -1.1246299502    9.6001857113    0.9253545244
  -1.7966928129   10.6342984779   18.6977864504
  14.7378688751    4.8360285045   12.1141194290
  15.9297589294   13.2075682477    0.8468404911
  15.1747608449   12.6913493396   18.8797818313
   0.3403125015    0.3067764676   11.8975416139
   3.3197236455    0.8464241665   12.6239126597
   0.7646412133   17.5966345946   13.6008708013
  -0.3000551519    0.6328730574    9.9667139409
   9.4848230989   18.2798641983   15.7777892680
   4.5724677614   11.1678051380    6.9736147126
  -1.9976169677   12.9838774035   14.9356728149
   8.7238730253   17.2730625884    3.0602126559
   2.3129293241   10.0744947125    8.3227053809
   3.5813310686    9.2102198691   15.2498647821
   8.2573505390   18.2190484516    5.4003138861
   0.6596260386    7.6414891917   19.2897929945
   1.9448042912   13.6549596921   15.2189626510
  10.6536272684   10.1278565051    2.4820623710
   2.6684777297   11.1155701070    7.0057520164
  11.8795921124   19.5230786426   15.3854225132
   6.0134813010    9.1844141528    3.7727687138
   2.7696580602   12.0775772998   16.9379486163
   2.3420978588   18.0274419531   12.8211390351
   1.0765670858    0.7630194702    8.7977137824
   9.6706746426   15.6940920618    6.4319814027
  -1.2921589829   11.8921039698   16.1581869739
  15.2786041258    4.5024361199    0.4556347476
   3.5957595209   10.0060148938   16.9419456502
  15.1774738029   11.6278431540    0.8282984472
  12.7917895866    0.2063147267    6.7167726602
   4.5132015768    9.7032944373    4.8088879460
   9.4138482674    9.5091207097    1.4170542624
  15.9962833600    5.0917545645   19.2119923341
   7.0434547523   10.1951860052    7.2332317628
  14.1096056530    1.3175947031   14.2323896096
   0.1553536007    7.4802950433   17.5344904546
  10.4972042861   17.2604987801    3.3751624419
  -1.0160623417    7.8473137483   18.9539386607
  -0.2220531934   19.3866481366   13.4450656101
   0.9540751610    1.8679203951   12.6171492628
   1.5071801952   16.7538144622   12.0774239782
   0.0971245322    2.2369693932    9.2219128304
   1.4628796410    9.4381641600    0.7639304075
  16.5697067212    3.2700700554    0.8097331264
   0.8048144847   11.1214821122   19.1315538784
   1.1035955661   11.3040774683   16.9739884516
  13.2734192820    1.6149591459   15.8954442592
   9.7461305102   15.7943577058    2.5760609681
   1.7594186984    9.3950136197    6.7795074606
   7.8288388378   16.9785419371    6.6907936696
   6.4568798425    8.7021734818    6.5923367389
   9.0284774262   10.8880010761    2.2680356061
  -1.0839970851   13.7219347380   16.3633656532
   5.2534023013    8.7248914680    1.1947126723
   8.8489887922   13.9059130764    7.1267107753
  13.3958777452   12.6902604487   13.8449052260
   3.6587323630    1.3858871347   17.3837473240
   1.6606123851    2.5403160298   19.0565424324
   0.2933858717    5.6553396106    6.0685016382
   4.5907082523    5.2712784210    0.8723766018
   0.2319524335    2.9943990858    5.1050562249
  10.6937190359   10.9706219266    5.9757249277
   5.6445226069   17.4203007489    9.9318213597
  16.7836872570    0.5334545806    2.1566679178
  11.9192522538   11.9452739862   16.7349792742
   3.4956181274   15.9106215675    0.3401603882
  12.3281525211   16.4753594966   16.2526273416
   5.4863321666    0.6570576399   10.0629276523
   3.3130879799   14.0346767309    2.3788783497
   7.7820987838   13.4905772981    1.5748677994
  13.2157909803   19.5017663425    4.7692938119
   5.6665073551   12.9736587638   19.0083725282
  -1.3796960499   15.8233794515   11.0711514595
   4.5239085749   18.5088014667    3.2569271054
   4.7449743925    0.8228593998    2.2368181548
  11.7784616364   15.8187957424   19.1009966370
   6.1900563231    2.3149349645    6.2513853853
  13.7896603409   18.2545481698   11.4910451148
  11.8138854357   14.1929790496    9.8692313964
   3.1739877767   15.2624082760   13.7847870815
   5.3274028017   17.0996736580   14.1981949016
   9.6881195594    2.8600596658   15.6262160739
   9.3571781598    2.8539324632   18.0175760525
   0.3692740529   17.6276752074    7.9891528035
  10.2337093390   12.4440146003   11.2009522612
  13.4179789272   13.8100188435    4.6552922547
   2.5693251426   13.3174320534    9.9973812455
  -1.7083595815   12.3824083260    9.0897063353
  16.0789845733    9.6208613550    6.7155689320
  11.4687326553    2.0906668284   17.1799094845
   3.9390146179    5.2594698778    6.4258468243
  -0.5427979571   17.2495955567    4.4825569944
   9.4090100709    7.1625443312    4.1764548893
   7.7407460124    6.2106482899   15.2733512371
  16.1626867688   13.2963832831    3.6092282040
   2.5564314084   13.5115881970    7.1985257917
   9.0758272347    7.3366069225   12.0282613330
  13.7123642070    6.6441229002    5.4221149491
  -0.4321384845    8.1765517045    2.9368418154
   0.2528446873    6.1045345989   12.3661997132
   8.7150427375   14.2589400221   18.6315291491
  10.9632062157    5.8635070856    1.9465030543
  13.6298944724    8.9517656675    3.6234212981
   9.2912443723   17.5104857508   12.5584025206
  16.5460928262    4.6638842411   11.3753582848
  15.9053562409    6.6480957754   12.5441693509
  16.9412623535    5.1121273737    1.7837545576
   2.3701290417   10.8117364036   15.4716440693
  12.3412677778    0.2491409033   14.3931042868
   6.4273738691   10.3156067416    5.2591896787
   8.9031799241   18.5632328279    7.3661109608
  10.4461314883   11.1226327280    0.6921733805
   0.1501314818    9.4674037747   18.3005744960
   0.6206136106   18.5647632083   11.7939961026
   1.4231679252    1.5858872451   10.6002532894
  -0.7198213414   11.6704288360    0.7723747591
   9.4720194882   15.8658655956    4.4659923955
   0.1038775582   12.7907597837   14.9159019806
   3.7799273380    9.3173395311    7.0389692819
