B2 C140 Ca1 F48 H298 O66 
1.0
1.8186783679942454e+01 1.7064709825087412e-16 3.5655054233941538e-16 
-2.3091471652259545e+00 1.9517179517441999e+01 -3.5276520410850643e-18 
-8.8446597227117396e-01 -1.4117779075314627e-02 1.9396388173783112e+01 
B C Ca F H O 
2 140 1 48 298 66 
Cartesian
  10.1062370298    2.2140868296   16.8093140914
  -1.1135649410    5.7007990282   12.0201403052
   0.0412570519    0.6932408042    1.4269450061
   7.5842160674   13.7756000512    6.5827386466
   5.4019063451    6.4513014751    1.2989380075
  13.0673392880   12.6196047813   12.4743635945
   3.7956608066    1.5438164945   16.0602084792
   1.7904625918    0.5641888125   18.8216422624
   1.4665253335    2.4481360268    5.2630080564
   2.3893377095    0.3348966652   17.5253096201
  -0.5390437133    3.1101195833    6.2250402383
   3.4137145852    5.1876410763   19.0272300943
   2.0826630709   15.1972303942   18.4479342965
   0.4332250354    2.6379625159   18.3182723334
  12.1420424091   14.9524732051   15.4937655965
   4.3090668918    9.9276216638    0.7051378845
   6.1819260566   16.6096891463    8.9210798648
  13.2428971346   11.6258866203   16.0461667191
   9.4878635787   11.6741189751    6.2404905821
   9.7905569240   13.0831416964    6.0333183149
  13.2575503255   11.3371235158   14.5812532191
   4.4711808263    7.6097318328    1.5826883518
  11.3352835054   10.6740236732   16.7164145941
  11.6873609779   10.8186650963    6.9891077591
   0.0080507056    4.3371350176    6.8883824919
   0.0752082146    6.5861735566    6.7469300685
   5.0139143751   18.5826673486    9.5047750006
   2.6830214719   16.0105069372    1.2235290978
  16.5531455474    1.3898764372    2.9798863547
   3.7815519135   18.8009639891   10.3424767249
   2.2024097755   14.7391377282    2.0142427786
  13.4922673763   16.0804629164   17.1309012832
   5.4034306930    1.3615753219   11.1528780847
   8.0067593188   13.0411744572    3.1177246722
  15.3133073694    1.0090263076    3.6514494017
   6.7635489248   14.1062337345    1.4651522705
   5.6002318670   14.0732166842   19.3343402863
  -1.8776387675   14.9465050817   12.2211963954
   3.3433533004   12.6715925883    2.8080661522
  13.1173517840   15.2322953125   18.3691019886
   5.6220364240   12.3523494963   17.6740784322
   5.4975697492   17.6167092634    3.9816094827
   7.1895706347    0.0417613528    2.6523748999
   6.1577539786    1.2006697257    2.8174574576
   4.0566886233    2.1517221069    2.3181524456
  -1.9268556416   17.0723393042   11.0389926683
   5.8658938727    0.7360161149    6.3651082844
  12.7190076279   14.7352446634    8.7253219695
  14.7187693933   16.9338322061   10.7422982908
   3.4188372507   15.2020573099   12.2280252895
  12.9887872014   18.0453368694    4.1116774207
   7.0254969903    2.0176886534   18.0162100116
   7.9698313021    3.9610956931   19.0707845119
   8.0669854673    3.0917581335   17.8291287840
   4.2475939044   14.8565763376   14.4736974460
  12.6855861553   17.7592629534   11.9521187082
  10.7222649514   14.4031098103    9.8858594968
   9.3286496769    2.1840300368   13.1576198763
  13.0530364177   16.3580351068    0.7532101658
  13.4511641538   12.6914279225    3.8478729575
  10.1257093335   13.7340920900   11.1168067461
   4.9574534086    2.9546456108    6.4406384368
   1.9319842548   12.4236144104   10.9951355841
   4.8410362445   16.0799026958   15.1068869581
   1.2741809273   18.3582263376    8.1735966575
  10.4362813354    2.3188140272   14.3433540587
  11.5146666899    3.3987562732   14.0491966565
   5.3152373523    4.4629217657    6.2585638924
   5.2798540204   18.2412907007   14.1298931911
   9.6390652988   11.7129897650    9.9999298514
  -1.2405032227   13.3547359097    8.1344686639
  15.8247543366   11.1634748657    8.3975581272
   0.3473802846   16.9580416434    6.6284464646
  -1.3868927865   10.1611149691    7.7223603247
   5.4737188687    6.2181561451   15.3421207912
  14.6907844405   14.6182460830    4.3388811608
  -0.6703667698   17.6572406876    5.7964503981
   3.6561530795   12.5310774995    9.2767791813
  16.5435874215   10.1975870818    5.3341595010
   3.6346659295    6.2740072310    5.5821447247
  11.7522200962    1.3910174662   18.3836684004
   1.9374207139    4.5552934861   13.0772740596
   9.7320379674   19.4822853769   18.5781708345
  16.1624923745   14.3331884058    4.4760257874
   6.8121855817    6.6783644286   15.9919902377
   3.7016422511   13.5302156630    8.1323194890
   8.1872513151    7.5089499555    4.6846709585
   0.3768702585   18.1431276591    3.7887329887
   7.1672386247    8.1810858224   15.6788812023
  10.1147969066    7.3748433118    9.6182599027
   1.0312212729    7.4323043010    2.6772381868
  12.9120462120    2.3329182612   18.6821257459
   1.8970230020    5.1838383325   10.6467472465
   1.0707356202    4.8481568674   11.8876524230
  10.7427934624    5.1753734756    3.2682940828
   9.4865801665    5.7139569794    3.7666098448
   8.8002128533   14.7730461906   17.4672265889
   9.2376608741    7.9021388393   10.8279238457
  12.7136986629    8.2446828621    4.0783158417
   8.7816539358   18.5466533287   11.8890030914
  -0.3204496418   12.7349748384    3.8871684882
  14.1601234616    5.7843120384    6.5826249309
   7.7712281245    8.2525561947   10.4614289031
  13.5269673717    9.4209175781    2.1304047161
  12.3665712733    5.3522351844    1.5117154247
   2.5844868813   13.9351329647    6.0704542078
  13.0736253514    7.6194714315    5.3769350540
  16.7556302308    7.0032150297    3.0422862224
   9.0114546911   17.3103860236   13.9334648968
   9.2896386388   12.7479664328   18.3485536458
  15.3120206993    7.6098385304   14.3460544909
  16.4112067943    7.5728347663   13.3719765118
  16.3872932559    6.0686399869    1.9018840593
  15.0128533143    2.6693463107   11.3356788490
   8.6492477355   11.5240193803   19.0493201246
  15.3445108054    4.1370355401   11.2136770508
  10.1362159820   18.0065472556   14.7446786829
  14.8612236276    4.8100797504    9.9346035738
  -1.4910702828    8.7826596529   12.5613068337
  11.8996289077    0.0549261636    7.0017938783
   2.9037098916    9.5902156588   15.9220853027
  -0.6609328346   10.4707724922    0.1429948476
   1.1422713878   12.7337983271   15.6155653907
  16.2419435035   12.2932305567    0.2848900335
   4.8353128570   10.0553450634    7.1609655085
   5.5476960070    9.5819867144    4.1670433298
   9.8278678048   16.5618630709    5.7044858582
   8.7337777758   17.4405696038    6.0206348465
   1.7557122046   11.5103838538   16.1226058698
   2.3080981537    0.0305181748   12.5231639222
   1.1352088855    0.7873948605   11.8283952119
   1.2276755674   17.5459841690   12.4796486450
   0.4876438686    1.1021726462    9.4417780601
   9.7769332952   10.3042126086    1.7023102675
   2.4581197161    9.8911353322    6.8978666220
   6.1763869357    9.6238312426    6.5560024577
  13.6330468167    0.5539376735   14.9081568673
  -0.1926397249    7.8149879587   18.3645250749
  16.5732821389    4.1489310625    0.6775892464
  -1.2601744360   12.2917828904   15.5830135749
  -0.0706984015   10.0336549157   19.3133981791
   9.5666307191   16.5344197173    3.1587827746
   9.0040845300    5.8565600897   13.5187805209
   6.7324480548    1.6028364934   16.8045112455
   8.9666572765    4.8787371704   19.0202368347
   8.9721921478    3.4633640374   12.7398388820
   7.5729891466    0.9548908183   18.6618670964
   9.2186204629    3.2622051252    0.7793693659
   5.8427743304    2.3690957623   18.6741130358
   6.8853463176    4.7604541435   19.2731852316
   8.2687221326    1.6049864832   13.7612636162
  11.8334502002    3.2977926081   12.8116295570
   9.8265980008    1.5625488130   12.1010635990
  12.6547611342    3.3405471792   14.7924898760
   4.3860817135    6.9837287046   15.8033921432
   5.2780894127    4.9871329882   15.8048948670
  11.0281656741    4.7751734024   14.2722678872
   5.3270515809    6.2030972101   13.9772216485
   2.7083739421    3.4005450293   12.9892416320
   8.5389402695   18.7186639891   18.1411936975
   2.8092202400    5.5819746437   13.3401358529
  11.4273237731    7.4978470487   10.0040783863
   1.0165585038    4.9071304803    9.6586230081
   7.5493172766    8.5087459156   14.3823777928
   8.2549454120    8.6087192634   16.5061585074
   1.1268098236    4.2221115387   14.1049237278
   9.8854659578    8.1524511354    8.5414907654
  11.0021363431   19.1383667917    0.4097822086
  14.1162198771    2.0274078605   18.1568809727
  10.7229653965   19.0666891965   17.7774061151
   3.0480417081    4.4646033629   10.5862328613
   9.9734267861    6.1149906991    9.2477994969
   7.1639292288    8.7829237132   11.5463572342
  13.9975515949    2.3773709180    0.6146056251
  12.7457295001    3.6623893220   18.2470345604
   6.0970469744    9.0009097470   15.9867073585
   2.3320795942    6.4084969904   10.5511762376
   7.0617774021    7.2916771125   10.0420878222
  15.4180557772    8.5684193092   15.2472773465
   7.6591651890    9.2208418737    9.4573256697
  13.7628469127    2.4915869171   11.0125936318
  14.0989718029    7.6870457152   13.6856078711
  15.2001519857    4.3295305097    8.7695934552
  15.7969268057    1.8623768029   10.5463187570
  15.2823073542    6.1237580285   10.0083365857
  15.3636994936    6.4095664715   14.9846288881
  -0.7224016565    8.3751672718   11.4503515631
  15.3482231877    2.1722919322   12.5199939457
  -0.8617936577    9.6895482195   13.2543307195
  13.4403702993    4.7288625943    9.9104364715
  15.5222963743    9.4125586321   11.9866139476
   0.7577933884    0.1196090317   18.6593501738
  13.8636173749   12.6355003922   16.2935227961
   1.9448079473    2.1458186919    4.3716695737
   6.0805534527    6.1918216079    2.1354317244
   5.5027229844   16.6466242752    8.0367593514
   9.1205180924   11.5096006816    7.2745512446
   6.2300452086    6.7484579846    0.4524286611
   4.6525394944    2.2949217993   16.1109800106
  16.6351035201    3.1450281683    5.9195982033
   0.3662137408    1.6916104020    1.8217533352
   0.9572280748   15.2546344041   18.4248460528
  -0.0390660685    0.6847266494    0.3406019689
   7.0980623967   13.6307134528    7.5347163853
  -0.3980057995    1.9508929344   17.6978041598
   0.8228654847    0.0675035028    1.8436866992
  12.0302221653   12.3558804746   12.2422378850
   0.1616741041   18.8306256266   17.0278764666
   7.1909832174   14.8320615673    6.1868531400
  13.1050416588   14.8206161115   14.9942377699
   5.0568696565   10.6237536793    0.5136792910
  13.7340577317   11.9076785523   11.9271983028
   2.9335426016    4.2184098203   18.7516063075
   2.8260867202    6.1001969410   18.8839971686
  11.9391074712   10.0933532128   17.3962037096
  11.8868248972    9.7672197322    7.3369003821
   1.5442724675    1.5341398305    5.9750043086
  -0.3686901900    2.3009486465    6.9455499708
  10.8368080611   13.2954550083    6.1774713754
   2.9355629627    1.9611701353   15.4061535039
   5.8305474413   19.3888526769    9.5489464522
  11.6826650809   14.1752463010   16.0652782427
  12.3474146411   10.7512733906   14.1151746581
   2.1801871442   14.0578133998   18.5043768639
   2.5690999665   15.5170521292   17.5181597082
  11.2972776285   15.3111357228   14.7697137231
   7.2022614389   16.8801925065    8.6819767800
   0.7194227352    3.4413958986   17.6054933562
   3.1207494117   16.5581247623    2.0437583767
  -0.8453251771    7.1495566185    6.9702592918
  13.9300313172   10.8795119147   16.4687132164
   2.0179352243    3.3251525587    5.6829697018
   6.0751573561   15.5849015974    9.3747822759
   8.6618849897   11.4035386992    5.6079919981
   3.6557983552   10.2681956716    1.4873699090
   7.3665037270   13.0086397932    5.7256137635
   2.7562169389    9.7396317579   19.2066156585
   4.3178269735    5.2284085367   18.3780499741
  13.1743390310   13.5934282029   11.9754877480
   3.0922321000    0.4006838032    0.3358579512
   4.2328840129    0.6129668473   15.5921921822
  -0.1401202892    3.1587664506   19.0530167725
   1.6039044889    0.7733908883   16.8036809899
  17.3444156087    1.6987978114    3.7154788105
  16.3600419689    2.2937365026    2.3378206049
  11.2509811658   10.0309863741   15.7726870110
   4.2694807435    7.8062040750    2.6443356420
   3.4357540611    7.2527164419    1.2025781570
   0.5922761831    7.3110899087    6.1007898352
   1.0326909756    4.3288243698    7.2932113752
   1.6772083554   16.5925656564    1.0227869086
  12.5519785453   11.3606875496    6.5285088312
   4.1343346321   18.7187658208   11.3876221563
  11.4231104502   11.5171907219    7.7241116288
  10.2662370149   10.7554870300   17.0478005147
   9.7529617696   13.3056337843    4.9184599866
  14.1312893489   10.6674801439   14.2503534578
   4.7713974450   18.4911768085    8.3816751861
   8.0963337193   13.8983407880    3.8021288460
  -0.6791281671    4.5829370287    7.6685087316
   0.4682190609    6.3790124397    7.7364493610
   7.0267172749   15.2112363472    1.7373161972
   6.2962440104    1.9435584379   11.3879148709
   1.7208591577   14.0612100302    1.2979204200
  13.5793932767   17.0771500664   17.4204253628
  14.3727899301   15.6958549764   16.5642429870
   4.6370825652   14.5546702187   19.0376988038
  15.3931773795   15.3107418882   12.7490024586
   8.7451082092   12.2445725098    3.2231583311
   4.4667537613    1.9007927001   11.1567064553
   3.0141941034   18.0674973406   10.2089699849
   5.9262349298   11.2976873661   17.5833542908
  -1.9289870636   13.7958382802   11.9486577409
  14.4729968443    0.7245783909    2.9711983020
  14.8906021711    1.8417358974    4.1941832473
   5.1153125857   16.5466858644    3.9244995264
   5.3839989005    0.6599922018    7.3272906818
   4.9512682541   19.1958287390    1.5658941950
   1.6603806276   15.2099604228    2.7644134133
   6.1875161286    1.5088804544    3.8789294185
   3.1229388430    1.8125936228    1.9700701185
  -1.6791403298   17.5631497989   11.9004880012
   2.8078200729   12.3400808025    3.7073541417
   2.6461895909   12.0712336609    1.9318925750
   6.9551486925   12.7064327812    3.5306168398
  13.1235085826   14.2043340920   17.9566667803
   5.0887398420    0.7548033276   12.0956509329
  13.8196523464   15.2113307039   19.1996203922
   6.4357243585   12.9790107675   17.2452640919
  12.3917724436   14.3871796179    7.7330623509
  14.3468543950   15.9777935343   11.1443690900
   5.8857573126   13.6536814713    1.7650793196
   2.7051003012   14.6999467010   11.5989647799
   5.7100969044   17.8601505738    5.0199056293
   4.4418593230   14.8528305814   12.0124083691
  13.7190262124   14.6606930229    8.8349546145
   4.4699621775    2.7970162567    1.4907580610
  -0.9101448176   15.0036925297   12.8547072047
   6.3824428759   14.6241472704   18.7227372496
   4.4198045119   12.4050807488    2.7755132633
   6.8955089553    0.3955172916    6.4055438964
   5.2512341809    0.2434116264    5.6474458755
   4.6768034196   12.4775328416   17.1831122639
   7.7115345339    3.6443112542   16.9518881411
  12.3044428847   18.4814756545   12.7266961718
   3.8720415946   14.2277911177   15.3077290103
   5.0536427150   14.3228500351   13.9669304703
  10.2454460613   14.2425475048    8.8158716431
   3.4519965899   16.1614534744   11.8162357842
   6.3970832659   17.7519193322    3.4230526377
   8.1462925986    0.4334077193    2.9032909575
  -1.5828458717   17.4753027469   10.0857563069
  13.3607713597   17.9660216821    3.1117662259
   6.5971783609    2.1561739056    2.3983938252
  11.9843535572   17.9330260263    3.9992348749
  13.2535876784   17.2104169251    4.8347433492
   4.0035175252    2.7169864427    3.3068779877
  12.5778000057   15.8255536805    8.5596704230
  14.6715484652   16.9465032312    9.6767901671
  10.5165151909   14.2532007982   11.9653973409
   1.2002000463   18.7637772949    9.1863831237
   2.0810998473   12.7494733082   11.9761536500
  12.6217895609   12.0126104976    4.1132751422
  14.3229526387   12.1155013395    3.6591801404
  11.8469583991   17.6074198460   11.2309682134
  12.1087712604   16.5067632431    1.2607819900
  13.8410720088   15.9772462933    1.3972887768
   0.8644421345   12.5865893169   10.9571758061
  12.7526692404   16.8085360152   12.5763113161
   2.0480069432   11.3036096680   10.8739604973
  13.2991280996   13.0732665587    2.7907874441
   4.1303238754    2.8237800678    5.7614305129
  10.5704632587   15.5251712281   10.1516263978
  16.1603833491   13.4983368353    7.3832212473
  10.0480175539   10.7133442640    9.9438734691
   4.7429510861    2.6294715216    7.4938545138
  13.3994537914   17.5089461460    0.4864400694
   5.8102572779    4.6681380357    5.3223202333
   5.9234288084    4.9398341737    7.0637911683
  15.0552763622   11.5276113881    7.6229572263
   5.4468270064   18.5781878910   13.1191646884
   1.3807940114   19.0569232264    7.2554177895
   2.1701406821   17.7100021915    8.1097119154
   9.0609030296   13.9765084685   11.2326690665
   5.5820398338   15.8586582466   15.9385539376
   4.0183746260   16.7058072581   15.5530112417
  -0.4456005235   12.9894343626    7.5299349087
  -0.4946573153   10.8174202594    7.3793146034
  11.0962869944    1.4297191836   14.2790455176
  14.4991269366   14.8613318912    3.1960208569
   5.9621109140   18.7224920914   14.9097410757
   9.8052447721   12.1617127913    9.0185870223
  16.1895106737   11.2211529108    5.1283811104
   4.2386321889   18.5913914513   14.3914594177
  -0.6960099981   18.7309049728    5.8743338217
  -1.7450425946   17.2962712367    6.0231294798
   8.6170139060   11.6987335464   10.2340859490
   3.4523390434   11.4565320622    8.9084712913
  -0.9721646151   14.2813370421    8.7212750858
  14.5487430286   15.6136337930    4.7942974730
   4.6548202400   12.4357432821    9.7473799494
   1.4408240445   17.1234365731    6.4290484268
  10.9487867370    1.6224531787   19.1763015359
  15.1470375482   10.5611844673    9.0544908249
   0.1803435074   15.9090976000    6.6365533062
  16.2231922951    9.6380521202    4.5363996518
   2.7298307684    6.1490151007    5.0383820444
   8.2107460188    8.6355674440    4.8520741726
   4.4465855731    6.5540586325    4.8924669593
  -1.1668298639    9.4490872931    8.5102450170
  -1.8908324129   14.0578709406    5.5115326019
   1.2298257368    7.1203225717    3.7348162968
  -0.5828629990   10.2442741811    5.4682756695
   0.7792247818   17.5671676533    3.0020455103
   1.2514768806   18.4497550485    4.4092604656
   3.7826758692   14.5510997712    8.3557350047
   1.2828367751    6.6664510842    1.9313585180
  -1.4991724923   15.2968560466    4.2781237760
   4.6093413562   13.4079626279    7.4519418268
  11.6609658985    5.3970602848    3.9205973097
   6.6391063052    6.7235268090   17.1572588408
   3.6492310565    7.1355759544    6.1669618626
   1.5502065555    8.3815128631    2.4152772691
   7.3535355331    7.1373007998    4.0667015269
   8.5110321805   15.7649660746   17.7784982006
  10.6420304162    4.0709523003    3.1906704852
   7.9986993777    7.1718506378    5.7386712753
   0.5804148596    3.8720491696   11.6750267487
   7.8402305852   18.8128001975   12.4276620191
  12.0939719484    9.1416003079    4.6170674800
   7.9963259352   14.4859443898   16.6988812655
  13.2547220683    5.1397645786    6.8782602386
  12.1386496778    7.5108907553    3.4847212390
   9.5601390940   19.3094484777   12.0637408414
  -0.2303329955   19.0241242626    3.4130340444
  14.5258531580    9.3325896395    1.6242463648
  13.0550961546    5.8875559194    2.1856482078
   8.7142493846    5.5518769470    2.9067078117
  -0.2203700919   12.2966124088    4.9422240636
  13.2928141859   10.4736046831    1.8781019720
  12.7206633745    4.3099006190    1.4211231452
   9.6478969051   14.8942740797   16.7623567153
   9.1120280876    5.0173715780    4.5641397745
   8.5245896686   18.3162263706   10.8113367671
   2.4322401263   15.0650383873    6.0663963786
   0.3022074383   13.5068300984    3.6540810719
   9.6588771037    8.8960211698   11.0592840345
  14.4452585500    6.5533628706    7.3399689840
  -0.1764413004   11.9658347493    3.1059379846
  16.0068384188    7.7863004663    3.3890865941
   3.5517130420   13.8161255783    5.5417679940
  14.9733160938    5.1575351007    6.3687498253
   8.0420265807   17.8058935543   14.1239834397
  16.9014517785    6.3657685941    3.9194760126
  12.1078737339    7.4493589592    5.8787503171
  12.8110845116    8.8931378059    1.4667418639
   1.8106762923   13.5813334616    5.3314809277
  13.6944284645    8.3020477406    6.0768970593
  12.7332035470    5.8156181077    0.6230305225
   9.1655376833   12.4168723484   17.3063877544
  -0.8874916501    7.1694789948   13.8801275440
   8.4642104801   10.7263881165   18.3778541321
   9.0787388333   16.3231702625   14.3479023426
  10.4154404607   12.6630651592   18.4407803927
  15.5064545650    5.6815111269    2.1712281224
  11.1033737153   17.5203829781   14.7087340075
  16.2012343275    6.6051720753    0.9409009913
   8.5629375437   11.8275516192    0.0790322880
   2.0987211725    9.0516406213   16.4043154206
   0.8944516418   13.3085526133   16.4948074871
  10.7316678502   17.1658355308    5.6257633249
  11.2547947955    0.6635030084    6.3054297424
   4.9347583362   10.1573133331    8.2506310110
   5.8011331983   10.1076483864    3.3181987950
  11.8720552474    0.5715932902    7.9962560607
  16.7704043540    9.8011840630    0.7949802342
  -2.0368940266   10.4687085383   18.5481454589
  14.7596425990    4.5810326723   11.9907046542
  15.9360934210   13.2991093425    0.7318233249
  15.2999538580   12.2966793147   18.6092891555
   0.1434107724    0.2331050989   11.7925464065
   3.1780735159    0.6271139992   12.5658312770
   0.6111040443   17.1857547503   13.3779432520
  -0.2964015555    0.5913553696   10.0428257419
   9.8542838574   18.0958383437   15.8732828193
   4.6281397257   11.0366485857    6.7390537559
  -2.1170254734   12.3821306778   14.9146338591
   8.5500658530   16.6577603555    2.8507558916
   2.0394241165   10.3191921651    7.9171336766
   3.5451158551    8.8708332346   15.3260808413
   8.3913457956   18.2302019477    5.2803618395
   0.6211386786    7.1546781524   18.8036302625
   1.8431125158   13.5050245031   15.1393565364
  10.5334525847    9.8820238520    2.4226222940
   2.6958092211   10.8226164044    6.2979082367
  11.7070918443   19.3700271587   15.5674811973
   5.9016676449    8.6249952991    3.9915594727
   2.6113992426   11.8900823055   16.6966363705
   2.1395114452   18.0544130835   12.9618450958
   0.9656468258    0.4365289076    8.6861836072
   9.9682159949   15.7692274668    6.3882826863
  -1.3073732011   11.2468599377   15.9020550667
  15.4906913403    4.3539667596    0.4439713984
   3.5717726690   10.1094910813   16.7809763689
  15.5016567925   11.6239644840    0.6879502405
  12.9266967137    0.0102849917    6.6036231679
   4.5621263379    9.8596376405    4.4121448597
   9.1668081415    9.4961765820    1.3774929587
  16.0478359899    4.5179314972   19.1599826686
   6.9974186666   10.0410047960    7.2101547728
  14.4285463388    0.8572220921   14.2397200769
  -0.4066804505    7.4745543624   17.2950270618
  10.0930759031   17.4700479417    3.0824545403
  -1.0822523771    7.6341394546   19.0129830869
  -0.3993503405   19.2672576642   13.4439468524
   0.9357137297    1.6065865072   12.4935940870
   1.6490563222   16.8879138701   11.7634012887
   0.0529900819    1.9598257670    8.9407920600
   1.2418860388    9.6383860785    0.8427036637
  16.7996664367    3.0837673208    0.9365459378
   0.6317015040   10.9072997275   18.9513132944
   1.0034382476   11.0293356803   16.7165250545
  13.2083094876    1.4536508321   15.4895369898
  10.1446379664   15.7085883638    2.5698202765
   1.8609731826    9.0671131053    6.5410756957
   7.8926403789   16.7828567057    6.3829471773
   6.4233798095    8.4790786947    6.6494081533
   9.0333900334   10.8731077857    2.2468793282
  -1.3612337981   13.0415530932   16.4413765009
   5.1142516872    8.7792462483    1.0568960492
   8.9450582661   13.8747161000    6.8563040770
  13.4549049682   12.6088748951   13.8448432256
   3.5898986796    1.0471948513   17.4166428642
   1.5718958000    2.0241421065   18.8964452709
  -0.0366374314    5.4288808424    5.9998881320
   4.7989916456    5.2075992603    0.9783667862
   0.1530860850    2.7848683950    5.0469585578
  10.5392585473   10.7388311422    6.0059102939
   5.5769377024   17.3397241835   10.0073800488
  17.0074859839    0.2267351663    2.1154592907
  12.0568275487   11.9114984553   16.5834441978
   3.4606840835   15.9151696876    0.1196077944
  12.3603151240   16.1607560787   16.1771264719
   5.5272239152    0.6053134280    9.9933132763
   3.4201062062   14.1116401062    2.4105567374
   7.9102552157   13.3082822424    1.7339961845
  13.2249522316   19.4201683199    4.6196623340
   5.5204302526   12.6719804287   19.0293095955
  -1.5175747165   15.7065264366   11.0899961779
   4.4699604376   18.4764694860    3.5599669847
   4.8430811930    0.9712656586    2.3466355997
  11.8715038005   15.5554065573   19.0147562253
   6.1701229906    2.1440620997    6.1341305475
  13.9298553921   17.9885020986   11.3707809505
  12.0807094342   14.0030328762    9.8132533114
   3.0678706869   15.0968832853   13.6865058734
   5.3982026221   16.8110246286   14.0477489895
   9.7408051558    2.4543585950   15.5489339199
   9.4537139823    2.7020839101   17.9129509817
   0.1192608311   17.5069046057    7.9762236081
  10.2782524210   12.3202248444   11.1178985254
  13.6263153619   13.7414219147    4.7783009933
   2.5969918160   13.1167364982   10.0126920181
  -1.5974129399   12.2252013537    9.0280772028
  16.1047625533    9.6339144729    6.5840379815
  11.2748812777    1.6049074426   17.1028602317
   3.9282577841    5.1007641745    6.3157471082
  -0.4583195826   17.1557431036    4.4968856264
   9.4700645652    7.0068272361    4.2272158185
   7.7595487269    5.7699582938   15.4908738742
  -1.6736250868   13.1688212848    3.6285753580
   2.4273630029   13.3574656012    7.2431144289
   9.1251099272    6.9647826933   11.8275833036
  13.9799251705    6.4689000870    5.3568315257
  -0.3325435132    7.8585950760    2.7015509376
   0.2346785106    5.9471907634   12.1975590901
   8.7668057668   13.9951110937   18.5786031329
  11.0733000573    5.6879848261    1.9396625733
  13.7695511799    8.9159128757    3.4416291957
   9.2514757157   17.3375316339   12.5491707960
  16.7055228305    4.4788735952   11.4233103195
  16.0206092567    6.5180114724   12.4896708818
  17.1878837321    4.8905173248    1.7622611107
   2.3784609222   10.7093188752   15.2110044534
  10.4315730783   19.3479178369   14.0761139783
   6.3685311075   10.1706900459    5.2183938196
   9.1296340955   18.2428767389    7.1759098460
  10.3914299223   11.0083396444    0.6794418472
   0.1049352603    9.2339410945   18.1988799936
   0.4380702243   18.4580745585   11.8081363535
   1.4092671590    1.5313146465   10.5322042263
  -0.7208404916   11.7813903774    0.7298982583
   9.5826748269   15.8113280239    4.4527313698
  -0.0101466933   12.6075307629   14.8298726462
   3.7079363942    9.2439317608    6.9208117295
