B2 C140 Ca1 F48 H298 O66 
1.0
1.7926512294559540e+01 3.9752281762420574e-16 1.2747310811404180e-16 
-2.4811394638803974e+00 1.9476557305340272e+01 2.3720704632602637e-16 
-1.0814904848411679e+00 8.0244595976947375e-01 1.9453879061687740e+01 
B C Ca F H O 
2 140 1 48 298 66 
Cartesian
   9.7809815203    2.9332559317   16.8707549364
  -1.2943954308    6.0483575097   12.0801324715
   0.1118874232    0.7873622391    1.7771980815
   7.1515495679   13.9063304026    6.6291023288
   5.1445730834    6.2256052344    1.3161847078
  12.3656473219   12.6407559831   12.6665476850
   3.5441618008    2.3005871968   15.5466152225
   1.6195480037    1.8615327856   18.4286442509
   1.3408854539    2.7949203761    5.4031233317
   2.0000557887    1.4475801112   17.0099844327
  -0.6912434131    3.9193103023    5.9791382049
   3.1166691777    5.9217723981   18.8061260180
   1.7584683806   16.1796318396   18.7913927467
   0.2260826914    3.7076970433   17.7758745422
  11.8769433787   15.6937662059   15.2700981537
   4.4533547535    9.7970134869    0.6526316799
   6.4292278680   17.1897157552    9.1035281533
  12.6105894801   11.8543601046   16.0669806843
   9.7509201494   11.8862728803    6.2712542929
   9.4695118858   13.4486617822    6.1790547750
  12.9648474121   11.5892633997   14.6386866066
   4.2188500558    7.4813884791    1.4139018934
  10.8122506417   10.4793014034   16.7421409150
  12.0329212497   11.4758243823    6.8067020055
   0.0274443493    4.8134939739    6.9635308476
   0.3322722808    7.2335847960    6.6879515076
   4.7363588977   18.8090685247    9.7063745763
   2.5605051092   16.2664468362    1.6434619091
  16.3209813171    1.5749469868    3.1821263265
   3.6587651253   19.1489845185   10.7553180906
   2.0766932963   14.9608161098    2.1492141455
  13.1035062153   16.6901851739   17.0174419347
   5.2842377127    1.8217242683   10.9003422214
   7.5784138929   13.7720038237    3.0565345097
  14.9686419679    1.2173351975    3.9006370006
   6.4351931331   14.2856304101    1.0068624697
   5.3441838303   14.7884255164   18.9819692039
  -2.1584653085   15.5239537627   12.2908120163
   2.6012894620   12.5651452120    2.4556118845
  12.6906379780   15.6913433856   18.0393565684
   5.4894529365   13.1247841246   17.2212112505
   5.4421928341   17.8931210737    3.5077226344
   7.1448628572    0.5598407149    2.4044857344
   6.0852951858    1.5223714498    2.8149740218
   3.7219161193    1.6912048182    2.4541725557
  -2.3914541180   17.2861238781   10.7995065599
   6.3240014473    1.0559266102    6.1605942830
  12.1627627393   15.2080646112    8.7842419214
  13.9896816341   17.4737759653   10.6925440302
   3.5995851173   15.5128547111   12.2320488594
  13.1195285145   18.3124897873    4.1493509889
   6.6673400540    2.2738537626   18.3186842675
   7.4079137857    4.5461661203   19.2216561043
   7.5576149740    3.5139782146   17.9914862758
   3.8709184874   15.3296187021   14.6404770615
  12.0445723938   18.2710348602   11.7903622493
  10.1525824507   14.7973292531   10.1085010742
   9.0531090668    2.8411047220   13.1385991043
  12.5091147761   15.8869907909    0.4648307504
  12.7049369462   13.1104951021    3.4293718311
   9.3346736001   14.0364800282   11.1074740279
   5.0836072020    3.1982413320    6.6286330620
   1.7629472991   12.7515335204   10.8043996810
   3.8722963267   16.8244846009   15.0586278074
   0.9539118880   18.5788704142    8.1463590546
  10.0273711362    3.0699697751   14.2974703692
  11.0439733565    4.1911067214   14.0322126979
   5.3169309082    4.7425107615    6.5127094634
   4.6459188958   18.9846327145   14.4866969007
   9.1516982352   11.8591566131   10.0840200424
  -1.1711641603   13.3251996783    8.5545165510
  15.3491173173   11.4284043264    8.4656996791
  -0.0599201005   17.0286789395    6.7033977997
  -1.5184489771   10.4862669850    7.9852797239
   5.2555779599    6.7518487138   15.7561802502
  14.0808476013   14.7281407408    4.4381716294
  -1.0230938627   17.8548972850    5.8857893774
   3.1654294850   13.6271130107    9.0608081753
  15.5955316135    9.9461915831    5.6715382406
   3.9259709680    6.3604830076    5.4420411429
  11.5227542320    2.1984441126   18.3475967813
   1.8007177267    5.0351791572   13.3330605784
   9.2998233261   20.1903354676   18.4912372099
  15.3793009489   14.0036514933    4.5193502646
   6.7562295667    7.1587313785   16.1200615588
   3.2074796996   14.2238815262    7.7201624788
   7.6332577497    7.4688792727    4.3393533270
   0.1577530846   18.2555428290    3.8028795363
   6.7828456503    8.8228183227   15.8772705995
   9.7292992764    7.7788420653    9.4475798300
   0.5537176046    8.0967415962    3.0372580723
  12.6963079206    3.1548310410   18.8078752529
   1.8955447224    5.6999827904   10.7886282806
   1.0426284595    5.1811871235   12.0282837964
  10.7202249047    5.5059255137    3.2786494705
   9.2480089226    5.7016477763    3.7810059761
   8.4773535070   15.5212662158   17.4122000146
   8.8799135097    8.3771631273   10.6043838161
  12.2214361661    8.5081042457    4.1275028038
   8.8876304672   18.2388544314   11.3281395495
  -0.7041741048   13.0668024673    3.4256641292
  14.1775917953    6.5692758236    6.4726126730
   7.4340167972    8.5830493622   10.1258599678
  13.4814374261    9.5383497151    2.2257472000
  12.1320574391    5.9059092986    1.3195528720
   2.7828806067   14.1959258465    5.3887887203
  12.5513976991    7.9663230504    5.4948111206
  16.1479982413    7.2057935354    3.3028206414
   8.5274952472   18.0844428813   13.7253136215
   8.9201251237   13.1741926438   18.0286702628
  14.8900957746    8.0262862436   14.6514179900
  15.8756573940    8.0274930702   13.5045593680
  15.8479073566    6.5223262752    1.9789718682
  14.9265728394    2.9672339112   11.0473273489
   8.6533377489   12.1377268839   19.0285120493
  14.9003893533    4.4757518554   11.1936487961
   9.4222264548   18.6079754621   14.8624165343
  14.2089930925    5.3030065363    9.9675151398
  15.7926076774    9.4166253003   12.6873794899
  11.4357646004    0.4611512557    6.8282006701
   2.4810459332   10.0279104484   16.1779416812
  -0.6762715231   10.1979033231    0.1303700248
   0.7712531435   13.2263154758   15.4389778075
  15.9609654816   12.0938551495    0.5176539900
   4.8983387563   10.5528952600    7.5260253862
   5.0949392504   10.2739940789    4.5076896263
   9.2034968730   16.9208760312    5.7300475023
   8.1614211493   17.8826408108    6.2034275576
   1.2828141667   12.0662408055   16.1932569182
   2.2927425822    0.5511773450   12.8011857619
   1.0379911033    1.1765997640   12.1440523980
   0.6814630876   17.8878189731   12.3488590740
   0.6313821003    1.5120287321    9.7044546556
   9.7344430091   10.7213342424    1.8640761274
   2.5545850800   10.0835288400    7.7582401372
   6.0238165214    9.9254548910    6.6761544511
  13.2745352296    1.1430349909   14.6018378078
  -0.4392045202    8.3887020513   18.4863098456
  16.8255235294    4.6853169532    0.6231365638
  -1.6113552320   13.3211669279   15.3179667338
  -0.3566899004   10.7095388040   19.2111638188
   9.5140550610   16.9502143728    3.4707097517
   8.5310546474    6.4128191544   13.2460660192
   6.3299886966    1.6262540714   17.1772786465
   8.3504509024    5.5897484891   19.0052889009
   8.7392025855    4.1136595173   12.5099933371
   7.3053243334    1.4006829699   19.1107689062
   8.6989824644    3.3344419274    1.0377586999
   5.4380962149    2.7222923620   18.8944218368
   6.2863171947    5.2736884529   19.2715440100
   7.8584088619    2.3459456360   13.5310641033
  11.5185050891    4.1358658148   12.7565577964
   9.6653570274    1.9712972696   12.2199838622
  12.0412375018    4.2258907032   15.0049316979
   4.2105643805    7.3763489788   16.4165923834
   5.1507987929    5.4293797117   16.1596522793
  10.4570978877    5.4650902111   14.1395563456
   5.0304779741    6.7770686737   14.3947882363
   2.6463773439    3.9985789314   13.4633079206
   8.1688664666   19.4816950110   18.1311856271
   2.5631667993    6.1307411799   13.6047719998
  10.9823625510    7.8402701199    9.9491842494
   1.0888720239    5.4207446651    9.7027185403
   7.0345534624    9.2207863480   14.5138287221
   7.8810326767    9.3509208274   16.5626105363
   0.8462449457    4.8970293899   14.2774552401
   9.8554080728    8.3294845359    8.2543259861
  10.4929669772   19.1901813773    0.4071209775
  13.8159275919    3.1287081823   17.9527926764
  10.2971431099   19.6415212317   17.7103177950
   2.9724944300    4.9517999049   10.4720878423
   9.2508738231    6.4565764823    9.3245842391
   6.6780598354    9.1404924181   11.1462118670
  14.1812172184    2.0425024470    0.6052834375
  12.2099026444    4.4419890083   18.7976481371
   5.7079413415    9.5101925944   16.2471140156
   2.2916350028    7.0097236843   10.7595198359
   6.7557330690    7.5513671157    9.5122915239
  15.1591586769    9.0313841206   15.5140296429
   7.4757792838    9.5580661380    9.1462452686
  13.7203785252    2.4600180234   10.8434573280
  13.6272455626    8.2654167830   14.1885552477
  14.8018610916    4.7494850340    8.8227499586
  15.6313842726    2.6486334407   10.0050682165
  14.5457776059    6.6227573728   10.0224964546
  14.9261977207    6.8565175116   15.3450222849
  -1.6513704561    9.1737546449   11.4135928126
  15.3222070093    2.4381259235   12.1951824278
  -1.3196832450   10.3709433090   13.1781262919
  12.8720123949    5.2355872684   10.0990748395
  14.6042513261    9.9946776379   12.5924398624
   0.7284768650    1.2399733802   18.6270766185
  12.9468476755   12.8337678858   16.3324404790
   1.7848746656    2.1171240038    4.5919416928
   5.3594908216    6.0067965346    2.3473598592
   6.0669188443   16.7758437223    8.1367172846
   9.6603315253   11.5798375570    7.3599693391
   5.9438960563    6.5253011223    0.6724656551
   4.5226585700    2.8791685855   15.5638849864
  16.3618193942    4.3522293494    5.4353249075
   0.3850501518    1.7210531337    1.2528743308
   0.6583348866   16.3470674465   18.7192773767
  -2.1457705144   19.3382921421    1.2009593821
   6.7810850265   14.8855658639    6.9151436393
  -0.3314913894    2.6980774880   17.6169180964
   0.5612449732    0.5035266934    2.6490908133
  11.3340893422   12.3501348591   12.3841225105
  -0.8183410753   19.8162748510   16.7578099374
   7.2902185387   13.9139708512    5.4793535532
  12.8275802815   15.5171070146   14.7207784002
   5.2867527228   10.4341207692    0.4892346151
  13.0296741012   11.9979825500   12.0780898230
   3.1335823180    4.8539698486   18.3353904205
   2.1438442732    6.4105947898   18.6922262853
  10.8786846561   10.1077206768   17.8639842420
  11.7458135597   10.6756437894    7.5494899655
   1.1780395817    2.1487600911    6.2896480281
  16.9510141765    3.0254817930    6.6670380198
  10.3883807966   13.8019089511    6.4962160925
   2.8199544041    3.0514431172   15.3374836920
   5.3837530495   19.6859455554    9.5169330325
  11.5513422082   14.7737033420   15.9422658471
  12.4103894866   10.7227339519   14.2824838934
   2.1205270157   15.1408191670   18.9458284585
   2.3303670881   16.5621170372   17.9413714647
  11.0333652828   15.7530508895   14.6551557736
   6.9320113462   18.1186909792    8.9611550513
   0.6585767892    4.1587008334   16.9155677999
   3.3332082551   16.8703182121    2.2419753787
  -0.7643436945    7.3740161630    6.9126610909
  13.0146160624   11.0928113238   16.7845789795
   2.1880636084    3.4149473281    5.6291831663
   7.2148399661   16.5610399559    9.6880737144
   9.0678046880   11.1833795810    5.7015929895
   3.6644529456   10.3596422144    1.1904610923
   6.6410471369   13.0246151017    6.9022648341
   3.0315194819   10.2310344702   19.1628183903
   3.8436223489    6.6104760578   18.4925036957
  12.2084569157   13.6779748656   12.2375740766
   2.5503981903    1.8599873682   19.1429980812
   3.5262474120    1.6686757211   14.6828828647
  -0.4754233364    4.4066093803   18.1850155840
   1.4587844988    1.8426804489   16.1124343635
  17.0351758816    1.3071187618    3.9634419212
  16.5569927164    2.6623454754    2.9426872156
  11.4363848650    9.7379294535   16.1977531773
   3.5811087043    7.4327606915    2.3203980986
   3.5902224038    7.5265548740    0.5739844865
   0.4343935858    8.0067322960    5.7923117325
   0.8580634085    4.3519776037    7.4987861733
   1.7118094377   17.0506375117    1.4774274420
  12.9443634319   11.2505896916    6.2925313248
   4.1612562743   19.5865359158   11.5933215078
  12.1137170387   12.5447338609    7.2633072367
   9.8238685455   10.3589425438   16.3535304397
   9.4876173402   13.8270270711    5.1916818417
  14.0232401878   11.3928364600   14.6244538936
   4.1990324364   18.5926677780    8.7889892977
   7.2730018948   14.8250190605    3.3130470754
  -0.8412076422    5.0281578146    7.6617691017
   1.0521226629    7.5263152538    7.5121159927
   6.5655599746   15.3498043844    1.0491125321
   6.2667425024    2.3017650773   10.9466084563
   1.3301439643   14.6356769795    1.3617902786
  13.1860216157   17.6425955558   17.7122551925
  14.0498359255   16.4486393592   16.5516728699
   4.5893603887   15.2731171960   18.3793530032
  14.7246500703   15.4432303880   12.7171460752
   8.6480539087   13.8577674853    3.3090000978
   4.5273399679    2.4967898621   10.4173827336
   3.1427717787   18.2861716644   11.2040173107
   5.4519986182   12.0639123659   17.1909969470
  -1.6993739150   14.5107038426   12.1981874004
  14.0483316097    0.9128162926    3.3183576185
  14.7333929060    2.0192413599    4.7402260121
   4.9676537761   17.0696288923    4.0269311848
   6.8856692971    0.5689997474    6.9639393113
   7.0673073218    0.5040133969    1.3019496125
   1.4825150284   15.1147226556    3.1182212708
   5.9445686371    1.5524290779    3.8654804702
   2.9136564043    1.3402899151    1.8079640590
  -2.0630339537   17.8270138118   11.7772271983
   1.6806174121   12.6406425939    3.1799842304
   2.1241936837   12.2862235880    1.4455384474
   7.2224139467   13.0172155399    3.7671570251
  12.5256930647   14.6805835258   17.6511548839
   4.8664992039    1.7118560312   11.9017163102
  13.4736219052   15.6639305267   18.8806973831
   6.3723791001   13.5177521902   16.7897975109
  11.9797489726   14.5793091062    7.8618332294
  13.4108073454   16.6169933505   10.9761836743
   5.4740755881   14.0283019756    1.4975997674
   2.6395488966   15.8051697894   11.7013095233
   5.8029632995   18.4258034552    4.3935056635
   3.9270449952   14.5375009785   11.8713545570
  13.2345091829   15.4093254378    8.8996744505
   3.9025561232    2.7275208715    2.1759620444
  -1.4975535767   16.0579890639   12.9240422034
   6.3241483847   15.1413830473   18.6383632688
   3.4542698777   11.9041368826    2.7625614323
   6.8538150029    0.7667325526    5.2069111900
   5.3683727543    0.4877437105    6.2560339630
   4.6090138337   13.5333371162   16.6896411639
   7.2057645029    4.0329549603   17.0455483946
  11.7135269086   18.9975457999   12.5675118657
   3.2900292939   14.7566268046   15.4185473367
   4.8753656054   14.9396709043   14.5348377207
   9.8468868137   14.3745741120    9.1122452174
   4.3811378322   16.3738374226   12.2894110007
   6.2224536937   17.6208078050    2.7527290091
   8.1290603296    0.8944484038    2.7998137957
  -1.9815200916   17.6055760462    9.7955290087
  14.2242859894   18.1602382070    4.1860233620
   6.4193275032    2.5530086413    2.5420469194
  12.9027511380   18.1354761234    3.0082985324
  12.5303877560   17.7022099777    4.9166222557
   3.3788857303    1.5241049104    3.5196380479
  11.8174957021   16.2234892287    8.4616885243
  13.6030210092   17.9527974422    9.7708877201
   9.4681436521   14.1998968761   12.2774548507
   1.4391297496   18.5184957288    9.1116481187
   2.7311453637   12.3693732895   11.1278739864
  11.6615388412   12.5927448703    3.3654480571
  13.5516165980   12.3651607846    3.4484948064
  11.3742397026   18.3545704863   10.9938867024
  11.9747193016   16.7971697465    0.6135242620
  11.9813255432   15.2119215195    1.3073603307
   1.4649845553   13.4891767106   11.5873297665
  11.9590361757   17.1697986086   12.2468242352
   0.9570344898   12.0581119676   10.6619482219
  12.8474198630   13.7209911491    2.4916331290
   4.1819448723    2.9511797391    6.0861084297
   9.9759867285   15.8756737610   10.0742412695
  -1.7305815602   13.6891818194    7.6526703640
   9.9181946333   11.1634721482    9.8050813739
   4.8439917238    3.0651537575    7.7257599017
  13.5401645973   15.9294797438    0.7206047932
   5.8744211788    4.9663744284    5.5144123976
   6.0684816259    5.1650091797    7.2567608081
  14.7827343346   11.9019290525    7.6588061789
   4.8145852218   19.5493033304   13.6466593022
   0.5954379778   19.6799299076    7.9634928091
   1.8006026725   18.5034123082    7.4075877289
   8.3281589587   14.2666802292   10.7890399045
   4.3113733390   16.9691741153   16.0610581560
   2.8448410518   17.2040054149   15.2623443428
  -0.2561707117   12.8080718616    8.1885681389
  -0.6914092584   11.0798855573    7.5387235813
  10.7506185033    2.1831718121   14.3062644048
  13.9523341780   15.3101064685    3.5064519175
   5.4102852225   19.2195490673   15.2104595908
   8.8909967657   12.5992622016    9.2298167897
  15.1659770128   10.9452341304    5.6498627155
   3.7642577478   19.4085484315   14.9839931903
  -0.9072812585   18.8690806656    6.2773132462
  -2.0692218616   17.6155333234    6.0397988619
   8.1797460477   11.3404269361   10.2524637072
   3.6405578084   12.5970984898    9.1012705642
  -0.9076678047   14.0415180493    9.3680556500
  14.0486802149   15.4485970639    5.2965500447
   3.8625257390   14.2520618037    9.7504988393
   0.9005230391   17.0891901638    6.1083731818
  10.7942577785    2.4108612021   19.1794695305
  14.5700065143   10.9838671365    9.1039168020
  -0.3546058202   15.8898023067    6.6498617246
  14.8843981022    9.3509645050    5.3094080418
   3.2929139193    5.8084066898    4.6145142956
   7.7006064559    8.5573169221    4.5663309824
   4.8257324816    6.7792167541    5.0372644204
  -1.1415176846    9.8864149524    8.7860199668
  15.3926562665   13.4376096636    5.4447128814
   1.0094864985    7.3104078149    3.6877757440
  -1.3962473017   10.0400719658    5.0588814799
  -0.1029216946   18.2369713920    2.7649688575
   1.1589108508   17.6630859443    3.7483330293
   2.8874496819   15.3585310445    7.6805079953
   0.7489056745    7.8345553664    1.9009292849
  -1.7469254213   14.7226989077    4.5739944742
   4.2073914865   14.1829522435    7.4916661321
  11.4043963026    5.7742957922    4.0689968957
   6.9882885614    7.2109189523   17.2413509617
   3.3040337155    7.2690261184    5.7366753397
   0.9845805505    9.0910396457    3.3123649236
   7.1005541319    7.1883581891    3.4258322178
   7.7073595668   16.4283918589   17.7033430090
  10.9523512483    4.4452653895    3.0757250212
   7.2338393927    6.8463284818    5.1459554147
   0.5648814754    4.2351801001   11.7839630810
   7.7878636568   18.1020611398   11.1684845895
  11.2997806278    9.0241998310    4.1884861365
   8.6455351391   15.3250082853   16.3166879415
  13.6477080666    6.3592863848    7.3832405633
  12.1012033420    7.7021296367    3.3923155001
   9.0453185579   19.2716295708   11.3035072344
   0.3358246008   19.3163633491    4.0554654448
  13.8294660030   10.5715783369    1.9914418961
  13.0421384171    6.1693007013    1.8077026114
   8.6820888567    5.3289203949    2.9686785837
  -0.3468182466   12.3185261962    4.0805782558
  12.3911101984    9.6500787494    1.7986304830
  12.0264973376    4.8877144649    0.9919653194
   9.5039183287   15.7661513229   17.7337136340
   9.0908490356    5.1608011938    4.7708891000
   9.3717327936   17.6839626228   10.5728183964
   2.7143159660   15.3729722581    5.5985713305
  -0.2157231406   14.0387679799    3.5538630587
   9.2888492332    9.3421146730   10.7982482417
  15.0696811787    7.2656012801    6.5958982158
  -0.6631018253   12.8476217311    2.2839656060
  15.2699204999    7.5128134852    3.7993841959
   3.8043808046   13.9983308867    5.0687479258
  14.7821233117    5.6491311465    6.1931968962
   7.7531423970   18.7926678375   13.4043382869
  16.5757457123    6.5163832110    4.0878670102
  11.5175478738    7.5553222960    5.8326533159
  14.0791861485    8.7724673071    1.8384598000
   2.0632169803   13.7595282238    4.8053913296
  12.8411673646    8.6780469851    6.2120965971
  12.0943848222    6.5819803814    0.5025726548
   8.7524623382   12.9008200719   17.0021402892
  -1.0521817047    7.9276091186   13.9266926017
   9.0810204986   11.1637291082   18.7214182574
   7.9745721176   17.1751575487   14.1933331982
   9.9664581498   13.4815628797   18.1716928184
  14.7821269211    6.2638345533    2.0231964406
  10.4466373064   18.2533867723   14.9825182828
  15.9476403434    7.1807742231    1.0982250979
   7.5852724475   12.0781583879   19.2208578078
   1.6965213989    9.7828809290   17.0780941353
   0.6764021224   14.0196806362   16.1139216559
  10.2291224425   17.4489263144    5.6646029102
  10.8387041301    0.8968099693    5.9614109975
   5.2270315840   10.5777694651    8.5560300986
   4.4648693621   11.2191070983    4.7301756837
  11.1017401333    1.1934483010    7.6278306434
  -1.1323542578    9.6617771549    0.9674960029
  15.4912970547   10.8210321134   18.6991398525
  14.4264064154    4.7957082625   12.1750685883
  15.9902225510   13.1729605172    0.8011179713
  14.4107633877   12.7908549789   18.8411241096
  -2.2324625982   19.9221262109   11.8614776523
   2.9869852859    1.4359607771   12.9270899409
  -0.0427237246   17.5798915372   13.1603644691
  -0.2462143991    0.8304799585    9.7691736672
   9.0941747700   18.6605478183   15.9381978224
   4.6268860154   11.5449722880    7.1315948729
  15.4619555977   12.9766718994   14.7123695962
   9.2954088929   18.0751850142    3.6527355274
   2.5953308759   10.0011631964    8.9043053819
   2.8476050345    9.1946852378   15.5111464139
   7.9006764714   18.4108445472    5.2771897268
   0.7473921070    7.3475020405    0.0877288053
   1.5090413923   13.5382089903   14.6548188281
   9.9933383313   11.2775180725    2.8853355297
   2.3454062894   11.1402156055    7.6172095952
  14.1784748744    0.7590959570   14.1609266473
   5.4936024029   10.4265519324    3.5474391163
   1.8930568604   12.4050620139   17.0496328417
   1.6983463700   18.0554542314   12.7554276619
   1.2753641424    1.3743732083    8.8863511756
   9.3228360690   16.2070210942    6.5433730191
  -1.6649746637   12.7715060388   16.2320539461
  15.8755155190    4.0872268980    0.5590878853
   3.3522375224   10.4022014504   16.6412818556
  15.2829619342   11.5387373443    1.1700026501
  12.5223788562    0.4675031249    6.4800415148
   4.2977685543    9.5416670482    4.8564767592
  10.2419007186    9.6884018193    1.6307980386
  15.6787375344    6.1824621697   19.2132405217
   6.9703549925   10.0839499050    7.2701553296
  13.1807925463    2.1632146479   14.1951172924
   0.1820844602    7.6586148470   17.9121388373
  10.6207587285   16.8402833272    3.3768569461
  -1.5060491156    8.2566609385   18.3790402583
  -0.3551132981   19.5296914891   13.7667224530
   0.6095542875    1.8296770449   12.8544030391
   0.6006938823   17.2197829983   11.5242808056
   0.2904405423    2.6383518059    9.5657265268
   1.2469253747    9.7309463288    0.6535245075
  -0.2004120805    4.0605342986    0.4749675004
  -0.0033457606   11.6404914701   18.8062647088
   0.2677625336   11.6892436290   16.6641199810
  13.6032508960    1.1315029655   15.5933901072
   9.1710026685   16.6858000234    2.4222517195
   1.7787243563    9.3733136045    7.4839616985
   7.2765772243   17.2383743434    6.4226392935
   5.8407197399    8.8804048978    6.6922222701
   8.5488101300   10.6656358048    1.8252604786
  -1.7754963117   14.4031216365   15.3642112981
   5.0696148519    8.6583014255    1.3582521388
   8.4813983609   13.9195833061    7.1185787192
  12.6983506612   12.7417050491   14.0627886845
   3.3149740041    1.7517510531   16.9204791845
   1.2985995008    3.2233645848   18.7177651643
   0.6355633754    5.8767282606    6.3027070981
   4.5591368879    5.0029448104    0.8372658171
   0.1995545408    3.4681070912    4.9204412302
  10.9570163815   11.5169404356    5.8458867262
   5.4164001842   17.5168716129   10.0681272996
  16.5970616072    0.8244605206    1.9570856463
  11.1992203335   11.7880970997   16.3766825329
   3.3407746018   16.1636202994    0.5006785425
  12.0400339036   16.8908517030   16.1168844959
   5.3536670826    0.6129909379   10.0467644858
   3.0629391782   13.8851740161    2.3703319001
   7.5809008495   13.6059441750    1.6075264357
  12.7561222451   19.5889695774    4.7215452642
   5.3924861714   13.3967946576   18.6217639132
  -2.0337683779   15.9494836750   10.9120754482
   4.4052923499   18.6617926038    2.8867729080
   4.8700494789    0.9090870302    2.1752862721
  11.3786957655   16.0630056114   18.6376208417
   6.3058758755    2.5203451872    6.2544320163
  13.4101397276   18.5903212187   11.4837356317
  11.6950701715   14.6927177881   10.0618906568
   2.8937937621   15.1641139072   13.5269079044
   4.5926720550   17.6099824105   14.1733428118
   9.3123110937    3.2094075525   15.5556090824
   8.9675891053    3.1846693838   17.9510377222
  -0.1162023695   17.6277425933    7.9538401542
   9.5564260296   12.6133648208   11.1596884490
  12.8503750330   13.9460815844    4.5700064510
   1.8743643046   13.4959485532    9.5788501585
  -1.9942372638   12.4258891317    9.2625862952
  15.9637743266    9.4992056114    6.9788655868
  11.0527168796    2.4868044235   17.1149296391
   4.1236984022    5.4885512309    6.5954007456
  -0.9050380937   17.6254520866    4.4363881150
   9.0327004860    7.1302509453    3.9768854097
   7.6260171008    6.5312656565   15.3337127880
  15.7792412598   13.2535200951    3.4370951151
   2.5031493827   13.5765186612    6.7336342838
   8.9400458725    7.4473498860   11.5838490955
  13.3485931710    6.8023004336    5.4110732306
  -0.7839756137    8.2907311704    3.2065713741
   0.0738004099    6.2146157396   12.1582873945
   8.0763831519   14.4388275883   18.1791257619
  10.9596082943    6.3072880665    2.1369136384
  13.3044093536    9.4878188703    3.7688526384
   9.3031944224   17.6404906010   12.5601206630
  16.1794515162    4.9557832558   11.3625752757
  15.7013431963    6.9278992638   12.6131622602
  16.8171461711    5.5200410144    1.9324287517
   1.9539552660   11.0718141391   15.3939508192
   9.5626335207   19.9866013542   14.5478518154
   6.2673882331   10.3488873598    5.3888452413
   8.3864250026   18.7723915603    7.2366696216
  10.2306786045   11.6852171542    0.8380738363
  -0.0433305398    9.7777661501   18.1598954505
   0.1967892207   19.1093313369   11.8626128545
   1.5319479212    1.5961948586   10.8716930998
  -0.6681187511   11.5747489075    0.4573554124
   9.0305450477   16.1290832424    4.5551630898
  -0.3830334859   12.9522961419   14.6391877950
   3.8119535310    9.6454569332    7.2993447131
