B2 C140 Ca1 F48 H298 O66 
1.0
1.7930663532120434e+01 7.7482617355827387e-17 2.0129703609641453e-16 
-2.2811474319776206e+00 1.9539134058095129e+01 -1.3289232156993558e-16 
-7.9987539056310397e-01 2.8014751162249374e-01 1.9527083629255458e+01 
B C Ca F H O 
2 140 1 48 298 66 
Cartesian
  10.0903136662    2.5939773633   16.8816123622
  -1.0590163345    5.7886717645   12.0350207065
   0.1337377322    0.7489550406    1.5613867473
   7.4738566464   13.9773122729    6.7710488142
   5.2559539979    6.4382277144    1.2552144689
  12.6605105504   12.7268063274   12.6001427186
   3.9107138528    1.9291750532   16.0285157807
   1.7570872317    1.0578418955   18.7886260486
   1.5513507835    2.5628342266    5.3014100045
   2.3158121186    0.6791912693   17.5102160586
  -0.5354512810    3.2824559966    6.2545120762
   3.5288882941    5.5187780271   19.0125964595
   2.1362264675   15.5587005076   18.8010310081
   0.4786803439    2.9473632908   18.3560991957
  12.1277386903   15.2727546418   15.4789258866
   4.3719372326    9.8439082161    0.7559635246
   6.1839935207   16.7131898067    8.8690322544
  13.1047652766   11.7876036088   16.1393938411
   9.4728144288   11.7362176315    6.3147365216
   9.6005204532   13.2017983918    6.1278406140
  13.2523253023   11.4612876809   14.6503391702
   4.4485477271    7.6080672767    1.6029218941
  11.1462785748   10.6502899298   16.7704798772
  11.6765727521   11.0312251695    7.0115829093
  -0.0612739363    4.5131308440    7.0084769555
   0.0897444449    6.8332893388    6.7518507299
   5.0779391139   18.7511422075    9.5721393568
   2.6469533030   16.1998145872    1.4177130113
  16.3281419817    1.4509508928    3.0990182292
   3.8338200124   18.9181502060   10.5160292587
   2.1494374610   14.7614102637    2.1420608570
  13.3086058624   16.2840598608   17.3066854206
   5.2820272302    1.6034250829   11.1067951088
   7.8654042394   13.0984941219    2.9805935671
  15.1422701273    0.9828350323    3.8003670178
   6.5264698537   14.2527170102    1.3256290651
   5.6232113205   14.3706048330   19.3480453946
  -1.7955302026   15.1783529138   12.3045398100
   3.1932834635   12.6632406872    2.6742929360
  12.9481647125   15.4402712800   18.4843065117
   5.7887173014   12.6046883354   17.6247888312
   5.5838834511   17.8607765691    3.8854176570
   7.0929674062    0.1994373444    2.6289855115
   6.0075209609    1.2370001988    2.7620785516
   3.9617180134    2.0416897921    2.3593239377
  -2.0015751359   17.1000366234   10.9943016066
   5.8604823539    0.8893285636    6.4397133555
  12.6246313767   14.8663196313    8.9435793563
  14.3831245452   17.1744094323   10.7002036852
   3.4315469277   15.3593054620   12.3580485450
  12.8369287610   18.1934589244    4.1973951109
   6.9557717685    2.1359137244   18.2366048060
   7.9396844099    4.2726956378   19.3151479451
   7.9138044690    3.3600256642   18.1159123157
   4.2295053839   15.0520860866   14.6063020497
  12.4791756987   17.8892969669   12.0140659775
  10.4570270046   14.5086043757   10.0284802506
   9.3243032694    2.4332209894   13.2607128162
  12.7770882790   16.3322945438    0.7097722465
  13.2488566175   12.8345297734    3.6763028395
   9.9381933972   13.8207997171   11.2638078547
   4.9575441480    3.1306377783    6.5015248485
   1.9779002583   12.4673456499   10.9200580697
   4.7034084187   16.2975360651   15.2741028887
   1.4022042498   18.5567649960    8.3348365008
  10.4334015418    2.5276065485   14.4236222918
  11.3981290209    3.6311601100   14.0901916660
   5.2703270410    4.6197005750    6.4005572437
   5.1614375768   18.5290413280   14.1346110259
   9.5907697759   11.7976892346   10.0892026683
  -1.1503850570   13.3734918882    8.2085684789
  15.6994555930   11.2662676438    8.4715990015
   0.2816747362   17.1840868594    6.5949885006
  -1.2851078560   10.2181094116    7.8067536561
   5.3759042966    6.4086341573   15.5775982583
  14.3743287549   14.7599419998    4.3376963760
  -0.7895292783   17.8549608407    5.8174837359
   3.6280843968   12.8028894526    9.2203719122
  16.3309669208   10.2677917449    5.4938934833
   3.7697048870    6.3398248007    5.4893943035
  11.7786353646    1.7597336323   18.5244474239
   1.9962482284    4.7167095166   13.3715454576
   9.7063488847   19.7993909144   18.6686525909
  15.8215183046   14.2593056729    4.6448354741
   6.7433449479    6.9739744690   15.8912510820
   3.8387451754   13.6704740360    7.9693911657
   8.0352059905    7.4072759855    4.6035618833
   0.4231861403   18.2015773492    3.8850370551
   7.0377028014    8.4811776781   15.7211644360
  10.0835173240    7.3841835956    9.6296248371
   0.9325484159    7.6278901493    2.8305142096
  12.9641500821    2.6171566481   18.8567462225
   2.0023782009    5.4776472129   10.7811833658
   1.1637852748    5.0933098524   12.1003043717
  10.5755147881    5.3413588675    3.2532820944
   9.3898239987    5.8417270134    3.7479324875
   8.7925563051   15.1115500290   17.5062948351
   9.1207501757    7.9762554720   10.8267844582
  12.3548605735    8.4006238392    4.1334287453
   8.8428509649   18.6466136629   11.7518422950
  -0.3960312805   12.9953828269    3.5591660521
  14.0619302083    6.0406187922    6.6817015653
   7.5875865132    8.3477804340   10.4034582598
  13.4530571162    9.4500454914    2.2685456696
  12.2200600860    5.3970738990    1.7251873820
   2.6668369164   14.0134905433    5.9680233239
  12.8451537553    7.8425409373    5.4952433327
  16.5435584034    7.0989606888    3.2073521883
   8.8526619550   17.5139243745   13.9217196287
   9.1517959632   12.9392321824   18.3278751196
  15.1619553534    7.7801905369   14.5339206566
  16.2377438903    7.7471865426   13.3733375188
  16.1088808691    6.2305093780    2.0313850888
  14.9069005422    2.8552141911   11.3073583950
   8.6435387005   11.8089853557   19.1933792905
  15.1585325319    4.3692823492   11.2975556005
   9.8850722578   18.3401821260   14.6935128662
  14.6171569110    5.0111547257   10.0565431789
  -1.5022383352    9.0305826254   12.6608042440
  11.7074205159    0.2851196265    6.9196340501
   2.9427625734    9.6828974141   16.0219022572
  -0.5617437097   10.3757552574    0.1285352490
   1.1457862635   12.9960572585   15.7535027454
  15.9739157120   12.1532649855    0.3562547046
   4.8261888726   10.1695761601    7.2628253777
   5.4621637417    9.9163811916    4.2603169961
   9.6231736996   16.5759434335    5.8167130195
   8.5997041054   17.5713145888    6.2269578011
   1.8368680545   11.7677297754   16.3349170688
   2.3853789334    0.2295764409   12.4624197206
   1.2059088347    1.0223212968   11.8762975064
   1.2543346819   17.6379223362   12.6130288103
   0.5282711046    1.2718713630    9.5966049981
   9.8072656128   10.4218477309    1.7363464005
   2.4952887888   10.0286643338    7.1880053508
   6.1495510768    9.8359552522    6.6140440518
  13.5224478125    0.7779303834   15.0235905124
  -0.0618623823    8.0349207750   18.4913347421
  16.4121213061    4.3865243451    0.6570322711
  -1.1649266579   12.8341260564   15.5863532881
   0.0944593210   10.2118854524   19.4538746392
   9.5859627383   16.6605127283    3.2706633974
   8.7470318528    6.0837599207   13.6052991456
   6.6142838353    1.7045717649   16.9875675160
   8.8881106180    5.2994511174   19.1116832033
   8.9078537738    3.6837854494   12.7349811452
   7.5437267273    1.1559532967   19.0509980359
   8.9192444361    3.2577047698    0.9385593364
   5.8577874491    2.4237114609   18.8672391795
   6.6831895724    4.7905488870   19.3011617554
   8.2104270284    1.8026239061   13.6781998201
  11.8311178356    3.5573216937   12.8477810234
   9.6827940776    1.7695516813   12.2289556747
  12.4147061850    3.6566619467   14.9471143488
   4.3638260232    7.2242387994   16.1133538795
   5.4382923538    5.1619107729   16.0392250308
  10.8248069179    4.9535490230   14.3418718866
   5.0992991373    6.2933535784   14.3108994630
   2.7596498135    3.5208069181   13.1232042147
   8.6394840213   19.0328844861   18.3777852486
   2.8922073981    5.6924011398   13.6415107484
  11.4300414364    7.5896105497    9.9695250438
   1.1269421388    5.0845297262    9.7132973770
   7.4272728360    8.7207946121   14.5026666285
   8.1881250052    8.8177524405   16.5710192775
   1.2034091042    4.4198358162   14.4410004360
   9.9634402034    8.2454205492    8.5641244620
  10.7666724982   19.0834822488    0.3981621464
  14.0370560253    2.2901552356   18.0707713525
  10.6832209322   19.3005678132   17.7965794078
   3.0452975051    4.5804184906   10.6103230045
   9.9762502434    6.1520869077    9.2161559616
   7.0803920784    9.0153615014   11.5225359401
  13.9090143885    2.2237189965    0.6657034490
  12.7080760050    3.9491939083   18.6315125995
   6.0972063669    9.4584526777   16.0638606394
   2.3609914391    6.7821259413   10.5804931866
   6.8199549374    7.3352490186    9.9889467031
  15.3477142902    8.8646003612   15.3902850947
   7.4946323854    9.4389240633    9.4528706618
  13.7064879134    2.5326705017   10.9881056981
  13.9051400662    7.9726894735   14.0395228480
  15.0743724215    4.4840404536    8.9092002575
  15.7150135730    2.1757945870   10.3108804498
  14.9117008895    6.3396362037    9.9581131858
  15.1774214488    6.5890970777   15.2167178723
  -0.8438945506    8.7201056820   11.4836691527
  15.1729510162    2.3849190294   12.5996324337
  -0.8222169873    9.9030125854   13.3752906842
  13.2200682939    4.9747743611   10.0627962856
  15.2411818564    9.6208675094   12.2585001385
   0.8241788427    0.3827215458   19.1234994060
  13.7343455731   12.7298918369   16.4237501982
   2.0349967322    2.4706270907    4.2852285047
   5.8475275062    6.0012354846    2.0679117606
   5.5657342073   16.1617446732    8.1257755798
   9.3700268916   11.5161766009    7.3662929685
   6.1320998443    6.8383111015    0.4939993163
   4.4549644179    2.9429005495   16.0803174720
  16.3715462277    3.4653013727    5.9050517622
   0.6013645422    1.7967516243    1.4526733850
   1.0373339852   15.2942976072   18.8971001931
   0.0218279552    0.2206560523    0.5610783114
   6.9459740226   14.1474814696    7.6936545283
  -0.1553411375    2.1058815016   17.7975182981
   0.8823183221    0.1204846519    2.1665486540
  11.6654299753   12.3087270206   12.7940149346
   0.2679249374   19.2466203099   17.6423637822
   7.1004430364   14.8545163676    6.0547405100
  12.9456008789   15.2488898500   14.6689862159
   5.0588604477   10.5110084656    0.3764464752
  13.2273378114   12.0408933128   11.8608453951
   3.6250194760    4.4590035786   18.6345247974
   2.6541600308    6.1832311047   18.7131839325
  11.4613637524    9.8792171178   17.4896926980
  11.8151444295   10.0436049159    7.4602614730
   1.5570980622    1.6305641334    5.9084384791
  17.2681310277    2.4336538395    6.8918983446
  10.6400288267   13.3346739121    6.2228060775
   2.9605036018    2.0169635281   15.4119913873
   5.7527335293   19.5634916299    9.6477721641
  11.8863651888   14.3405055247   16.0522192022
  12.4036601307   11.0115311052   14.2390581278
   2.5272233027   14.4866332356   18.6286560390
   2.3248849665   16.1007018417   17.8589069602
  11.1215779353   15.5090156999   15.0054282316
   6.9078126455   17.3611624876    8.3494175171
   0.7383848529    3.6613762813   17.6264670164
   3.0123062629   16.8565480685    2.0958093925
  -0.9046470557    7.0100412714    7.0729750442
  13.7157590707   10.9771345823   16.6310269987
   2.1123625968    3.2939634161    5.8812447539
   6.7709581956   15.8906407326    9.4239747382
   8.7875190624   11.2212460259    5.7068109800
   3.8584682801   10.4431939000    1.5742403979
   7.1768787900   13.0974746771    6.1591005972
   3.5118870056    9.4557079876    0.0450624625
   4.4018250132    5.9570308369   18.5691918041
  12.4563155540   13.7462352379   12.1826319946
   2.5681019886    0.8605470444   19.5215831068
   4.6101448829    1.2199510598   15.4859742875
  -0.2640427476    3.3179651165   18.9002840695
   1.8274808473    0.7670781147   16.5434827267
  17.0053400673    1.6428076194    3.9440766765
  16.1238727018    2.2702010851    2.5217033483
  11.1710092637   10.1867473666   15.8430336611
   4.1251809654    7.5216708690    2.6398320744
   3.5071877656    7.6476839177    1.0448150853
   0.4644629602    7.7558812952    6.1409674655
   0.8795868324    4.3432933294    7.5759285960
   1.6339559109   16.7028223165    1.0454374665
  12.6293175936   11.4212006573    6.5939405032
   4.1306440366   19.0335165804   11.5378839716
  11.3507045601   11.8276389999    7.6594413776
  10.0819313305   10.8419481385   16.9183347139
   9.4907396092   13.6176202326    5.0736764521
  14.1928068292   10.9835879993   14.3619629743
   4.8295335415   18.7119076228    8.4529133246
   7.9655391576   14.0662669642    3.6447849674
  -0.8191024085    4.8603546744    7.6819403307
   0.6002836404    6.7336227062    7.6986730092
   6.7907249155   15.3664025822    1.4403286861
   6.1279042431    2.3045369879   11.2980924393
   1.6263408456   14.3332083925    1.3290665531
  13.6799675467   17.2574742771   17.6975985685
  14.2464983606   15.8036652435   16.8560192581
   4.6573957486   14.8567250811   19.0929429672
  15.2348359595   15.6109353397   12.7741891095
   8.8006670813   12.5674378466    3.0354113572
   4.3576169774    2.1324374781   10.8779870984
   3.1577286618   18.1022978363   10.5843489773
   6.0285910601   11.5719576287   17.7042924134
  -1.7656839865   14.0004200634   12.1977742663
  14.3015670180    0.5815460258    3.2888528486
  14.7798110395    1.8933933574    4.3459057638
   5.2910625933   16.8098794565    3.9468046765
   5.6028782694    0.8830500325    7.4668072247
   7.1922178989    0.0512092290    1.5192780674
   1.6122086538   14.9534727999    3.1295312976
   5.8448894753    1.5424600942    3.7303955973
   2.9368083356    1.7698377938    2.2075344298
  -1.9740446734   17.5487764032   12.1019381958
   2.6718711665   12.4502133443    3.6179256192
   2.5692958962   12.1644536677    1.8534240869
   7.1049838795   12.6317213546    3.5628021537
  12.9593259426   14.3799543795   18.1394565751
   4.9099395040    1.0806167014   12.0417206647
  13.8179752504   15.5120628583   19.1894567171
   6.6527299170   13.1876297066   17.1886119269
  12.3498138901   14.7501455663    7.8148362790
  13.9374841688   16.2161882615   10.9691836589
   5.6079610172   13.9351666103    1.7409322621
   2.6608875980   14.8523485032   11.7092162336
   5.8098024042   18.2859975553    4.8805943879
   4.4318868916   14.8558571312   12.1841587233
  13.5905112866   14.4593815127    9.1086948533
   4.3465409325    2.7519167814    1.5799095261
  -0.9801013883   15.5390344834   13.0391715408
   6.3832897564   15.0055367830   18.8485303461
   4.2179362780   12.3328616346    2.7711120797
   6.8605206882    0.4376388556    6.2499744207
   5.0430201351    0.3919884130    5.8869882445
   4.7875002190   12.7070504516   17.0604672561
   7.5158089889    4.0123099850   17.2846937513
  12.1914879829   18.5181934003   12.8859787164
   3.9011430389   14.3261303039   15.3827797249
   5.0841228238   14.6713858585   14.1048212279
   9.7282403749   14.2397983853    9.2187567594
   3.6451302714   16.3177082729   11.8778806740
   6.4868480315   17.8275298034    3.3279126003
   8.0291452830    0.6695289162    2.9450568965
  -1.5171991207   17.8955847136   10.3945973964
  13.6722400073   17.7617238084    3.7037330487
   6.4250391503    2.1717663783    2.3404803497
  12.0092797158   18.1660544417    3.5384475653
  12.7532222205   17.6471425655    5.1755599407
   4.1993956624    2.4776747250    3.3648173018
  12.5325764001   15.9703861535    9.1165400734
  14.1398967803   17.4010671106    9.7295081823
  10.3800270121   14.1790465739   12.2457881772
   1.0923942229   18.8009565842    9.3799308149
   2.4323295711   12.6000866339   11.9945831011
  12.5106255818   12.2248604057    4.1696440689
  14.1499669106   12.2517062939    3.3737388296
  11.6738171928   17.9543073854   11.3537948075
  11.8680484200   16.6751751710    1.0967803009
  13.3213218203   15.6872456320    1.3643055469
   0.9031679285   12.7707943949   11.0764736535
  12.4920390706   16.8248289040   12.3398960005
   1.9975519417   11.3663741276   10.6540424494
  12.8986086956   13.2060421206    2.7685106056
   4.2181734733    2.7769278014    5.7585479345
  10.3347969838   15.6482935534   10.0883691568
  -1.8429068775   13.6410213441    7.3819458283
  10.0922969169   10.8778802923    9.8690337338
   4.7028385889    2.9920494260    7.5682209965
  13.3712886156   17.3482940132    0.4433461744
   5.7914835724    4.9080383208    5.5589306015
   5.7639900345    4.9365806656    7.3184912996
  15.1531589544   11.6608418900    7.6170432251
   5.4798231578   18.7192196301   13.1133041539
   1.2860113100   19.5770315254    7.7978427737
   2.2823410037   17.9842675524    8.2274297224
   8.8605194668   14.1360173283   11.3742110958
   5.6792498725   15.9630794513   15.8724946785
   3.9727069480   16.9023464878   15.7962420585
  -0.3003115587   12.8415191820    7.6852393588
  -0.3153813369   10.7120699948    7.4190339180
  10.9568098281    1.5070778753   14.4369220325
  14.2509804292   15.1073644608    3.2725370158
   5.8593254656   19.0244945809   14.8888092361
   9.7199086203   12.4457220470    9.1382848153
  15.8324400702   11.3039681789    5.4555141167
   4.0857683959   18.9922247340   14.2161683669
  -0.6270026139   18.9380429225    5.7532105533
  -1.9364941614   17.7088082869    6.0274178124
   8.6041019309   11.6069839774   10.3062619945
   3.5384144241   11.7797946930    8.9458382024
  -0.7597103179   14.1561527767    8.8665772986
  14.0425323118   15.7191218861    4.7417599931
   4.6067994420   12.8333363762    9.7358230853
   1.3122925108   17.3864358888    6.1781629940
  10.9459577351    2.2220854237   19.1606625084
  14.8966312584   10.7289670702    9.0242653528
   0.1407130855   16.1495255863    6.5508968300
  16.0240146626    9.6492740268    4.6706227890
   2.9309643810    6.0410787358    4.8447855103
   7.8932659819    8.4707774400    4.8640048184
   4.6208571581    6.6901204468    4.9085996246
  -0.9874865956    9.3770716368    8.4682603276
  15.8241460643   13.9097238076    5.6811483059
   1.1602461044    7.1993159919    3.7565862851
  -0.4335512108   10.4086414176    5.4351310892
   0.6805961853   17.8456470879    2.9059619905
   1.3335094184   18.0981214027    4.4859990473
   4.0564530007   14.6775243489    8.1418986820
   0.9365941718    6.9203610183    2.0172159362
  -1.3045438252   15.0869817136    4.4985706505
   4.7859782113   13.3004923887    7.3601255221
  11.3730688858    5.6613112127    4.0284342112
   6.7438871463    6.9642529520   16.9816681930
   3.6026802781    7.2667628273    6.0329743628
   1.6677326794    8.3637406119    2.5970441455
   7.4588518684    7.0217579522    3.7218916932
   8.2810595874   16.0573355663   17.5939988620
  10.6434696789    4.2345001036    3.2186252115
   7.7131761563    7.0496593079    5.5540429181
   0.7170314465    4.2260603239   11.7533755835
   7.7137620135   18.7025550698   11.8448613227
  11.5844239890    9.2678748879    4.2497885570
   8.2811049602   14.7906918968   16.6251844637
  13.3587309003    5.3264027241    7.0048848669
  11.9188854628    7.6768053381    3.4706081402
   9.3668046599   19.4890242500   12.1866690887
   0.0821735062   19.2598742789    3.9490930626
  14.3865687529    9.8431824817    1.8332742720
  12.9927991428    5.9865562593    2.3936003738
   8.4943817487    5.6672938384    3.0107944226
  -0.0257767405   12.3894198067    4.4705408125
  12.7341349317   10.3426564050    2.0823756200
  12.3221666956    4.2237033095    1.7415994727
   9.8160177648   15.2589510633   17.2171741525
   9.0396410542    5.2520363775    4.6318050849
   9.1137072027   18.6127056543   10.6968905516
   2.1403797974   15.0702340597    5.8629033810
   0.2460424126   13.8874485914    3.4239489051
   9.4815594716    9.0051076161   10.8594141859
  14.4224432926    6.8526816778    7.4032744167
  -0.3259220043   12.4569304723    2.5771392573
  15.5546406283    7.7000489764    3.2840385407
   3.6293332221   14.2295143248    5.5585309210
  14.9085316531    5.3610121644    6.3484752096
   7.8583146478   17.9173213585   14.1431934955
  16.7711687279    6.6819582997    4.2189752933
  12.0278787861    7.4786369243    6.1515304547
  13.0631002589    8.6931864424    1.6317663748
   2.0916864846   13.4398319756    5.2380617223
  13.4131746805    8.4879891650    6.1756475870
  12.4984227283    5.6519243729    0.6733369366
   8.9950758886   12.6171535700   17.2844565465
  -0.6970984007    7.5038873902   13.6715265861
   8.4072469890   10.8408408256   18.6191657879
   9.0431131725   16.4698801598   14.2826274813
  10.1929957550   12.9730421819   18.5418416458
  14.9996681837    5.9897257560    2.1394046333
  10.9220010146   17.9070158463   14.7461260725
  16.0065906745    7.0225595370    1.2578188615
   8.5024998951   11.7856778977    0.2093562503
   2.2477437197    8.8949519636   16.2402985499
   0.8152725404   13.6873952534   16.5810361571
  10.6802807748   17.0561951531    5.7663229918
  11.2877748948    0.6790048206    6.0168358209
   5.0109433441   10.1599189083    8.3612477689
   5.3925936434   10.7761005380    3.5440537858
  11.4976276002    0.9704771025    7.7963497972
  -1.0770219929    9.6039885006    0.9242983607
  -1.8169287661   10.6708691611   18.6864628648
  14.7040341388    4.8328220355   12.1568900550
  15.9180146115   13.1958386618    0.8008718653
  15.1282486645   12.6997665440   18.8430212671
   0.3498752881    0.3010922985   11.8743009175
   3.3074470866    0.8680600574   12.6179991490
   0.7362546756   17.5707933845   13.5981356927
  -0.3304881364    0.6276340804    9.9404185807
   9.4286932259   18.2965360529   15.7473728711
   4.5466445399   11.1525582842    6.9693701457
  -2.0740029919   12.9686317427   14.9165225120
   8.6678475809   17.2573698552    3.0605982081
   2.3071748613   10.0648436607    8.2789945662
   3.5044327313    9.1827817355   15.2525926020
   8.2267842584   18.1795440406    5.3597630343
   0.6062242517    7.6570842689   19.2031504748
   1.8725111732   13.6204445534   15.1928263559
  10.6689347460   10.1173306507    2.4680120442
   2.5939565556   11.0734440572    6.9490334984
  11.8149054683   19.4878271059   15.4127161427
   5.9790884422    9.1113783765    3.7668956535
   2.7087443616   12.0424315101   16.9448739445
   2.2587263625   18.0236144165   12.8146538319
   1.0340373683    0.7605454916    8.8271280612
   9.6432162186   15.7089248665    6.4373640648
  -1.3089837409   11.8637734823   16.1378147721
  15.2549216704    4.4630840659    0.4656578934
   3.5171076705    9.9959233236   16.8785357205
  15.1699264768   11.6370781612    0.8073552310
  12.7828545901    0.2099494222    6.7060915106
   4.4823714953    9.6617638102    4.7854234893
   9.3484683224    9.5299276924    1.4086964857
  15.9798702286    5.0440100924   19.1526549790
   7.0316029845   10.1925032852    7.2131540374
  14.0981770463    1.3090918309   14.2276197144
   0.0779244174    7.4232222431   17.4970577429
  10.4861516104   17.3074941264    3.4262556542
  -1.0576901140    7.8313173908   18.9211441813
  -0.2768768312   19.3859916865   13.4942993535
   0.9341159384    1.8424670885   12.6665026730
   1.4964710447   16.7795582815   12.0621628802
   0.1041804249    2.2309400605    9.1973075808
   1.3804680157    9.4780703564    0.7487579638
  16.4753027458    3.2927913131    0.8161741834
   0.7153314912   11.1405836355   19.1570327730
   1.0484772530   11.2433084153   16.9591968516
  13.1858928520    1.5908206998   15.8203855588
   9.6955915599   15.8357046010    2.5606741278
   1.6740096121    9.4290777206    6.7777635575
   7.7927689321   17.0456401596    6.6873725158
   6.4412513339    8.7412254326    6.5967661866
   8.9897888254   10.9078115424    2.2955526977
  -1.1194372026   13.6635665900   16.3886309961
   5.2221576241    8.7352027815    1.1797676130
   8.8193836124   13.9021612029    7.1007101421
  13.3352245565   12.6716896949   13.8317529745
   3.6293067357    1.3719733039   17.3744118335
   1.6277837995    2.5023182831   19.0366038376
   0.2520797314    5.6511831679    6.0536506946
   4.5801187145    5.2597757018    0.8786033749
   0.2015798879    2.9798677611    5.0958114427
  10.6404533197   10.9619589817    5.9789024543
   5.6045910789   17.4302083727    9.9236857192
  16.7932796436    0.5130717565    2.1500035905
  11.8656865720   11.9478655569   16.7337079167
   3.4705323399   15.9073756800    0.3127493184
  12.2616677875   16.4599593622   16.2542496555
   5.4685780898    0.6471522468   10.0495114383
   3.2832732564   14.0426078642    2.3936110357
   7.7695104377   13.4921381413    1.5850044692
  13.1767106338   19.5079050154    4.7510809386
   5.6103827643   12.9574885684   19.0077947452
  -1.4263272462   15.8247679024   11.0703430531
   4.4813272709   18.5309000163    3.2600937315
   4.7327305245    0.8297039095    2.2433091452
  11.7135105236   15.8120348136   19.0889198649
   6.1685859568    2.2917075202    6.2274019827
  13.7354422659   18.2596847163   11.4793454799
  11.7842206945   14.2017439150    9.8566207278
   3.1332755870   15.2643344464   13.7641658815
   5.2908395435   17.1005766936   14.1845579815
   9.6642863084    2.8237996174   15.6152625663
   9.3178999801    2.8388600348   18.0052691481
   0.3045936079   17.6430540965    7.9809315333
  10.2014415607   12.4533931218   11.2015015785
  13.3986216750   13.8200092843    4.6662078506
   2.5392132032   13.3092059079    9.9988562338
  -1.7369297447   12.3860643212    9.0725703699
  16.0412178155    9.6289527541    6.7117878755
  11.4357466668    2.0581342629   17.1595843826
   3.9140651266    5.2502554622    6.4158003283
  -0.5681375111   17.2489873252    4.4965770585
   9.3977657022    7.1714731243    4.1774420542
   7.6955499391    6.1663403645   15.2829327257
  16.1524234203   13.3084949973    3.6125745780
   2.5102587891   13.5158675566    7.2032297996
   9.0347877600    7.3130052576   12.0287935307
  13.7059059689    6.6253581201    5.4219456982
  -0.4529675128    8.1587142555    2.9191185603
   0.1995369768    6.1019041104   12.3502824499
   8.6724738849   14.2501139551   18.6397837618
  10.9444369644    5.8459456193    1.9381105278
  13.6013767964    8.9484509348    3.5976049291
   9.2239208114   17.5153102185   12.5449381800
  16.5285121346    4.6491566644   11.3652025673
  15.8631848770    6.6245449175   12.5296365496
  16.9415937025    5.0999770357    1.7713523717
   2.3362498886   10.7935284179   15.4418470617
  10.0564520675   19.7402620558   14.3761703980
   6.3938288266   10.3122093929    5.2525140503
   8.8679301776   18.5614224904    7.3607697019
  10.4267231975   11.1178945926    0.6888952841
   0.0997247267    9.4389822940   18.2996025923
   0.5586647696   18.5746767139   11.7948732106
   1.3888892366    1.5669729839   10.5897091181
  -0.7293046281   11.7037380509    0.7809174708
   9.4420080443   15.8875941306    4.4533028758
   0.0609068901   12.7851007371   14.9098855331
   3.7500301346    9.3048128223    7.0360563096
