B2 C140 Ca1 F48 H298 O66 
1.0
1.7817138211002270e+01 -7.4100248706272223e-16 -1.5268737816144567e-18 
-3.1140128859327678e+00 1.9353971429528436e+01 -4.1282591534525049e-18 
-1.6888336887219432e-01 1.2513158666458217e+00 1.9580380387422000e+01 
B C Ca F H O 
2 140 1 48 298 66 
Cartesian
  10.5173337098    3.5773873744   16.8033298163
  -0.8441651711    6.3196965644   12.1178181081
   0.3864158774    1.6431052021    1.6094142688
   6.9989600284   13.7425355702    7.6408008154
   4.5389533620    6.6105571300    0.9098711864
  12.5757898717   12.5713028449   12.6595490542
   4.3685251742    2.8764675438   16.6646585939
   2.2151343069    1.7833934838   18.3978862524
   1.7606063588    2.4560385788    5.8063774431
   2.7568200577    1.1719364216   17.0007579216
  -0.1272683644    3.7938138461    6.1008328759
   2.9275967270    6.4246488698   19.2530389917
   2.2101664718   17.7055447631   18.3378874080
   0.9713037613    3.4903811180   17.3638853572
  12.0065168656   16.1009290955   14.8619352722
   5.4766796034    9.9161606853    0.9514064584
   5.8494234008   17.2459010791    9.5704419778
  12.0462509340   11.7211654928   16.2394582675
   9.6174407544   11.8327613946    6.9326752008
   9.2833597075   13.3534299967    6.7901148335
  12.7357638272   11.6856999353   14.9393300098
   3.9145542174    8.0291661596    0.8077245082
  12.1774173289    9.5036611618   17.0522614593
  12.0040753580   11.9001697505    6.6173149943
   0.1089492035    5.0717506362    6.9954710954
   0.4817751548    7.5291639726    6.8748606508
   4.8034033998   19.2197740014    9.7247764413
   2.0521222184   16.6040000109    1.1690903364
  16.0185619957    1.7904560608    2.6576396715
   7.1968624966    0.8540666495   10.5358060658
   1.4170253736   15.2238629414    1.4791837195
  13.1231144002   16.9028336002   16.7954029483
   5.5132718189    2.3718932114   10.5990880368
   6.7953807982   14.0630396697    2.9469494431
  14.8322098273    0.8467024079    3.1491042161
   5.7636207879   14.0558120718    0.8779311740
   5.7122036203   15.0953502822   18.9564754620
  14.8119055972   15.2060017747   12.1782425428
   1.8532306436   13.0157265469    1.9944883828
  12.9398384280   15.8950662659   17.8790110157
   5.9234975174   13.2525208530   17.3972571210
   4.8207851138   17.7993897347    3.8922303752
   7.2220437769    0.3223775530    2.5237838150
   6.4431993644    1.6711365556    2.5317005487
   4.3027174453    2.6141208597    2.1639165218
  14.8231986416   16.9768010798   10.5398725671
   6.8895210394    1.3485064566    7.0312340761
  12.2745605337   14.9019992014    8.7224374141
  13.4459213585   17.6225972166   10.3754320432
   3.6445660272   16.3554798074   12.1711407019
  12.9055209057   18.4798778746    4.3771453103
   7.9350730727    2.4158203903   18.3203259654
   8.1999213689    4.9745893070   19.1985726563
   8.4711756303    3.8466914151   18.0543564564
   4.0895560356   15.3118701417   14.3204010723
  11.9044559031   18.9019144597   11.6500288192
  10.1775794723   15.0411188724    9.9136049322
   9.7944571624    3.3912260075   13.2653467210
  12.0942246735   15.9285895031    0.0703014720
  11.8134847821   13.2873173250    3.3504389139
   9.5261168560   14.7114906209   11.3483332407
   5.4101159316    2.9283351131    6.0016942337
   1.3144535935   12.8403876830   10.9794267173
   3.9874857217   16.5521978144   15.1012301524
   0.2869313177   18.6223935639    8.7699302804
  10.7131935724    3.7161167554   14.3650643393
  11.6875206672    4.8459494575   13.9940073833
   5.3004137308    4.4053860245    5.6333187726
   4.6645103387   18.8357640790   15.1695465734
   8.5195621482   12.7153756324   10.9363561819
  -1.8405390230   13.3599880369    8.8615940578
  15.2594459431   11.1664313872    8.8490842664
  -0.5588063161   17.1366425343    6.9880298606
  -1.4155147631   10.4574759139    8.1095087099
   6.1425888356    6.6853739190   15.6968325578
  13.2006186949   14.9822762687    4.5178435081
  -1.5615213095   17.7108567612    6.0379399010
   2.8656523500   13.6232743252    9.4605019772
  16.0067163497   10.1075907298    5.7620842635
   3.8433402180    6.1997928080    5.3278173647
  12.0939730169    2.5767895278   18.3663123232
   2.1901794072    5.4764638269   13.5228241808
   9.0404712311   20.4039693594   18.7542809181
  14.4195868009   14.2679227977    5.0371190992
   7.3149151247    7.5273694475   16.3772458509
   2.9373747567   14.5442410513    8.1718042732
   7.5388768906    7.4291483371    4.1388001307
  -0.6853287083   17.8447020368    3.7751253686
   7.1296793446    9.1092780551   16.2672485988
   9.6899750217    7.6662542280    9.5266416647
   0.5468068120    7.6837497216    2.7633195738
  13.2983968743    3.4501179533   18.7822955587
   2.2570978318    6.2172396729   11.0135867603
   1.4150881199    5.6601988526   12.1960351093
  10.7708897534    5.9408675011    3.2026022227
   9.3416196767    6.0449449135    3.6144663791
   9.0596566677   15.6600134551   16.9102555992
   8.7944654752    8.3944925449   10.5453325076
  11.8940116728    9.4797811996    3.8330748125
   8.3863887336   18.0323633769   12.1254281944
  -1.4499097772   13.3618290765    3.9546479613
  13.4913742950    7.0423392459    6.0566384344
   7.4008739628    8.7567339895    9.9708050107
  12.3573849917   10.0703006209    1.4651651953
  12.2166736803    6.3051677133    1.2066764360
   2.8797056737   14.4712134061    5.7959606188
  12.7233134665    9.0123335826    4.9233638096
  16.2452861029    7.0881232937    3.0081534312
   7.9126121248   18.6495346897   14.3014510779
   9.7514191355   13.7589054906   18.2106767895
  15.0303362896    7.9812468280   14.6481347617
  16.1435128842    8.0923711686   13.5679703714
  15.5469943337    6.2581543906    1.9519243092
  15.0622169167    3.3731613687   11.0730957116
   9.1267671933   12.6832633036   19.2741126709
  15.2592332457    4.8662036706   11.1225665133
   8.6656086992   19.5025570722   15.3346030085
  14.5911315809    5.7372112785   10.0691547476
  16.0785797190    9.4618170240   12.6599140402
  11.5836505221    1.0038732752    7.2576456291
   2.4533256315   10.0948735877   15.7290469482
  -1.3388876213   10.2574831352    0.0265986812
   1.1087279740   13.5551473864   15.2145812565
  15.0724301038   12.1769483223    0.7845839220
   4.6310537605   10.6360923317    7.3180614704
   4.3132531275   11.1266113756    4.3823586296
   9.5344348343   17.7121954209    6.2501400861
   7.9621545730   18.2126317455    6.3499390265
   1.6563024016   12.2745305399   15.8188471237
  -0.7875898126   19.9498216178   13.1840353921
   0.9527654765    1.2303363364   12.6388944554
   1.0332497594   18.3734075922   12.8757031924
   2.0791544719    2.4744781722   10.8495666288
   8.9649414188   11.2152683922    2.1323391128
   2.7996347477    9.9905066804    8.5370663666
   5.5880698756   10.2304911432    6.0902707061
  13.9507555203    1.5650759295   14.7466025042
  -0.5282227877    8.8559615451   19.1200132354
  16.2775092758    4.5683270875    0.3696997683
  -1.2086780143   13.3118600006   15.4812128648
  -0.0586731963   11.2455566324   19.1901256904
   9.7488719138   16.8122577794    4.0039527505
   8.8054291181    6.8523157246   13.6882123375
   8.0118804416    1.8933299620   17.0075573941
   8.7452051438    6.1375199142   18.8293558387
   9.1128132914    4.5375829918   12.7193599919
   8.7415214411    1.6466260780   19.0762889191
   8.8209398162    3.4188074614    0.8083680747
   6.7150339594    2.3670572256   18.8326866096
   6.8731678655    5.2039410399   19.3690796593
   8.7931972506    2.6673075462   13.8567517513
  12.3488942890    4.6056584856   12.8042683018
  10.3799886918    2.8123015798   12.2880312128
  12.5860091540    5.0330263005   14.9879003384
   4.9020780861    7.1368456920   15.9848699691
   6.2867836745    5.3627482480   16.1420658748
  11.1162867359    6.1369489333   13.7016021423
   6.2347927928    6.5984360269   14.3049655623
   2.9997618280    4.3438709307   13.4395099253
   7.8783895087   19.9907276311   18.1618547682
   2.9038052746    6.5387302300   13.8095457048
  10.9670042749    7.8632360936    9.9564419021
   1.5878976759    5.8180119177    9.8824125417
   6.8388219497    9.4436324856   14.9655237788
   8.3375531537    9.7306548870   16.5930726500
   1.1757057651    5.4179260866   14.4521017141
   9.7137359533    8.1576984112    8.2416011612
   8.9786358218   18.8831550532    0.5124062671
  14.3475440236    3.3108758504   17.9232653171
  10.0842921445   19.7194669794   18.3868072246
   3.5701905289    5.9090306348   10.9322059707
   9.4921031876    6.2909055479    9.4047676136
   6.5996900625    8.8175071997   11.0982100994
  13.7461575417    1.8130717139    0.4918690875
  12.9462070532    4.7525130140   18.8337416642
   6.2141687353    9.5477318279   17.1144125170
   2.2638320896    7.5275479602   11.0118773786
   6.7048237216    7.7898337391    9.1840263696
  14.8461322928    9.1599607638   15.2100124261
   7.2714781330    9.9015060771    9.3778052496
  13.8162818175    2.9466568782   11.1435576450
  13.7577229992    7.8413200533   14.0675914390
  14.5681300275    5.1060089863    8.8842451237
  15.5932266154    2.8989944668    9.8462929699
  15.2409495663    6.9062969202   10.0449001750
  15.2989316502    7.0161833303   15.5340690690
  -0.9422567341    9.3065713777   11.5328659292
  15.7717065678    2.8199305315   12.0425838159
  -1.3938115546   10.5710791732   13.3433891513
  13.3608477333    6.0550925912   10.3605968600
  14.8447479397    9.5979112991   12.2970727555
   1.3035353953    1.3057153897   18.5851816236
  11.3508785284   12.5223799002   16.1080338380
   2.6036333687    2.5603892971    5.1327023442
   5.2551126723    6.4648636916    1.7107668936
   5.3014852939   16.5523726602    8.8738510560
   9.6378634488   11.6094598261    7.9782691199
   5.2359331360    6.4343464253    0.0155742926
   5.3911586473    3.1454505959   16.8271432859
  16.7475462664    3.8278692420    5.4988991778
   0.4861463465    2.6863302825    1.8813956304
   1.4029971257   18.4220678460   18.2915381720
   0.6949389336    1.4952322191    0.6527874198
   6.4840171619   14.1306592972    8.6258580982
   0.8394389496    4.5474183760   17.4769430485
   0.9032584999    1.0778548455    2.4689628674
  12.0203520430   11.7886546112   12.1881238360
  -0.3996071486   19.4742524079   17.2354615233
   6.6579225039   14.3651843467    6.7509921585
  12.9610662974   16.0191456090   14.3519799786
   6.0414059128   10.3099460816    1.7821157336
  13.6658301728   12.5037812697   12.5992725006
   2.0289395811    5.8213150964   19.3342594725
   2.8676596515    7.3597194108   18.6506411384
  11.5122740699    8.8532079690   17.6671830901
  11.8795805957   11.9233730117    7.6881632815
   1.3177239926    1.4852948672    5.8032473125
  -0.3144391284    2.9454219402    6.7701947530
  10.2041337309   13.9420143238    6.9857391851
   3.7993162229    3.1257600558   17.5758194683
   5.6319461126   19.6137872879    9.1940299441
  11.8990612896   15.1978319011   15.3434727465
  12.8359587795   10.7024701789   14.5738595255
   1.7258759188   16.6840567004   18.1066141583
   3.0171171395   18.0793648653   17.6509190551
  11.1786398858   16.3951399007   14.1794418330
   6.4322436757   17.9123306623    8.9252000446
  -0.0001564243    3.0215265937   17.6982175438
   2.6141148143   16.8851162208    2.0016252479
   0.6997861677    8.2504314942    6.0736782409
  12.7540739764   11.9071468820   17.0267016428
   2.1556614065    2.6989443876    6.8421535874
   6.5215125256   16.5320249239   10.1458563645
   8.7592299270   11.2010196677    6.6227247023
   4.7912852466   10.6706443509    0.4459227904
   6.7346024068   12.7260557317    7.5290088453
   6.2346441468    9.5013430471    0.2260916910
   3.6853619242    5.7170538094   18.8052794466
  12.2945046771   13.4781097602   12.0895756984
   2.8716929475    1.6364120983   19.2608898340
   3.9887083664    3.5368983365   15.8512650280
   1.2736105466    3.0603240825   16.3989738803
   2.0018788870    1.5222173279   16.2733834084
  16.4995919140    2.1405870824    3.5200081934
  15.6168565877    2.6852673961    2.1020245976
  13.0086732009    9.9253833112   17.5545925296
   2.8833385034    7.9190789893    1.2185508336
   3.8025100864    9.6214375485   19.3367806778
   1.3820512833    7.2048578348    7.4711478673
   1.1652293848    4.8611540566    7.0760604287
   1.2926042531   17.3744673938    0.9550033154
  12.8215295537   11.2990824954    6.2430390766
   7.8688699220    1.6507208536   10.9608753244
  12.3080440941   12.8536623901    6.1499043134
  12.5438698608    8.9184117352   16.1962049951
   8.7909582883   13.4234127699    5.7932372272
  13.8269111542   11.9385699383   15.0921219233
   4.1361941221   18.8964018633    8.9637188947
   5.9924224316   14.7612921682    3.1726455284
  -0.3515605904    5.0935424751    7.9733845963
  -0.2116422262    7.9840218041    7.5561862837
   5.3512107296   15.1075980366    1.0296792336
   6.0641269788    3.1150951814   11.1862092732
   1.4155861759   14.7524381339    0.4531192628
  13.3018919011   17.8963575657   17.3839204383
  14.1156921019   16.7092702053   16.2906945182
   4.8064733993   15.6019754729   18.6213854571
  13.7152855534   15.2517368837   12.5947803210
   7.6825108181   14.4719978403    3.3129729151
   4.7860770771    2.8807659889    9.9921779759
   3.4760164580   19.5977040304   11.3540662464
   5.2432642574   12.3807865387   17.2666455717
  15.1379116125   14.1142317273   12.3758147905
  11.4513871862   19.3356932401    2.4905498478
  13.9865477322    1.6184225430    3.2521131018
   4.9527360379   17.7099794071    4.9751828810
   6.5173959348    1.3809680150    8.0502129930
   3.7867584549   19.2326265883    1.5705043922
   0.4181578796   15.2923940728    1.9521961402
   6.7515771787    2.3392932908    3.3698109079
   3.2479778226    2.5014718208    2.4023163529
  -2.2258036291   17.5375998509   11.1722036734
   0.8861990860   12.8216511918    2.2141171258
   2.2055893838   12.7767682824    0.9948886529
   6.6387334519   13.1059829925    3.4720149549
  12.7040523702   14.8809777755   17.5707953225
   4.9062129017    1.7116861741   11.3162335432
  13.9160851430   15.7004173881   18.3912391138
   6.9882721294   13.0452350339   17.2410175371
  12.2110747850   14.0136627139    8.1688364006
  12.6947798308   16.8017328148   10.3506353118
   4.9419026510   13.2964807173    1.1736671417
   2.9158967076   16.5335196735   11.2952189407
   5.6768934699   17.9670505071    3.3544219448
   4.6089522019   16.3258505089   11.7203165513
  13.3281613524   15.1264594530    8.9163532030
   4.4898871334    2.9552380861    1.1804445733
  -2.4195090955   15.8393627180   12.7928091663
   6.6121173155   15.6569866753   18.6716028894
   2.5434089078   12.3182201775    2.5025749434
   7.9840313747    1.0797177550    6.9960536562
   6.3562312178    0.5590508026    6.3491770393
   5.6926729418   14.0358304467   16.6633041390
   7.8437961404    4.2054122244   17.1818007253
  11.8522386832   19.9955555885   11.6230173466
   3.5585773903   14.5062259891   14.8668828045
   5.1231494998   14.8956177965   13.9744264922
   9.7654519658   14.3426922724    9.0751011926
   3.6153240945   17.2990647969   12.7897549151
   4.1801302796   16.8826982857    3.5991498312
   8.2131960573    0.2946695767    2.4832880293
  -2.5495413122   16.9690738704    9.5591509698
  13.9573759858   18.9546146154    4.0173572056
   6.7172460400    2.0988079304    1.6052045526
  12.5640932335   17.6102559149    3.7322692855
  13.0655219170   18.2722174587    5.4657823324
   4.6144124957    3.5487930720    2.8384295360
  11.8521502792   15.7134809639    7.9411907206
  13.4325102214   18.2124199558    9.4496722846
   9.9016102296   15.3438237703   12.2857517416
   0.3858510289   18.4917735181    9.8601616805
   1.7949989199   11.8908095312   10.6542173545
  12.4878587643   13.3851620995    2.4416297095
  10.7299274189   13.3671927377    2.9725652311
  11.1780835334   18.4182935450   11.0124176459
  11.6197660333   18.0572880545   19.0588404579
  11.2999055142   15.7236629221    0.7637509399
   1.7826017881   13.2167484855   11.9020464674
  11.6532939543   18.5637159443   12.7276489786
   0.2862468911   12.7632538729   11.1614330801
  12.0171704798   12.2509982003    3.7018408361
   4.9101934290    2.1313124878    5.3816855866
   9.7679559851   15.9295130197    9.3843155229
  15.3213034070   13.5415950165    7.9614026865
   8.7229724117   11.6517630711   10.8247366159
   4.6524859942    2.8861171248    6.8603352951
  13.0420367147   16.2093012998    0.5028639731
   5.9210382771    4.7372263176    4.7944289933
   5.7932845366    4.9088986774    6.4565062153
  14.3087921016   11.2553884580    8.2929959464
   5.4897465793   19.4096968792   14.8567090753
   0.0714401199   19.6358830455    8.5822119636
   1.2900229033   18.4714066601    8.2858999271
   8.4959284276   15.0801731364   11.2940712593
   4.3531654668   16.1856853513   16.2157618319
   2.8673952147   16.7266350353   15.2809571938
  -0.7497536904   13.3356978956    8.5404060615
  -0.8050262065   11.2574868582    7.6396193505
  11.2864714260    2.8190151109   14.4499465262
  13.6011595056   15.4568568533    3.4199093334
   4.8726490438   18.8450598357   16.2281494789
   8.2103081121   12.9688020607    9.8431563548
  15.6588592360   11.1087121392    5.6112318171
   3.6962538503   19.2395550231   14.9518498844
  -1.4173642040   18.7628603327    6.1369352543
  -2.4923860630   17.4875744991    6.5679459249
   7.6167683114   12.7402206340   11.6195071461
   3.1315938751   12.5609094683    9.1382544808
  -2.0169838254   14.1475130673    9.5631257184
  12.9655426825   15.9247062888    4.9692531368
   3.5817316449   14.0293710790   10.2769192156
   0.4831971956   17.3176845503    6.6091675571
  11.3881823849    3.0102550755   19.0999641910
  15.0457392749   10.4150797051    9.6323451697
  -0.7490698280   15.9522782353    6.9458766714
  15.4925798305    9.4574207725    5.0960624939
   4.4234365738    6.5304022417    4.4284017904
   7.3172481033    8.4697331774    4.2227841769
   4.3879153326    6.7780403615    6.1752539472
  -0.8439503074    9.8561150921    8.8899672927
  14.3129880275   13.6862222787    5.9594508088
   0.6043857913    7.2047737123    3.8085279284
  -0.6703837911   10.0598205216    5.5909019054
  -0.6670345275   17.1182958635    2.9555199232
   0.3650411582   17.7774164162    4.2226147917
   1.9282403205   15.0360855518    7.9962074593
   0.9000447913    6.7971908635    2.0960364046
  15.3400364796   14.8477330524    5.1630557722
   3.6700267830   15.3741611707    8.4189652482
  11.4297146244    6.5161159193    3.8315104921
   7.2607160034    7.3387920392   17.4301280841
   2.7778831595    6.5642375897    5.3750524544
   1.2503136238    8.5696048947    2.7112923318
   6.8356993472    6.9285702847    3.5174136582
   8.1307860334   16.2085675126   16.6387542450
  11.0851961501    4.8644043286    3.1804822161
   7.6381125500    7.0576141411    5.1872417260
   0.8510057033    4.7662399997   11.9892327256
   8.2568886398   19.0632141475   11.8441989976
  11.3403582790   10.3366190315    4.1938129937
   9.4008017417   15.0211400191   16.1064594562
  12.6088783484    7.0385026402    6.8155202249
  11.1051883766    8.7477189434    3.3764353556
   9.1577385887   17.6421887060   11.5101050398
  -0.8399132571   18.8755280973    3.4512233889
  11.8925981087   11.0075623021    1.4920072231
  13.0308848114    6.8651058665    1.5916429204
   8.5594816242    5.3406388271    3.0108697304
  -0.8978254638   13.4584179791    4.9244101019
  11.8432582148    9.1746323887    1.0137147094
  12.4863926633    5.2314676458    1.1709582537
   9.8035651164   16.3831656287   17.2141901746
   9.3388278552    5.5758981945    4.6310625686
   7.5851867558   17.5009875254   11.7411936637
   1.8158772053   14.4809657939    5.5763668607
  -1.1207655564   14.3225248082    3.3955746062
   9.2856822371    9.3876393035   10.6031031861
  14.3105075979    7.6872491591    6.4647161872
  -1.0338255725   12.4320255121    3.5247957580
  15.4284080947    7.5277249649    3.5695307314
   3.3186470628   15.5640115941    5.8895303672
  13.9692113855    6.0305336786    5.7504035915
   7.1033665158   19.2855358017   13.6982349391
  16.6733200128    6.5431815273    3.8158850632
  12.1019421384    9.1821941141    5.8540318502
  12.9566740018   10.2740578461    0.5827800092
   3.2355782643   13.8161543215    4.9795272714
  13.5110613239    9.6534886266    5.0604892639
  12.2366376941    6.6228116518    0.2041928883
   9.8138289414   13.1709250830   17.2779786583
  -0.7477034128    7.9344272394   14.2349085212
   9.4121907087   11.7024193153   19.1257643882
   7.3648723940   18.0066444991   15.0165986512
  10.6935004805   14.1610894234   18.5995325889
  14.7078921143    5.6815644004    2.3796600760
   9.3973182821   18.8209184069   15.8576961955
  15.1222317278    6.9407788337    1.2244265436
   8.0619431769   12.6027839729   19.2215910962
   1.8439944856   10.0184567134   16.7238777490
   1.2287903319   14.1703423958   16.1155285720
  10.1157189629   18.6481735347    5.8385890872
  11.2069610365    1.6791016576    6.4065270822
   5.3138471447   10.5553522031    8.2081425061
   3.6517377749   11.6520007213    5.1316115608
  11.2673083656    1.5602150120    8.1454126981
  16.0534075397    9.5311422204    0.7364517225
  15.6479228891   11.4554461080   18.6976700907
  14.7092601669    5.1471580328   11.9672459478
  15.1228801956   12.8584650347    1.7083096708
  14.3802061033   12.7244137482    0.0476541498
  -2.8216331213   19.8341979012   12.0964273161
   2.9852886270    1.4107864597   13.4619468368
   0.7617643555   17.4630799534   13.3661985032
   1.4194526209    2.3837663045    9.9670342002
   7.8348698172   19.9058935873   16.0941545523
   4.4057082064   11.6882540577    7.2978292037
  -2.0473042697   14.1458548153   15.3025469500
   9.1201491912   17.6825481823    3.6747066915
   3.5978039602   10.0870598502    9.2526520541
   2.4369005760    9.1001218664   15.2112016527
   7.6697255273   18.5524597623    5.3524522185
   0.4554303881    7.2977664161    0.1468555252
   1.7861231995   13.8941641208   14.4244234552
   9.7470964156   10.8616873936    2.8132620398
   2.0325729319   10.7713422357    8.6157099532
  11.3440040739   20.0898491121   14.3234466996
   4.3761871030   11.8474626285    3.6338671953
   2.7155746176   12.6815260713   16.0897302297
   1.4792392856   19.0182653524   13.6545209837
   2.9504214663    1.7972903425   11.0500685188
   9.8909852277   17.3418124007    7.2434988659
  -1.5863242984   12.2798247138   15.4176878719
  15.4326139861    3.7907123731    0.4226790734
   3.4875769389   10.3828783602   16.0088617411
  14.4427778710   11.4626858952    1.3407887069
  12.6939692505    0.9884222107    7.1316967413
   4.0503670389   10.1006680447    3.9830368708
   8.5710494752   10.2249177443    1.7036189242
  15.8787950851    6.3795033272   18.9809584103
   6.5825994325   10.2181436286    6.4436407792
  14.0010785680    2.5118875736   14.1472712653
  -0.8255454444    8.1106325116   18.4075500655
  10.7727130434   16.9462899757    3.7293181695
  -1.2037143635    7.8749623021    0.0891250036
  -0.9632731504   19.4236035323   14.2080649234
   0.3808755719    1.4661955319   13.5373125398
   1.6566460142   18.1145155618   12.0832469696
   2.5598069091    3.4837721711   10.9531114799
   0.7928584039   10.0583129640    0.4941982932
  -0.6291243290    3.9452122398    0.1406639583
   0.2097447006   12.0556447979   18.5578127101
   1.0935622692   11.9480846986   16.6554463545
  14.1680110009    1.7528625703   15.8083172251
   9.5003462604   15.9714713010    3.3608310348
   2.2569650300    9.0870182898    8.6645388979
   7.4697255118   17.2413690615    6.3957469689
   5.2118624154    9.2346762954    5.7727116175
   8.1604048957   11.8629300241    2.5507274093
  -0.8341625429   13.2812379543   16.5231690368
   4.5318369420    9.0070688321    1.6192948946
   8.3738314565   13.9139267021    7.7677374685
  12.1363024263   12.6608561516   14.0283522908
   4.1069952796    1.4461547082   16.4505306940
   1.9872843808    3.1324881731   18.3205674547
  -0.0721459817    6.2590154601    6.2664043721
   3.4378937581    5.6550995457    0.9797524323
   0.9472590683    3.4891348340    5.3075379413
  10.7846081970   11.2597187768    6.1288404577
   5.0506550601   17.9976122030   10.4249883060
  16.8058206071    1.0725499058    1.8376299792
  11.2987898105   10.5182524616   16.6018205306
   2.9714647838   16.6086390489    0.0533949300
  12.1995622538   17.1711320937   15.8584010088
   6.2677673970    1.4675898608    9.7686821191
   2.3088060302   14.3206859712    2.3297919577
   7.0031246277   13.8711981144    1.4745100636
  11.8672541768   19.4906671207    4.4609301219
   5.7065504104   13.7151864136   18.7201056476
  14.8149799384   15.6188860041   10.8299529789
   3.9026738072   18.9026903850    3.7165116694
   5.0207542533    1.4567079729    2.5537479021
  11.8927634559   16.0847073375   18.7759134415
   6.7166356824    2.6889448693    6.4231101866
  13.2583762526   18.5101612141   11.4695119191
  11.5904722734   15.1208405693   10.0444631140
   3.2749842172   15.3336064502   13.0465432268
   4.7831143608   17.5039879381   14.6128464177
  10.0870812632    4.0501671402   15.6022458335
   9.8115994897    3.8017468009   17.9820402359
  -0.7418923954   17.7320325232    8.2588676437
   9.5969334293   13.3683721341   11.5602382503
  12.0604122586   14.1592712873    4.4294426735
   1.5750651370   13.7485586393    9.9215593259
  15.5535024788   12.3050023751    9.7043366192
  15.7901890005    9.6141497449    7.1048124947
  11.7161748511    2.9044840437   16.9884160269
   3.8929755491    4.7535928598    5.5230895190
  -1.7144768835   17.4172438428    4.6170831912
   8.7963155678    7.2479384141    3.5056373390
   8.3961322338    6.9992950150   15.7473340043
  14.8665146779   13.2736724487    4.0537551162
   3.1246394794   13.7536819211    6.9939018364
   8.7553135767    7.8037307948   11.8104731832
  13.0781973340    7.5610080622    4.8911987715
  -0.7201699845    8.1120648469    2.5572518182
   0.4113409329    6.6469214775   12.4497641216
   8.7353640664   14.7388662013   18.0086464194
  10.9684168191    6.5217498810    1.8546631495
  12.9023554962    9.6898108766    2.7163046206
   8.6133952992   17.7889853273   13.4895207659
  16.6458206471    5.1308650592   11.3555956816
  15.9765694404    6.9684238033   12.6955238648
  16.5475721058    5.3137592443    1.5055292670
   1.8009210599   11.0807296395   15.0374057934
  12.5027421638    1.2786878484   14.6130263709
   5.6236373857   11.0507454235    4.9761264664
   7.7252152188   19.1590586522    7.3790351254
   9.5822466923   11.8879216620    1.0200089277
  -0.1095356830   10.0586655565   18.4202952025
  -0.1378403031   19.0757751656   12.2439810152
   1.1607996053    2.5030773809   12.0967834080
  -1.4825332878   11.6466105192    0.4652711268
   9.5678054913   16.5400444634    5.4161215292
  -0.1462660973   13.6662910192   14.6396293739
   3.4625743064    9.8701117045    7.2447017796
