B2 C140 Ca1 F48 H298 O66 
1.0
1.8090579684664231e+01 -2.1796448197180899e-16 -1.4777843679686120e-16 
-2.2782864008497672e+00 1.9570500836906646e+01 -8.3769582812129659e-18 
-8.6348892490232376e-01 9.2118678050636893e-02 1.9454982353494088e+01 
B C Ca F H O 
2 140 1 48 298 66 
Cartesian
  10.1097881981    2.3245899897   16.9073476688
  -1.1460744979    5.7277597044   11.9980638858
   0.0887663472    0.6894594457    1.5137302566
   7.5353841644   13.8658241652    6.6420553198
   5.4231192400    6.3824247157    1.3344368701
  12.8882108083   12.6570342558   12.5122054538
   3.8803436606    1.6282789909   16.0864124982
   1.7637820543    0.8136484305   18.8611279771
   1.5238515045    2.5269138648    5.3160321316
   2.4164490135    0.4644598603   17.4832182559
  -0.5548193469    3.1765022376    6.2880384093
   3.5341406148    5.3298671278   18.9965371404
   2.0626640558   15.3034703719   18.5211616154
   0.4222468054    2.7527529059   18.3119458455
  12.0984407126   15.1668044784   15.4615990863
   4.3874261861    9.9189652500    0.7474318164
   6.1791521824   16.6404356052    8.8756373674
  13.2377584686   11.7527474896   16.0276386057
   9.4731474709   11.6288332551    6.2931398333
   9.7853378472   13.2044101000    6.0358935294
  13.2649493686   11.4403701797   14.5255777826
   4.4547360738    7.6389310284    1.6176770945
  11.2578317641   10.6709234591   16.6984936507
  11.6283320742   10.9824951130    6.9494104184
  -0.0155026927    4.4369973787    6.9186664171
   0.0631664627    6.7266329739    6.7737098420
   5.0238257498   18.6662482074    9.5432719027
   2.5782673197   16.1266910816    1.3366860680
  16.4887312460    1.3991172562    2.9570802392
   3.8117188867   18.9741517809   10.3885216271
   2.2083432342   14.8606906327    1.9373697093
  13.4041335136   16.2045922004   17.1921355914
   5.2808348688    1.4212741267   11.1489779608
   7.9847675752   13.0987215234    3.0777641128
  15.1684266820    0.9591195232    3.7299282464
   6.7572585556   14.1977823155    1.3554345836
   5.5540614160   14.2539603808   19.3237122160
  -1.7657150990   15.1306249198   12.2933749287
   3.3108518868   12.6429751597    2.7365600318
  13.0389165647   15.3612328859   18.4228254070
   5.7278556116   12.4667286113   17.6961033113
   5.5644471360   17.7254280084    3.9992887154
   7.1490810476    0.1397147544    2.5722365161
   6.1269458466    1.2319621114    2.8570119000
   3.9986013929    2.1237369361    2.2780172891
  -1.9855192970   17.1654435529   11.0377346670
   5.9115349965    0.7902728752    6.4896132461
  12.7051926140   14.8174393406    8.8112999360
  14.6165302389   17.1293213898   10.7544653190
   3.4626095902   15.2499194686   12.2612115116
  13.0202993530   18.1679146688    4.1888051442
   7.0111853600    2.0520781340   18.1445659408
   7.9242665929    4.1025578300   19.1702026776
   8.0777993229    3.1655943009   17.9419306140
   4.2392340006   14.9279763914   14.5254219459
  12.5582326180   17.8000865396   11.9829498868
  10.5664900291   14.5091387336    9.9576088562
   9.3167946322    2.2830343709   13.2388440331
  12.9672692668   16.3559939084    0.7231974402
  13.3696852056   12.7614974397    3.7406648195
  10.0267762625   13.8223570980   11.1913739242
   5.0523304685    2.9913148128    6.4696149053
   1.9098359555   12.4377114679   11.0129827014
   4.8446219862   16.2423674897   15.1858842776
   1.2497252421   18.4152516251    8.2246146636
  10.3822232311    2.4375822014   14.3716907056
  11.4221635311    3.5384055608   14.1135575109
   5.2353257778    4.6040436814    6.3373186662
   5.2857296206   18.3843488994   14.1059565865
   9.6591406710   11.7893329785   10.0721564846
  -1.2000672222   13.2995739120    8.1558614338
  15.7753557164   11.2664967812    8.3741924335
   0.3382781796   17.1335014457    6.6504785105
  -1.3310709434   10.2164330927    7.7787917327
   5.4280555382    6.3701867932   15.4776717856
  14.5981936438   14.7551666265    4.2958883478
  -0.6903181652   17.7891204211    5.7764000708
   3.6656080630   12.6565731731    9.2336281044
  16.5057057159   10.2385249061    5.4386486165
   3.6736074203    6.3683315123    5.5183422252
  11.7151671918    1.6071307709   18.4392273650
   1.9899704367    4.6010272448   13.2053661160
   9.7250692240   19.5489913399   18.5999871312
  16.0159478897   14.3405083022    4.5324980807
   6.8205842450    6.8407762395   16.0256853252
   3.6598387770   13.5921233403    7.9847446501
   8.1693656206    7.4873323416    4.6687449957
   0.4094144915   18.1379933551    3.9081333896
   7.1310676192    8.3234905870   15.7528470874
  10.1566408457    7.4258243771    9.6862622101
   0.9913974480    7.5269364515    2.7590884686
  12.9662012441    2.4839882410   18.7421415099
   1.9388223884    5.2967266827   10.6775630016
   1.1657086575    5.0120084737   11.9740196578
  10.7412948090    5.2413294175    3.2573641013
   9.3856582552    5.7724775182    3.8053981062
   8.7662499149   14.9970537392   17.3703519982
   9.1572513877    7.9347084779   10.7970772477
  12.5618320363    8.3863936411    4.1262937148
   8.8133659499   18.6501533493   11.9062158886
  -0.3433471599   12.8662465080    3.7358814638
  14.1481846496    5.8322941992    6.6411453173
   7.7319946718    8.3773765417   10.4622847019
  13.5446947591    9.4594739907    2.1270490750
  12.3731791277    5.3975582696    1.5767708512
   2.6175600224   14.0484546717    5.9763539261
  12.9940404519    7.6829412334    5.5059776190
  16.6572513703    7.1095644049    3.0972098962
   9.0059607621   17.4897182370   13.8998076676
   9.2945721630   12.7992335367   18.3743025741
  15.2610051785    7.7497243787   14.4556506412
  16.3793184060    7.5696079361   13.3674860347
  16.3086309632    6.1206634678    1.9800386513
  15.0762804713    2.7088088186   11.2958918215
   8.6515163897   11.5854744010   19.1926449996
  15.2731978005    4.2534566019   11.3084189776
  10.0134327565   18.2182454762   14.7745927948
  14.7338835828    4.9186198693   10.0170149523
  -1.5499074137    8.9019458695   12.5309633723
  11.8331977319    0.1173990046    6.9728621346
   2.9281765101    9.6139201865   15.9944980433
  -0.5485970275   10.5065433922    0.1396355713
   1.1573631578   12.8954704476   15.6752203783
  16.0968330563   12.2859577479    0.3293422205
   4.8841816368   10.1333712380    7.2111330457
   5.5529226194    9.7465767227    4.1945839889
   9.8121319778   16.5495584354    5.7045185518
   8.6284086181   17.5603863126    6.1830570185
   1.8312859475   11.6250503619   16.2346878895
   2.3271854215    0.1053519879   12.4502027016
   1.1763581487    0.8272482852   11.8342878514
   1.2943665516   17.6536629911   12.5883571362
   0.4427418312    1.1562449028    9.4754969438
   9.7751877153   10.3277402079    1.7066045538
   2.4757997332    9.9846581049    7.0672662227
   6.2057390015    9.7121603486    6.5648902577
  13.5476955903    0.6200037445   14.9430230266
  -0.1381347336    7.9026943170   18.4515869986
  16.4655022184    4.2675555550    0.6626495709
  -1.1940833359   12.5097535806   15.6053727746
  -0.0576496260   10.1888644860   19.4015964880
   9.5812545692   16.5581178454    3.2076573995
   8.9093866739    5.9587562738   13.5643363043
   6.6864728252    1.6608823752   16.8941849651
   8.8799712742    4.9941922378   19.0809920356
   8.9508321009    3.5604045282   12.7196586106
   7.5728046150    1.0192308572   18.8198853925
   9.1445117617    3.2768295562    0.8277389213
   5.7967720605    2.3935383152   18.7613474114
   6.7844228773    4.7998022011   19.2906138632
   8.2236348812    1.6747411012   13.7667260112
  11.8324171994    3.3771482294   12.8107950184
   9.7873838463    1.6545158774   12.0941543051
  12.5515882212    3.4678771614   14.8664985367
   4.4115490243    7.0809701010   15.8638920733
   5.3639925464    5.0051414899   15.9218000297
  10.9771932547    4.8565142466   14.3122802942
   5.1798550399    6.2279001243   14.1249441312
   2.6869092771    3.4952429194   13.0843485124
   8.5412466482   18.8404823177   18.2447547579
   2.8769317667    5.5883570973   13.4068038490
  11.4562168368    7.5540509931    9.9899606907
   1.0471535544    4.9394801558    9.6968109061
   7.5231813607    8.6270505868   14.4062579752
   8.1631113676    8.7032742564   16.5109453001
   1.1300869975    4.2308751383   14.2619409366
   9.8888238178    8.1996602635    8.5411878193
  10.9521164313   19.1525351691    0.4041702773
  14.0807337174    2.1038768407   18.0789680278
  10.7316733417   19.2151072879   17.7993927689
   3.0273628267    4.5260930666   10.6318484891
   9.9859534467    6.0839489589    9.2041818582
   7.1407649507    8.8840694888   11.5580428482
  13.9719444864    2.3174828261    0.7005077211
  12.7278932363    3.7552605111   18.4141452822
   6.1272015498    9.2089199136   16.0176909975
   2.3591118719    6.6042157600   10.5717785721
   6.9243561304    7.2904540358   10.0129986917
  15.4175186724    8.7417779827   15.3724296626
   7.6034305861    9.2706781574    9.4926441577
  13.6935704231    2.5313786747   10.9915593081
  14.0824088795    7.7457348789   13.8439623477
  15.1325006200    4.4359294585    8.8083005034
  15.7687974784    1.9931369274   10.4491009027
  15.1621465491    6.2147290260    9.9823186060
  15.2462058672    6.5162928915   15.0144647370
  -0.7975691448    8.5137247807   11.5011239133
  15.2677044677    2.2621786771   12.5970364353
  -0.8071117780    9.7950565612   13.3050240912
  13.3836365618    4.8020024179    9.9678680142
  15.4400479749    9.5050026448   12.0902235775
   0.6663159363    0.3723239159   18.8985113121
  13.8350487747   12.6484614136   16.2269936788
   2.0419799051    2.2639108853    4.2749944014
   6.1316436899    6.3177000464    2.2232629741
   5.4085304008   16.5475901084    8.1366022232
   9.0516386219   11.5807810428    7.3066756699
   5.9396631523    6.6628023843    0.3177427688
   4.4151522870    2.6126645523   16.2526647795
  16.4633022353    3.3169172928    5.9986965059
   0.1278085962    1.7782485424    1.6786852101
   0.9500707965   15.4313333128   18.6046777014
   0.0624568371    0.5359918389    0.3811931145
   6.9780112587   13.6887236632    7.5271496432
  -0.0770271138    1.9027686016   17.7571769596
   1.0334119847    0.1417167997    1.8299911999
  11.7674987446   12.4077176943   12.4393902079
   0.2173091834   18.9912093205   17.2658963991
   7.3860189434   14.9311352895    6.2186721659
  12.9963130670   14.7385035591   14.9037216238
   5.0418536963   10.7004630996    0.3617987303
  13.4619223970   12.0588148620   11.7154909567
   2.9944100636    4.3340982107   18.8017620968
   2.6612736596    6.0419520846   18.7537245267
  11.7420500430   10.0255643384   17.4824362869
  11.7264512135    9.9980853022    7.3180341787
   1.6048179945    1.5992999020    5.8609920880
  -0.4632036586    2.3581897749    6.9839336590
  10.7182200349   13.5982828191    6.2865034995
   2.8938978952    1.9769874278   15.6281583891
   5.7275442924   19.3969427137    9.7269810037
  11.9640484856   14.2140157678   16.1302421899
  12.4949237312   10.7863628814   14.3002745149
   2.5142430495   14.2598964253   18.5345542310
   2.3806807301   15.8078514006   17.6422022664
  11.2854289885   15.2619321978   14.7547572414
   7.1481795092   17.0524994109    8.4503416397
   0.7467009269    3.5111551262   17.6556718495
   3.2242291863   16.7790492798    1.8945469658
  -0.9557930763    7.0291061270    6.8859802791
  13.6258670334   10.8443215101   16.5792730552
   2.1215860989    3.2525395629    5.7926072135
   6.4457966904   15.6186824807    9.2271931749
   8.5563981391   11.3416755745    5.7115311598
   3.8146323816   10.3186362345    1.6803917149
   7.2342639084   13.0397396267    6.0222447793
   2.8412314385    9.7487773494   19.3439066349
   4.3393496726    5.6159723782   18.3969001439
  13.0866527650   13.6834325605   12.2589072501
   3.2420524329    0.2803379962    0.3252494076
   4.4213809898    0.9215067498   15.4261384299
  -0.0550647543    3.1969497355   19.0806253807
   1.6697403331    0.8356006644   16.7889731920
  17.2663414017    1.5855305062    3.6996962089
  16.2139010830    2.2989021984    2.5232966309
  11.3569358064   10.2945062936   15.7694543463
   4.3223795178    7.8644027836    2.6778964832
   3.5339806002    7.4203045105    1.1178779949
   0.6765577631    7.5144909094    6.2174374002
   0.9149338922    4.3367640163    7.4789031810
   1.6697713597   16.7386322269    1.0054894624
  12.5220219420   11.3055185195    6.4707223177
   4.1386776153   18.9653551064   11.3823290537
  11.4914235301   11.5542559192    7.9241649257
  10.2674882547   10.8902879076   17.0106348520
   9.4882984639   13.4935959158    5.0208853199
  14.1576337946   10.8153744275   14.4670674215
   4.6668043078   18.7973569316    8.5051588637
   8.3326774376   14.0386649994    3.6868800754
  -0.7712718941    4.6279509350    7.6888085566
   0.6691495030    6.6631325138    7.7072679842
   6.8281337136   15.2412691896    1.7133672463
   6.2176831691    1.9547817750   11.3610349301
   1.5341737295   14.1561850865    1.5019565584
  13.6386103391   17.3505341315   17.3779564825
  14.3304233479   15.7049998163   16.7557762542
   4.5828145064   14.6977946323   19.0546202094
  15.2916735831   15.3753045947   12.6093129890
   8.7512325359   12.3459350352    3.1676993462
   4.5020467476    2.1786476909   10.9302765402
   3.0800211802   18.2098350459   10.1606570563
   6.0214319168   11.4087776185   17.5955848201
  -1.9452117725   14.0131807320   11.9509512735
  14.4459260535    0.7428884985    2.9927522789
  14.8632214045    1.8038188934    4.4832591930
   5.2080042851   16.6954990171    4.0279844821
   5.4028050437    0.5222421014    7.4221517040
   4.9985031070   19.3960250002    1.5382645597
   1.5350445660   15.2263166459    2.8542182578
   6.1213968735    1.3947581484    3.8862595764
   2.9027728915    1.9687418934    2.1015260849
  -1.6338130221   17.6833920142   12.0561422251
   2.7719622987   12.4704824820    3.7079979908
   2.8306870416   12.0424922411    2.0062336074
   7.0747771964   12.6416300153    3.2772158745
  12.8772842793   14.2746258606   18.1774144852
   5.2233280502    0.8466686246   12.0528852598
  13.9106518778   15.4374339059   19.1260570242
   6.4483469979   13.0531177262   17.1320949702
  12.3543221211   14.4155134080    7.7845523243
  14.2628812959   16.1821844166   11.1218702506
   5.9147485479   13.8557663837    1.9949518038
   2.6615791686   14.6767807944   11.6679649787
   5.8117081509   18.0074592696    5.0367901328
   4.4419397451   14.7995037977   12.0465718958
  13.8183352526   14.6529382536    8.9523348761
   4.2884297923    2.8883975855    1.5428399070
  -1.0134997347   15.0872948862   13.1208560577
   6.4543469509   14.5590119023   18.6951525015
   4.3229868958   12.2408976161    2.8463490312
   6.8615891325    0.1301996132    6.3973389873
   5.3035470008    0.4371157679    5.6393599642
   4.7085156583   12.5815210323   17.1117617450
   7.8877971723    3.7180575338   17.0105262043
  12.4656667051   18.5537039866   12.7151090015
   3.8868146993   14.1937725287   15.2986178082
   4.9894098581   14.4409255965   13.9124587590
  10.1522403849   14.2224169727    9.0167415047
   3.3727201028   16.3712528431   12.1469780087
   6.4661669589   17.8795592648    3.3978935088
   8.0960412119    0.5404782548    2.9983426702
  -1.2654563834   17.3956148476   10.2527224984
  13.5676987833   17.9218111019    3.2693963302
   6.4167718652    2.1177458825    2.3216101841
  11.9326578817   18.1567366029    3.9613059228
  13.0652309894   17.4149496562    4.9812073168
   4.0857379792    2.6393396263    3.2586574093
  12.6149935009   15.9358104104    8.9041927435
  14.4366083424   17.0922379936    9.7167007767
  10.5887651231   14.1978310811   12.1227627540
   1.2700924473   18.8201011703    9.2706231549
   2.2610230874   12.6335859363   12.1257045468
  12.6160347179   12.0476177010    3.9516347918
  14.3616052436   12.2060947405    3.7406335211
  11.7645375553   17.8227689727   11.2735847136
  12.0911946252   16.5694734792    1.3267329846
  13.7473879767   15.9541032305    1.4477394889
   0.8397034816   12.7391849173   10.8860909772
  12.6113193504   16.8231351001   12.5315006110
   1.9960430331   11.3454107457   10.8676674242
  13.0953570011   13.2080809203    2.8382911244
   4.1244745994    2.9020105343    5.8173075496
  10.4194586370   15.6280438352   10.0635121471
  15.9960564450   13.5825316034    7.5690819855
  10.0938583314   10.8336086279    9.9442453674
   4.6317916060    2.6362445054    7.4402833853
  13.4348613405   17.3145055285    0.3906055474
   5.7596890329    4.8037957029    5.4382096137
   5.9249513496    5.0087123808    7.0980490312
  15.2022099919   11.5851412503    7.5160083687
   5.5420800923   18.7675848244   13.1191687618
   1.3889049082   19.2445455447    7.4492017931
   2.2616796115   17.9770995827    8.1131662322
   8.9142884925   13.8888640395   11.2772672819
   5.5806152443   15.9349171632   16.1009626104
   4.0468298274   16.6862822303   15.8272484621
  -0.2968896092   13.1021562837    7.5148243502
  -0.3911512957   10.8406378918    7.5003479675
  11.0489177343    1.5254599038   14.3736783554
  14.4379442689   14.8613959262    3.2087390529
   5.8992699165   18.9519253416   14.8718278639
   9.7896669938   12.4112935449    9.1178627352
  16.0155895983   11.2249287059    5.2493126927
   4.2150922946   18.6685137288   14.3779511201
  -0.6095210272   18.9224622931    5.7624377142
  -1.6283733327   17.4881812609    6.3179590959
   8.5346214404   11.7347383937   10.1516027981
   3.3845222369   11.7531915824    8.8229895829
  -1.0144112912   14.1873516372    8.7116267796
  14.5132534754   15.6021178276    4.9933395703
   4.6662240772   12.6803391841    9.6688557158
   1.3180789551   17.3531047046    6.2149006354
  10.9251161377    1.8266386864   19.1932983987
  15.2067988068   10.9099228484    9.2326633336
   0.1965776677   16.0454962970    6.6276593831
  16.1696761544    9.5604770836    4.5963086046
   2.7653652774    6.2160702491    4.9195856073
   8.0710233259    8.5572787900    4.5872623473
   4.5031682638    6.4499409843    4.8708547029
  -0.9948641452    9.3069586564    8.3811402726
  16.1775199318   13.9148555859    5.5612188586
   1.3698577625    7.1422848151    3.6258209551
  -0.3946656463   10.3087320974    5.4421909616
   0.7769593227   17.6998376177    2.9516113985
   1.2784484727   18.4030988376    4.4513024509
   3.8487963636   14.5973295442    8.4071182402
   1.1506536368    6.7355769740    2.0073854767
  -1.4187507889   15.2867178518    4.4029623726
   4.5282371003   13.1898390009    7.2880791987
  11.7320317930    5.4092695904    3.8051937020
   6.7686182313    6.7349891655   17.0921723879
   3.4165842377    7.2367207803    6.2075236879
   1.4687900510    8.4389444821    2.5445885683
   7.3523252815    7.1608744405    3.9329599412
   8.5248503190   15.9986907475   17.7584264032
  10.5370777920    4.1344033830    3.1640623969
   8.0604762658    6.8840798014    5.5303274110
   0.6800465444    4.1356337819   11.9029803115
   7.7329756454   18.9626230396   12.1933491463
  11.7970836766    9.1511000527    4.4807402335
   8.1533043054   14.5682383907   16.6403363789
  13.3172099176    5.3666832793    7.0091786025
  12.0624991781    7.7016078666    3.4520719655
   9.3673740724   19.5456888611   12.1187157573
  -0.2045311856   18.9856069339    3.7285931448
  14.6294892989    9.4783261070    1.7983925605
  13.1120956715    5.7913859571    2.3908010656
   8.6632584328    5.7728495584    2.9387232090
  -0.1550787516   12.3731086938    4.7423930838
  13.1079116420   10.5147739080    2.2392419575
  12.4832670697    4.2444767679    1.7600588142
   9.7748837948   15.0267878407   17.0155110153
   9.0433232517    5.0518310088    4.5851835291
   8.8475209123   18.2931673164   10.8909090313
   2.3083373586   15.1867705898    5.9962383082
   0.3556218701   13.7693903182    3.6363825383
   9.7636053447    8.8330225780   11.0604655950
  14.3389260452    6.5930808539    7.4296583639
  -0.1542733229   12.0872574100    2.9681160882
  15.7461522455    7.7513528671    3.2709889763
   3.5766297653   13.9210998516    5.6036405726
  15.0862844617    5.1701594486    6.6771783837
   7.9643383176   17.7030467675   14.0644470038
  16.8436576609    6.4871939880    4.0689456623
  12.0111505678    7.4378592872    6.0116487655
  13.0113936446    8.8035315429    1.4938955939
   2.0035049420   13.3682505800    5.4241050693
  13.4728687119    8.5658251504    5.9144988536
  12.5542809929    5.7133198561    0.5143004083
   8.9934310660   12.6696137945   17.3568210928
  -0.7643054821    7.4463130387   13.8884425934
   8.5327454967   10.7791591272   18.3303250575
   9.0075087961   16.3904246736   14.2533579205
  10.3566438886   12.6649109397   18.3961116953
  15.2160806358    5.7284579505    2.2500189683
  10.9730360909   17.6111409741   14.7203592285
  16.3561007398    6.5781711198    1.0082627063
   8.5148219516   11.8190276762    0.1800075240
   2.1096808622    9.0808918641   16.4916119456
   0.8247772267   13.3870649532   16.6442721241
  10.8761428307   17.0890136277    5.7961759895
  11.2687959390    0.6177316958    6.2361471665
   5.0438548184   10.2043077954    8.2885090310
   5.6932516332   10.4948369885    3.2823993445
  11.7654098334    0.7278516615    7.9169979591
  -1.1061874792    9.6243258063    0.7544567948
  -1.9519993955   10.6372610905   18.6553681010
  14.7116201983    4.5510539961   12.2239416898
  15.8888212759   13.2835795139    0.6914702190
  15.2635418853   12.2192536025   18.6966996350
   0.1649485903    0.3505240933   11.7691624020
   3.1513279954    0.8692129847   12.5942650577
   0.7506326260   17.1489965945   13.4092418109
  -0.4405229369    0.6099684048    9.9076470446
   9.7089200256   18.2517131325   15.8405727717
   4.5983860878   11.1122020372    6.8373490082
  -2.0065707948   12.7820601912   14.8537315124
   8.6174892731   16.9652806007    2.8563087718
   2.2248185523   10.2250500721    8.1107886345
   3.6669746912    9.2114872203   15.3439527259
   8.3620419932   17.9774791836    5.1900156500
   0.6522345610    7.4190318417   18.9118474792
   1.8178536474   13.5697094201   15.1115163598
  10.5995224690   10.0068602542    2.3907637632
   2.5768484878   10.8352339524    6.4224518714
  11.8175457678   19.5701982148   15.7429749629
   5.8473186483    8.7517164384    3.7999808855
   2.5572197942   12.0094986668   16.9589875665
   2.1642139575   18.1353763962   13.0094362118
   0.9257085219    0.5551041820    8.7635769991
   9.8819184292   15.7521383506    6.4123389330
  -1.3451741013   11.5049728248   16.0366953434
  15.3863040522    4.5661834909    0.6995622705
   3.5244059324    9.9913867941   16.7776281955
  15.3370652322   11.5789408416    0.5761241102
  12.9265532114    0.1320605448    6.7064769737
   4.4244153839    9.6756585731    4.4304362654
   9.1975676275    9.4590886780    1.3783654424
  16.2164638357    4.5185761567   19.0764659298
   6.8972989772   10.3616932922    7.1757890871
  14.3364845822    1.0924355299   14.2831366660
  -0.2291447238    7.5064208714   17.3451555510
  10.3217405736   17.4831674583    3.1851723133
  -1.0991893500    7.6435444563   18.9532789032
  -0.3569162304   19.4195583124   13.5261192351
   1.0921939731    1.6485145228   12.6771996661
   1.3218968481   16.7964757961   11.9068446444
   0.0751050866    2.1030127678    9.0467510800
   1.2019112985    9.6237877598    0.8008060805
  16.7100944506    3.2252755014    0.8228143075
   0.5386826455   11.1193076499   19.1595157113
   1.0475104871   11.0414039860   16.8633715856
  13.0945973275    1.3680782586   15.5925402255
   9.8919562208   15.9176482493    2.4081681887
   1.6550000247    9.4396826544    6.5607962202
   7.7466079783   17.0237605718    6.4835254052
   6.2408178433    8.6190931352    6.7505307894
   9.1894706150   11.0710639605    2.2276861786
  -1.3510039858   13.3165346151   16.4384773453
   5.0957978957    8.8120466238    1.1251926401
   8.9516672298   13.9113702722    6.9578717223
  13.3978775293   12.6426155562   13.8581910184
   3.5653792559    1.2087596890   17.3821203026
   1.5443758297    2.1689413250   18.9201974225
   0.0697622356    5.4775566379    5.9985597131
   4.6986975646    5.2121338553    0.9619514256
   0.1484892387    2.8418746301    5.0180325816
  10.5846692959   10.8609601089    6.0247797895
   5.6043278087   17.4481386961    9.9644121222
  16.9321313497    0.3382803618    2.1529686984
  11.9148645111   11.9212671295   16.7184417475
   3.5322277954   15.9632119920    0.2709076618
  12.3742850524   16.2790529446   16.3194420379
   5.5278598288    0.5949297668   10.0263131135
   3.4254783699   14.0876685677    2.4593830718
   7.8358639704   13.3843162749    1.7089893121
  13.2442462637   19.4880748203    4.6112604223
   5.5886902563   12.8343518034   19.0244951353
  -1.4696329878   15.7482130996   11.0716065176
   4.5082551341   18.5465437830    3.4375445237
   4.7784018737    0.9036389779    2.3105271993
  11.8058907614   15.6564122675   19.0328638157
   6.1294789665    2.1971585770    6.0935879856
  13.8562009123   18.1278496814   11.4241653192
  11.9841882470   14.0828122096    9.8108299451
   3.0771849658   15.2218608184   13.6651610820
   5.3581741827   16.9848648863   14.1177604228
   9.7578813590    2.5715831082   15.5939794534
   9.3853982552    2.7889004822   17.9177671117
   0.1930654785   17.6359322670    7.9024885454
  10.2768081631   12.3646315347   11.1553398611
  13.5527340199   13.8150910566    4.7583296620
   2.6271520020   13.2289506607    9.9805786639
  -1.6675228240   12.3375859538    9.0865607540
  16.0366961589    9.6373611522    6.6233448923
  11.3440171071    1.8170633658   17.1253406980
   3.9606346225    5.2024020009    6.3234649475
  -0.4547517988   17.2601347760    4.4932409266
   9.4413891959    7.1323875061    4.2321609798
   7.6395939642    5.8860675808   15.4726860049
  16.3781905106   13.2541378339    3.6710617933
   2.5768522065   13.4480505616    7.3182137512
   9.0732326305    7.1643441104   11.8831562068
  13.8770270345    6.5116499711    5.3746789731
  -0.3356073298    7.9819780768    2.7677655102
   0.2184484392    6.0398673314   12.2626133555
   8.7248409900   14.1882847933   18.6799542690
  10.9953553317    5.7356002765    1.9276884495
  13.7133861083    8.9408667765    3.4673651613
   9.2226388290   17.3919095375   12.5026780773
  16.6607965375    4.5613349602   11.3642039729
  15.9058870867    6.5892070678   12.4695085216
  17.0843936940    4.9957754817    1.7269650936
   2.3576164091   10.7543575413   15.1937284435
  10.2794792832   19.4902114180   14.1700912274
   6.3807680953   10.2693157099    5.2665340616
   9.0339324633   18.3981411986    7.1995962121
  10.4207191872   11.0865732792    0.6895861959
   0.0747463023    9.2844524415   18.2210206890
   0.4872303305   18.5161761343   11.7869818488
   1.4459243451    1.5637193923   10.5789379800
  -0.6331374125   11.7421423659    0.7459354492
   9.5325135228   15.9107379872    4.5092531898
  -0.0383130711   12.7009389602   14.8336674322
   3.7134553865    9.2316994405    6.9653038926
