B2 C140 Ca1 F48 H298 O66 
1.0
1.7972853950733949e+01 -1.5330734718045207e-16 -5.1454957256618733e-18 
-2.4351210168630995e+00 1.9502329690183512e+01 2.4371369572000005e-17 
-9.5847131927389229e-01 7.0463474688486927e-01 1.9407350408559207e+01 
B C Ca F H O 
2 140 1 48 298 66 
Cartesian
   9.8882507129    2.8065663057   16.8672564115
  -1.2280410067    6.0261897412   11.9798504481
   0.1385262646    0.6729244937    1.8053642057
   7.2727225081   13.9728281049    6.6602226485
   5.1567036639    6.2081493865    1.2971563504
  12.4141739042   12.6046094174   12.5811438097
   3.6744266408    2.2598415148   15.6091251564
   1.7184976591    1.7537717513   18.4379077673
   1.4231974445    2.6854919626    5.3353297662
   2.1453094723    1.3417001014   17.0203849943
  -0.6386474785    3.8134781777    5.9905518492
   3.3108311492    5.8163470220   18.7730027005
   1.9080010130   16.0921948922   18.8010207127
   0.3765863356    3.5943233600   17.8629208801
  12.0574560087   15.6758169675   15.2752373017
   4.5178213022    9.7914547414    0.7175094923
   6.5513148858   17.2014611426    9.0575779992
  12.7519130172   11.7464826669   16.0577236327
   9.6665719093   11.7582908900    6.2553417250
   9.5925283912   13.3674762726    6.1790526265
  13.1606317630   11.5117769658   14.6447398023
   4.3023669302    7.5549538071    1.4532369837
  10.9659219856   10.4729924435   16.6714145484
  12.0612712051   11.5109324981    6.8670874463
   0.0205861827    4.7949404309    6.9537851480
   0.3503990558    7.2145845939    6.6760859267
   4.8533877593   18.7324016159    9.6603180081
   2.6584508793   16.2947088583    1.6671764830
  16.4286628582    1.6507254173    3.1134338257
   3.8334260754   19.1316161200   10.7056003406
   2.1037175862   14.9079567762    2.1688062712
  13.2748688745   16.6505834230   16.9851071578
   5.3153742044    1.7833770952   10.8572496521
   7.7457296638   13.7511774245    3.0307023522
  15.0749340394    1.1841280522    3.8383798390
   6.4873784570   14.2990793748    1.0034790360
   5.5212449991   14.6641432628   18.9001014290
  -1.9474565969   15.4630641971   12.2365695514
   2.7128132318   12.5716873302    2.4527487526
  12.8352908157   15.6432445214   18.0607289899
   5.6074079480   13.0629701264   17.2026847573
   5.5216150713   17.9418833101    3.5035620491
   7.1852483526    0.4820255671    2.4324016671
   6.0874091970    1.4049910206    2.8210143471
   3.7262087683    1.7250446027    2.3818588186
  -2.3095256273   17.2817244895   10.7486866336
   6.3414839910    1.0154188119    6.1777352059
  12.3122253776   15.1745008482    8.7687443738
  14.1541486980   17.4536227909   10.6311756432
   3.5803168902   15.4916567735   12.3113723609
  13.1566068384   18.2446002982    4.2122725329
   6.7859499833    2.2259377948   18.2499721361
   7.6119904404    4.5709583355   19.1775164217
   7.7146187956    3.4761357550   18.0538763640
   3.9599820969   15.2979297830   14.6069889287
  12.2089929943   18.2026309572   11.8176992094
  10.3694891562   14.7868437379   10.0795523391
   9.1709677259    2.7858300279   13.1831179724
  12.5359757865   15.9345742128    0.5023231056
  12.8048356910   13.0728292195    3.4253208225
   9.4987469579   13.9960571339   11.1168105090
   5.0836793688    3.2162432295    6.6208755155
   1.9019719344   12.6880299308   10.7587428333
   4.0455175333   16.7348264927   15.0520866264
   1.1385540902   18.6209342642    8.1663178182
  10.2074844917    2.9538646070   14.3379464834
  11.1923976129    4.1162427250   14.0101590940
   5.3830993194    4.8115547559    6.4766215727
   4.8547272665   18.9412735800   14.3717409024
   9.3285815867   11.8506670766   10.0348133822
  -1.0615142395   13.3355432150    8.5336752191
  15.4515395051   11.3699412400    8.4345149044
  -0.0030564815   17.0658049604    6.6292304064
  -1.4468317032   10.4173103038    7.9348649897
   5.3631956865    6.6313038284   15.7966534396
  14.1611258167   14.7477520869    4.4050453311
  -0.9916221595   17.7811711085    5.8288355180
   3.3307376096   13.5155183898    9.1423872224
  15.7902090193   10.0508264804    5.6093109572
   3.9242036367    6.3533613268    5.4182388155
  11.6879940732    2.1508829489   18.3028049078
   1.8705077994    4.9935006925   13.3083949938
   9.5087343576   20.1476508399   18.4552291837
  15.5212007648   14.0501782103    4.5580760389
   6.8614195503    7.1979410340   16.0900024908
   3.4681010633   14.1944123456    7.7200510568
   7.6811977248    7.5103272575    4.3563606879
   0.2992894058   18.2338968068    3.6986731540
   6.9157161232    8.7799258662   15.7364461629
   9.8245397545    7.7042685227    9.4879607722
   0.6190356943    8.0373070884    3.0030320614
  12.9075522672    2.9894557494   18.7404327238
   1.9688872977    5.6326536645   10.7742444764
   1.1298816955    5.2320806292   11.9979251416
  10.7862799633    5.4822896317    3.2758953353
   9.3300480057    5.7206346440    3.7763010243
   8.6533274099   15.4426237041   17.4350093795
   8.9717278513    8.2975950756   10.5808172512
  12.3474961378    8.5226955417    4.0652804284
   9.0007437697   18.3129049702   11.3618298468
  -0.6527616551   13.0599942353    3.3210249692
  14.3187707646    6.4537626798    6.4773194173
   7.5334731932    8.5456066000   10.1411877655
  13.5578329695    9.5552221086    2.3473166248
  12.1798669658    5.9087884225    1.3756454732
   2.8670666674   14.1368525823    5.5661241759
  12.5797531984    7.9412766214    5.4809819685
  16.2622244412    7.2617622978    3.3429976320
   8.6675022529   17.9346070223   13.7192886631
   9.0958136619   13.2159090651   17.9389408341
  15.0365191128    7.9692943860   14.6009067912
  16.0793885294    7.9548056392   13.4494825305
  15.9976937187    6.5344029509    2.0190967619
  14.9925932375    2.9335734744   11.0620343545
   8.6979078815   12.0767840590   19.0058364093
  14.9478942469    4.4957097821   11.2147859007
   9.6447914650   18.6390187994   14.7846318434
  14.4084611385    5.3129875956    9.9750344584
  16.0166285378    9.3914474219   12.5937223113
  11.5347312175    0.4667797165    6.7855348636
   2.6523073894    9.9722428095   16.1311538839
  -0.6907781917   10.1793394910    0.1247068212
   1.0207251469   13.1534400524   15.3765067725
  16.0130036629   12.1036053071    0.4703343436
   4.9423482017   10.5493821572    7.4347733565
   5.1682523904   10.2859013627    4.4962426369
   9.4468707324   16.9029193365    5.8160794593
   8.2569592963   17.8299630972    6.0678994203
   1.4810705062   11.9864962450   16.2650033455
   2.3411152156    0.5459207628   12.7102713746
   1.1494944898    1.1095939975   12.0591539331
   0.7614010179   17.8401342161   12.3277380642
   0.6744473513    1.5089597032    9.6848158189
   9.7942447196   10.6787149758    1.8005932451
   2.6280926832   10.0068590848    7.6921662929
   6.0741504950    9.8549534803    6.7291388870
  13.4277354120    1.0873931906   14.6152869092
  -0.2335540106    8.3293351441   18.4314243861
  16.8006618060    4.7894636618    0.6276979621
  -1.5557786899   13.2595135567   15.2364528544
  -0.2344676956   10.6029217050   19.1395220078
   9.5803020116   16.9514907300    3.4653127930
   8.6516041066    6.3662703872   13.2101230494
   6.4268993797    1.5281790289   17.1173475757
   8.5623594468    5.4679355649   19.0167170530
   8.8795051921    3.9999123723   12.4576635533
   7.4515441560    1.2936866836   19.0641218973
   8.7681939191    3.3804987442    0.9918339294
   5.6343213266    2.6838768304   18.8462246515
   6.3971007769    5.1621885091   19.1958374117
   7.9747878605    2.2261155214   13.4878475854
  11.7215305142    4.0865733987   12.6716801590
   9.7364366248    1.9745782548   12.1843007575
  12.1190350170    4.1195730914   14.8991920347
   4.2786302285    7.3749667780   16.3817263369
   5.2184645104    5.3251622538   16.1046800935
  10.5446953708    5.3155525823   14.1358138175
   5.1339138736    6.6857096869   14.4251100327
   2.7360195537    3.9527905059   13.3734868346
   8.3840096090   19.5108371284   18.0859024200
   2.7490690783    6.0217584078   13.6334785910
  11.0937420376    7.7550291153   10.0023094993
   1.1583884583    5.3656129538    9.7174790601
   7.2123402083    9.1785611709   14.4659816477
   7.9940416191    9.2358014026   16.5167226927
   0.9495281278    4.7879279425   14.2112570384
   9.9695277795    8.2801638669    8.2415125906
  10.6204162180   19.2709569723    0.3940845819
  14.0050225362    2.9799548837   17.9613567774
  10.4532756359   19.5929838266   17.6867311001
   3.0540329560    4.8937065441   10.4498576449
   9.4326796086    6.4371855496    9.3042987361
   6.8271484967    9.0794767515   11.1628565735
  14.1780620597    2.0241295446    0.6429113195
  12.4138827288    4.3007851416   18.7626270486
   5.8651206477    9.5811977601   16.1815035657
   2.3340582091    6.9598120228   10.7213405930
   6.8156002120    7.5815974785    9.5562300309
  15.3857076815    9.0062918631   15.4127303476
   7.5845731237    9.5705465053    9.1401179072
  13.7696675573    2.4652827981   10.8316599274
  13.7602273770    8.1489693102   14.1930471962
  14.8970678826    4.7096922734    8.8827469966
  15.7441130390    2.5365959312    9.9684677909
  14.6576671527    6.6115606689    9.9353047425
  15.0334256834    6.8210390760   15.2998059260
  -1.5031510819    9.1023716707   11.3851052319
  15.4164179779    2.3793605051   12.2845212306
  -1.1751027874   10.2851313811   13.1330680711
  12.9750417213    5.2218768819   10.0327246496
  14.7121182839    9.9166065589   12.5142166200
   0.8553849010    1.0591828856   18.7923566952
  13.1953317480   12.8283785960   16.1505581741
   1.7410882579    2.1246771727    4.5231522226
   5.6352720835    6.0088604236    2.2675271735
   6.1159088743   16.5555179302    8.3045528970
   9.6044347664   11.4881124076    7.2952780660
   6.0888471526    6.4726558127    0.6151125648
   4.5337432271    2.9038563902   15.6615941928
  16.4266414174    4.1891609566    5.5747632944
   0.4778865895    1.6307154167    1.2976216446
   0.8243297982   15.8863059474   18.6180001426
  -2.1196995796   19.3749829215    1.0887784466
   6.7032384815   14.8289925360    7.0657729063
  -0.3964542211    2.8884459805   17.4234115757
   0.8609710165    0.5828288224    2.7192037655
  11.4112024665   12.2183381562   12.6297421900
  -0.4386829845   19.8216498156   16.8044076947
   7.3045264225   13.9623543092    5.6112548542
  12.9549606819   15.4827706708   14.5975356769
   5.3212000460   10.4958186766    0.5838053005
  13.2077704065   11.9457707468   12.0809026658
   3.4280233970    4.8558852814   18.3668354807
   2.3088188592    6.2163660813   18.6071217094
  11.0458137895   10.1904705014   17.7078128300
  11.7521574131   10.6452705204    7.5271476280
   1.2019781604    2.0778853894    6.2393478652
  17.0461667700    2.9142635282    6.4701216176
  10.5614726040   13.8386261430    6.5639630520
   2.7458116412    2.8313424597   15.4123098610
   5.5386767765   19.5717589670    9.7396997254
  11.8750403181   14.8718604455   15.9531703050
  12.4816800370   10.8954665922   14.0640381801
   2.2346061544   15.0376147646   18.8351220027
   2.3273404403   16.5234074421   17.8737176761
  11.0246956295   15.8024258384   14.6706470051
   7.0005388572   18.0509083409    8.5770784826
   0.6812638050    4.1878284377   16.9722227971
   3.1728585968   16.9457081694    2.2429506453
  -0.6897505466    7.1866072632    7.0493554310
  13.3412844377   11.0862430780   16.7108768329
   2.1905118336    3.5025861081    5.7519033830
   7.2238102161   16.4526251370    9.4632157592
   8.9804408264   11.1855187687    5.7024805468
   3.7702138211   10.2988284043    1.3310689628
   6.6955153302   13.0406506676    6.8803235810
   3.0409732928   10.1258680538   19.1197544538
   4.1003047113    6.4011003904   18.1944342981
  12.5498432814   13.6500176225   12.2226547977
   2.5238884106    1.6191542514   19.0397049876
   3.8544036219    1.5779363930   14.7381172727
  -0.3429971851    4.2428809919   18.3764880028
   1.5211795574    2.0513328524   16.3564982947
  17.1730728017    1.3937474390    3.8955270862
  16.3835077091    2.7118625996    2.9766264409
  11.5308171753    9.7457407197   16.1127595168
   3.7483432111    7.3992368106    2.4242588772
   3.4345362580    7.4929367642    0.6853866953
   0.4956135959    7.7750283453    5.7365838985
   0.8064418946    4.1985950533    7.4968221534
   1.6378787815   16.7448369894    1.6048887323
  13.0400446028   11.2586757943    6.3377356008
   4.2990598033   19.5577852526   11.6852846484
  12.2453499727   12.3938313058    7.3829319894
   9.8580763845   10.3927420909   16.3924294427
   9.5339927381   13.8185768320    5.0878451849
  14.2422304746   11.2406151866   14.5761650042
   4.3791263361   18.7747799037    8.6398520296
   7.2397643923   14.7388438920    3.4761929775
  -0.7564339924    5.0279470889    7.7424958114
   0.9560182063    7.6762456966    7.5167240449
   6.6115941695   15.5092102686    1.0312595671
   6.3256376901    2.2559937440   10.7916397379
   1.4097659008   14.5846453681    1.4165657087
  13.4794212313   17.6155381466   17.3423401221
  14.3346577975   16.4757953845   16.4829524494
   4.6922863627   15.1665007816   18.3321490931
  15.0373472333   15.4877466024   12.5785231813
   8.7866240244   13.7862995755    3.2576350437
   4.6111095051    2.4324620159   10.4822080950
   3.2109810147   18.3067574905   10.9842016966
   5.5231420691   11.9626205149   17.1894924326
  -1.5641970482   14.4322430598   12.1617485227
  14.2164430136    1.2031968406    3.1792651288
  14.9525977592    1.9707173070    4.5128772416
   5.0565333191   16.9699584651    3.8286572739
   6.8452404140    0.4537960663    7.0163115905
   7.3098010359    0.4522613023    1.3396829942
   1.5814776726   15.0849129447    3.1338578030
   6.0937761361    1.5115220134    3.9111598216
   2.9557038799    1.3264894102    1.7578516391
  -1.9242189862   17.9833657861   11.5912213215
   1.9888317528   12.4697336906    3.2098134758
   2.1553326310   12.1874344346    1.6557000172
   7.1529917904   12.9610967351    3.5271458725
  12.6304553046   14.5886924424   17.7262316328
   4.9381353651    1.6008522221   11.8813269687
  13.6362303663   15.5567918085   18.7673476885
   6.6251069642   13.3965520936   16.7508864569
  12.0670574093   14.5665790519    7.7741365035
  13.6449250647   16.5385265386   10.9266800351
   5.5855968256   14.1181243787    1.6603344361
   2.8378526471   15.8933787237   11.6060834324
   5.9514299536   18.4291324121    4.4134664463
   4.0658508966   14.5540320990   11.7939062541
  13.3707003856   15.2150196044    8.8792700488
   3.9455766115    2.8097303298    2.2257113424
  -1.4222286448   16.1945154642   12.9948634743
   6.4252502639   15.1298774501   18.4592900900
   3.5366526218   12.0080338114    2.7670549039
   6.7680119512    0.7979670069    5.2248960249
   5.3174714950    0.6215374423    6.1406516498
   4.6898690520   13.5909426485   16.7447136609
   7.2970145086    3.9539670491   17.1104469454
  11.8775220898   18.9216824575   12.6277589259
   3.6019512446   14.7530065742   15.5160507977
   4.8243817530   14.7154904568   14.2615994056
   9.8533933967   14.3830097634    9.2300650220
   4.5023718394   16.1377589692   12.2401066074
   6.3070152257   17.5725116376    2.8952642694
   8.1467177370    0.8819689348    2.8353879832
  -1.6170513858   17.7062473424    9.9668024998
  14.2001187852   18.0461746009    4.2996164353
   6.4745521197    2.4373029336    2.5291410002
  12.8211383750   18.2453625347    3.1819980588
  12.6641444927   17.4821456441    4.8186037910
   3.5300970676    1.6086847808    3.4058567639
  11.6799246999   16.0937215594    8.7052843451
  13.8879769547   17.7358378195    9.6276074099
   9.5326776877   14.2950885902   12.1563137139
   1.4469474140   18.5483963591    9.2002856777
   2.8132889025   12.2420436883   11.1960172999
  11.9714333124   12.3971895827    3.5598656316
  13.6367067390   12.4056219866    3.2366533737
  11.4820178005   18.4254727479   11.0352017109
  12.0250769480   16.9432547280    0.5373600553
  12.1444886608   15.2214153372    1.1531888579
   1.4446147489   13.3313962742   11.5335137385
  12.0463195765   17.2471373146   12.1325568642
   1.2252175844   11.8138516945   10.4661442865
  12.7709706820   13.6198456311    2.5289084815
   4.1962836746    2.8923041934    6.0598301533
  10.0401318961   15.8678580714   10.0730290839
  -1.6741029416   13.7123773419    7.6764256856
  10.1047308470   11.0482934900    9.7154426733
   4.9056646461    3.1281258910    7.7533753116
  13.6164274748   16.3502291750    0.6157828192
   5.8936647868    4.9505344212    5.5839207058
   5.9776157184    5.0673275632    7.3647326316
  14.8169918024   11.6991478365    7.5795932767
   4.8499383040   19.4975393971   13.3624652196
   0.5993360430   19.5976498508    8.0596617375
   1.8938893803   18.3753124397    7.4324380972
   8.4239540516   14.3359836727   10.7961195442
   4.6282767705   16.8388213244   16.0380718514
   2.9576421627   16.9175550784   15.1770724831
  -0.1775460837   12.8367190498    8.0410142393
  -0.5529425818   11.0610709103    7.5676512500
  10.6625005620    1.9800410215   14.3205146000
  14.0927682267   15.4539232603    3.5134239651
   5.7133542886   19.0960049998   15.0556503157
   9.0825510162   12.4617632590    9.1489900565
  15.3496578351   11.0895107257    5.7486938162
   3.8951790210   19.3071443822   14.8099824278
  -0.8828047967   18.8158646640    6.2481683022
  -2.0378528060   17.3386314597    6.1407539003
   8.5015848564   11.3040162082   10.2528859321
   3.7046734443   12.4912056493    8.9921594584
  -0.7700475715   14.1655580703    9.1961746299
  14.1201739864   15.5129291984    5.1410056511
   4.1114007813   13.8688831560    9.8341698019
   1.0096445517   17.2157170397    6.1304037547
  10.8509693324    2.3096755841   18.9466658034
  14.7370248573   10.8003462145    9.0599969243
  -0.0258644136   16.0647621582    6.7638857566
  15.0238529315    9.3193676334    5.1997142605
   3.4032990705    5.7303320010    4.7110846480
   7.7254252110    8.5944837763    4.7472737870
   4.9352318382    6.6661822172    5.0144039076
  -1.1175653488    9.8447796140    8.8369642750
  15.5016356186   13.5276166094    5.5338570221
   1.1478376180    7.3674203776    3.6145210731
  -1.3243016391   10.1170332486    4.8874980837
  -0.0489880588   18.2342119587    2.6702669687
   1.2385286683   17.8329310701    3.7371454015
   3.2624748236   15.1930687779    7.6376896047
   0.8733085138    7.7647744337    2.0064858767
  -1.7495925256   14.9539721175    4.5755103576
   4.6060215427   14.0589937839    7.3657480535
  11.5126606430    5.6358661505    4.1732474437
   7.1857610394    7.0127902592   17.0978686545
   3.5124614009    7.3314783276    5.7350290825
   0.8989730730    9.0552094782    3.1521423972
   6.9848722112    7.3823777855    3.5146456496
   7.9097969432   16.2056407656   17.4718149277
  10.8698952832    4.3431403413    3.0969441863
   7.3168491900    6.9466759034    5.2130417011
   0.7520543279    4.2063476914   11.7781708000
   8.0026770103   18.0043092205   11.1374737225
  11.2884480594    8.9823850888    4.3702174742
   8.5803710088   15.3849103522   16.3239130294
  13.6337152960    6.0895687043    7.2706343755
  12.2937470127    7.7077948611    3.3678460079
   9.1923714758   19.4237509887   11.3397480521
   0.3926991938   19.2768347766    4.0191224084
  13.9360883894   10.5542839569    2.0778421036
  13.1866410021    6.0535708002    1.8920344396
   8.5883709600    5.3897516191    2.9776853779
  -0.2264313144   12.2769038289    4.0666364148
  12.5469630230    9.6633089838    1.8325148443
  12.1782050487    4.8109684854    0.9949749679
   9.6842901718   15.8215126420   17.6692381939
   9.0959624887    5.0594779217    4.5600602339
   9.7411176706   17.9327779279   10.5778030827
   2.5966275000   15.2008887579    5.4594128500
  -0.0702724709   13.9437122243    3.5361559180
   9.3622332585    9.3099149828   10.8617973327
  14.9603468904    7.4039483325    6.7012006584
  -0.4181068403   12.7795345194    2.2455110614
  15.2805978096    7.7580765240    3.7994677454
   3.9205853043   14.0992710351    5.1614106126
  14.8251537589    5.5981443501    6.1125953179
   8.0458781850   18.7786653029   13.4163000605
  16.6406743389    6.4538944332    3.9629212987
  11.6192954736    7.6722690398    5.9400454103
  13.9843819090    8.6330845815    1.8567420083
   2.0753982498   13.7172715672    4.7869850967
  12.9991585092    8.7618227124    6.1618055238
  12.0412969692    6.4183587811    0.4162708292
   8.9294584981   12.7235904548   16.9135809781
  -0.9828434823    7.7706426704   14.0565194523
   9.1390524601   11.0673068766   18.5816508042
   8.2139362428   17.0505787807   14.1659339223
  10.1925353307   13.3386276157   18.1279800573
  14.8129174648    6.2761653961    1.9466465024
  10.6334222646   18.1771780712   14.7089109804
  16.1087646061    7.1238266611    1.0503566428
   7.5763897571   12.0035633141   19.1229846827
   1.9624675810    9.5112188571   16.7177448071
   0.8715098189   14.0317857337   16.1168573374
  10.3998387218   17.4704699228    5.5698063724
  11.0717980423    0.8273623259    5.8832170436
   5.1936504379   10.6504928632    8.5267927349
   4.5369183108   11.1965768756    4.5481460507
  11.2753890797    1.1214792049    7.5844212915
  -1.0807598265    9.5621872012    0.9490625584
  15.6468464432   10.8122104242   18.7081208096
  14.4212291947    4.6718544882   12.1233228311
  16.0728080850   13.1755972316    0.8064635088
  14.6736928302   12.8748222072   18.9119533057
  -2.0101037889   19.7134254164   11.8013847131
   3.1006922423    1.3549783183   12.7333777098
   0.1781204099   17.4460945266   13.1989474869
  -0.1377014291    0.7935327764    9.8244397043
   9.2906263849   18.4067170069   15.8426240010
   4.7798590627   11.5630774449    7.0048522118
  15.7177582539   12.8349533367   14.4784491734
   9.1492289107   17.9135990049    3.6148770259
   2.5582532153    9.8415425038    8.7774377278
   2.8168636105    9.2000675687   15.4636885079
   7.8835148422   18.4316454869    5.1825773816
   0.9625673938    7.4124383560    0.0763384630
   1.8052479896   13.4123359495   14.6601150768
  10.2503360261   11.0109036371    2.8066423705
   2.5714535546   11.1080818682    7.5682342451
  11.7109713073   19.9460021808   14.1097542916
   5.4598016865    9.9662478393    3.4227775206
   2.0375334446   12.1997995832   17.1877425264
   1.8075789924   17.7726193937   12.7025778188
   1.3105108337    1.2080270128    8.8104178525
   9.6150438413   16.0904328375    6.4531371118
  -1.6871676580   12.8136833328   16.2856583752
  16.0305711791    3.9804294117    0.4381507120
   3.4890230647   10.4250848978   16.7366027890
  15.3396499596   11.5943972109    1.1649064056
  12.5949681506    0.4472965396    6.5785069385
   4.6603566281    9.4169718742    5.0296751509
  10.1714462047    9.6996764735    1.7245547241
  15.8759973839    6.1595887045   19.1996166211
   7.0131904054    9.9116677696    7.1881029069
  13.3266916155    2.0837649494   14.2238846406
   0.1870279514    7.6433967252   17.6884830887
  10.6857218939   16.9975733458    3.6008979063
  -1.3414572323    8.0157158877   18.3846085787
  -0.0695246575   19.5301055573   13.7143818172
   0.5886134757    1.9018445868   12.6829232925
   0.7987407122   17.1560016498   11.5060721040
   0.2505449440    2.4417532143    9.4956813706
   1.3952366882    9.7299941101    0.6236547118
  -0.4398680228    3.8546579069    0.6459958448
   0.0634122401   11.6037846343   18.8116707845
   0.5873095173   11.4834577045   16.6008348987
  13.5916371574    1.3377599398   15.8221540976
   9.1811969024   16.4637155360    2.5055278389
   1.9052630145    9.4041561574    7.1641472956
   7.4134944991   17.3501566228    6.4652436152
   5.7241917201    8.7818169629    6.7091203826
   8.7276799350   10.6171360835    1.8640579502
  -1.5767564095   14.3575079667   15.4151927336
   5.0994359345    8.7134067609    1.3534593076
   8.6433662682   13.9486383772    7.1009601509
  12.8509832075   12.7725055175   13.9398469919
   3.4714667157    1.7127922570   16.8202140296
   1.3416624233    3.1190513928   18.6731453573
   0.6132299122    5.9085747176    6.2446831418
   4.5867097750    4.9912386088    0.8025926411
   0.2244627834    3.3661651346    4.9426257227
  11.0337736581   11.4657363945    5.8401014135
   5.4605007391   17.4747222376   10.0000195360
  16.6236847554    0.8207055945    1.9968150684
  11.4349220771   11.8011804985   16.3496478742
   3.3572841448   16.1371176118    0.4491944201
  12.1679059715   16.8270108734   16.0609650358
   5.4198445065    0.6055853113   10.0555302441
   3.1346103896   13.9512764860    2.3783859599
   7.5760127201   13.6033499002    1.5533357765
  12.8992735922   19.5735301842    4.7195378272
   5.5764593523   13.2711980097   18.6275624076
  -1.9730773217   15.9105621777   10.9496285069
   4.4961080813   18.6344879134    2.9266697324
   4.9040592005    0.9488277767    2.1994684762
  11.5654866224   16.0025750836   18.6568594040
   6.3253804236    2.4443475355    6.2742884585
  13.5176199271   18.5658031007   11.4553372690
  11.7945132633   14.6302645610   10.0007449282
   3.0750875100   15.1976180637   13.5806309830
   4.8190762340   17.4929437660   14.0884396697
   9.5328265732    3.1659167749   15.5006831200
   9.0061502712    3.1145530824   17.8978831468
   0.0152759768   17.6271264062    7.9500163673
   9.7718642754   12.6528092253   11.0929778167
  12.9805981685   13.9382664759    4.6004733545
   2.0210684372   13.4846486251    9.5733738398
  -1.9445634577   12.3846729032    9.1570026397
  16.0881129242    9.4614477166    6.9539137924
  11.1803801900    2.3976589572   16.9891282477
   4.1002211625    5.5074308027    6.5494809499
  -0.8261508842   17.6913861039    4.4920117322
   9.1094599884    7.0890598806    3.9760202089
   7.7115050459    6.4682248300   15.2567907360
  15.9555425252   13.2739518262    3.4201049819
   2.5403263214   13.5301140867    6.7037468385
   9.0904005379    7.4138535951   11.5806466677
  13.4022646367    6.7777618537    5.4160208804
  -0.7789868963    8.2232968756    3.1680361492
   0.1415226864    6.1507886798   12.1359494297
   8.2849955179   14.3024653312   18.1949351615
  11.0873820917    6.1883920433    2.0792674010
  13.4088317422    9.4349450178    3.6882826206
   9.4211997888   17.6454528281   12.5509418823
  16.3396995170    4.8514595337   11.2773291902
  15.8337683011    6.8911321790   12.5905027095
  16.9594573948    5.4664959094    1.8777421434
   2.0636117399   11.0230654525   15.3737441077
   9.7131177524   20.0274692044   14.5239046189
   6.3272701096   10.3415977927    5.3332454524
   8.5529981765   18.7035508192    7.2156041281
  10.3623525601   11.6182144986    0.8680938203
   0.0750876145    9.6848681099   18.1346387509
   0.3167816339   19.0301344463   11.7430102150
   1.6031884244    1.5590832109   10.7776685266
  -0.6449139696   11.6373709188    0.5349577508
   9.0741086261   16.1915334901    4.5482695833
  -0.2314132752   12.9335522213   14.7366331480
   3.9013496546    9.6017774521    7.2438009030
