B2 C140 Ca1 F48 H298 O66 
1.0
1.7844343533332438e+01 1.9366874006417214e-16 -4.0115757685229100e-17 
-3.0796527873963258e+00 1.9422127886511348e+01 -5.8790887393708638e-18 
-1.6899332725915978e-01 1.2270721783167196e+00 1.9572594811535069e+01 
B C Ca F H O 
2 140 1 48 298 66 
Cartesian
  10.5260579415    3.5709927041   16.7992316285
  -0.8640772204    6.3107286246   12.0195403999
   0.3387294961    1.6449508221    1.6512839807
   7.0872160535   13.7689987053    7.5919658996
   4.5650164549    6.6319681800    0.9377082195
  12.6233865277   12.6042489122   12.6330316156
   4.3667588089    2.8320960629   16.6902812233
   2.2478455136    1.8309166041   18.3730042528
   1.8074161735    2.4621042280    5.7543836179
   2.7801684070    1.1254799978   16.9918316334
  -0.2010917282    3.7794664416    6.0997008473
   3.0171418442    6.4177252061   19.2343945834
   2.2796297888   17.7280140370   18.3235063056
   0.9836703877    3.4824382381   17.3853362790
  12.0690128802   16.0653854792   14.8932600411
   5.4721482321    9.9625729062    0.9031459262
   5.8750946349   17.2213725740    9.5240396526
  12.0735131103   11.7049175212   16.2514371289
   9.6564472353   11.8732438088    6.9083539797
   9.3795564911   13.3757266677    6.7658558588
  12.8456297328   11.7490529097   14.8882873997
   3.9645422960    8.0473658327    0.8505209934
  12.1996801775    9.4847821414   17.0575736701
  12.0401547717   11.9141803904    6.5625926065
   0.0576977819    5.0532277432    6.9881075635
   0.5631190382    7.5027179759    6.8663394072
   4.7967771285   19.2748373825    9.6842360587
   2.0461542411   16.6309889242    1.1868799235
  15.9614140621    1.8031393232    2.6937474766
   7.1922069085    0.8224750359   10.5619310380
   1.4348068196   15.2929918007    1.4861355359
  13.2166967247   16.9533729502   16.8279824683
   5.5242113154    2.3418700627   10.6052687050
   6.9165712843   14.1122006739    2.9189722521
  14.8069193391    0.8508988082    3.1924849850
   5.8458092206   14.0457711783    0.8484080301
   5.7125079094   15.0707654861   18.9834541105
  14.8258725215   15.2875170936   12.1815516273
   1.8793475878   13.0349113837    1.9842947586
  13.0114877730   15.8774930770   17.9146696590
   5.9542916654   13.2855984416   17.4180669519
   4.8131081350   17.9126957621    3.9179511082
   7.2504783957    0.3161195348    2.5296183302
   6.4654950356    1.6962592633    2.5787794451
   4.2912693748    2.6522807115    2.1713743233
  14.9411573115   17.0817351595   10.5312692036
   6.8592098580    1.3455727957    7.0156521485
  12.3128352594   15.0473248068    8.7161566370
  13.5307968116   17.6853192025   10.3832755610
   3.6361892536   16.3735239396   12.1376035139
  12.9768271743   18.5318036752    4.4032498350
   7.9559911178    2.4067508054   18.3168199265
   8.1877149797    4.9800738211   19.2047612339
   8.4215533151    3.8617445932   18.1309241428
   4.0697744884   15.3708413114   14.3437202885
  12.0027805318   18.9621024041   11.6641299245
  10.1928531032   15.1111649813    9.8753688847
   9.7412313149    3.3748274548   13.2793049644
  11.9281265049   17.2469663350   19.5627593267
  11.8737937777   13.3195902262    3.3157327117
   9.5441926271   14.7511277613   11.3315936674
   5.4172294517    2.9364055741    6.0857044693
   1.3542738094   12.8563321151   10.9867771567
   3.9700380794   16.6070528487   15.1683496971
   0.3197077352   18.6604531863    8.8010350107
  10.6744671819    3.7364282150   14.3789272970
  11.7027853955    4.9178913317   14.0339675026
   5.3295860153    4.3879593608    5.6690262195
   4.7095210285   18.8465178572   15.1565088112
   8.6212416195   12.6676083318   10.9003617840
  -1.8243251325   13.4579677896    8.8524027822
  15.2915517169   11.1890028342    8.9000495284
  -0.5250106840   17.0829361201    6.9448626811
  -1.3804457951   10.4994741926    8.0928689114
   6.1234300364    6.7099638444   15.6497496631
  13.2986190445   15.0944488625    4.4618087650
  -1.4634813428   17.7594219767    6.0249327718
   2.9435844701   13.6353022231    9.4690732763
  16.0313555272   10.1597624034    5.7914257146
   3.9019214614    6.1480495220    5.3482179195
  12.1106477199    2.5749220294   18.3829502214
   2.2085988105    5.4396013677   13.4873929326
   9.0230146184   20.4171981122   18.7483444136
  14.4391827967   14.2646611424    5.0726347940
   7.2931925157    7.5181473531   16.3124358996
   3.0038445583   14.5387468621    8.1849217950
   7.5551796176    7.4330476999    4.1530917131
  -0.5964359034   17.9229995849    3.7885142628
   7.2213357585    9.0363477000   16.1973358302
   9.7064265542    7.6332082903    9.5438278508
   0.6234682307    7.7013049392    2.7866490599
  13.2973195657    3.4370421999   18.7493358774
   2.2395104812    6.1814909859   11.0355955506
   1.4596512105    5.7258782281   12.2301974590
  10.8744204871    5.9322473897    3.1653337498
   9.3169655509    6.0092740267    3.5425770003
   9.0628731083   15.7214565675   16.8798415537
   8.8091823615    8.3741198705   10.5356089344
  11.9683811801    9.5242325552    3.7720074770
   8.4468681178   18.0364018844   12.0946578126
  -1.4318114063   13.3971089301    3.9548849392
  13.6148161677    7.0632943506    6.0707807464
   7.3627052927    8.6864499274   10.0285304029
  12.4002030944   10.0935718000    1.4212225569
  12.2258026234    6.3075920044    1.2034469641
   2.8972219424   14.5217784739    5.7796525726
  12.7337472810    9.0299788505    5.0177142305
  16.1776043672    7.1100801300    3.0184428210
   8.0094481825   18.7263938106   14.2840581859
   9.7972103701   13.6987530007   18.2165149285
  15.0504806647    8.0017432485   14.6299632033
  16.1531037977    8.1040775296   13.5709071549
  15.5999663818    6.2874396548    1.9634301506
  15.1415689204    3.3427665761   11.0686617863
   9.1703455667   12.7560366572   19.2270749418
  15.2576513574    4.8564988736   11.1475079516
   8.7189728838   19.5665006961   15.2729123885
  14.6692086224    5.6945619634   10.0205512829
  16.1101065760    9.4187498600   12.6805222875
  11.5743225054    0.9996536944    7.2210055353
   2.5460029485   10.0941580883   15.7955212203
  -1.5406034670   11.5809439992   19.5718110252
   1.2041994895   13.5944725007   15.2373661906
  15.0987033640   12.1713004407    0.8004362015
   4.6412202839   10.7872899336    7.3515991945
   4.4047024006   11.1355592277    4.3470619578
   9.5094342745   17.8531198602    6.2531388647
   8.0146793554   18.3101886978    6.3078599169
   1.7273129654   12.3224505588   15.8031215076
  -0.7309051948   19.9509216772   13.1699121346
   0.9824565299    1.1729240247   12.6232404305
   0.9822529634   18.4735061591   12.8395540089
   2.0477287135    2.4413561258   10.8510180287
   8.9376042178   11.2680120186    2.0607697746
   2.7989605566   10.0081056568    8.5041778513
   5.5719064597   10.2810151837    6.1236439469
  13.9179458633    1.5733246437   14.7944372659
  -0.5512632358    8.7976377932   19.0568144183
  16.3588755163    4.5999885280    0.3880752205
  -1.1958937155   13.3356910674   15.4982069882
  -0.0559256805   11.2447260743   19.1942772142
   9.7980203113   16.8173643321    3.9657541829
   8.8047192486    6.8618879160   13.6776412276
   7.9667931203    1.9154986646   17.0267040475
   8.8319347279    6.1599679181   18.8098701675
   9.1239555247    4.5320826453   12.6874468924
   8.7036831224    1.6042390620   19.0887155700
   8.8311691572    3.4218714302    0.8165475380
   6.7297816867    2.3576383998   18.7976165406
   6.8432878593    5.1913800893   19.3792036022
   8.7890042965    2.6549751417   13.8597584337
  12.3803616333    4.5617882450   12.7916165070
  10.3931343836    2.7714119018   12.3102021867
  12.6498742508    5.0090474763   15.0161259246
   4.8831475624    7.0984551458   15.9388722488
   6.2922607685    5.2970085509   16.0976247452
  11.1410396388    6.1608837094   13.7225033162
   6.1991620410    6.5825573083   14.3051693735
   3.0347898486    4.3852637889   13.4089636088
   7.9614263227   20.0140112777   18.1513816064
   2.9451276402    6.5137923294   13.7558252763
  10.9812124156    7.8615102693    9.9613818109
   1.6175702052    5.7816884505    9.9294227731
   6.8901146723    9.4367606270   14.9683148428
   8.3620728503    9.7219629326   16.6490195663
   1.2302730291    5.4104434274   14.4406803631
   9.7661817754    8.1559855070    8.2643289891
   9.0225515998   18.9237751542    0.5024130546
  14.3741804383    3.2938426351   17.9639568503
  10.1834677845   19.7690780108   18.3476256511
   3.5235248316    5.8529071498   10.8969318896
   9.5669883095    6.2803215993    9.4123114507
   6.6438432587    8.8889724618   11.0940719003
  13.7662797827    1.7743716346    0.4221668404
  12.9426566989    4.7250495071   18.7998523063
   6.2739531289    9.5724977192   17.0752791610
   2.2640743098    7.5359601401   10.9896387455
   6.7005686481    7.7694694465    9.1902349762
  14.9221950802    9.2043694594   15.2092882266
   7.2770926236    9.9301874421    9.3330156455
  13.8600323129    2.9147575185   11.1911130965
  13.7604862987    7.8739355939   14.0631223892
  14.6111944206    5.1024085240    8.8165074764
  15.5751392906    2.9142638726    9.8315986782
  15.2817869815    6.9403753925   10.0537678305
  15.3212448949    6.9659455027   15.4972759773
  -0.9036171272    9.3563623410   11.5677979139
  15.8614754205    2.8011514756   12.0077078840
  -1.3053908447   10.5664196439   13.3174579405
  13.3199288757    6.0183903577   10.3492294610
  14.8485844174    9.6534373077   12.2611305289
  -1.7694709157   20.5221736769   18.5878075357
  11.3895173964   12.5763818730   16.0674598959
   2.6512031967    2.4220196418    5.0316395379
   5.3005377027    6.6611064169    1.7886519539
   5.2688919809   16.5894072880    8.8788889292
   9.7612715253   11.7099275299    8.0273697784
   5.1856827481    6.3676261655    0.1236706395
   5.4653426036    2.9965872969   16.7351553258
  16.8750718417    4.0182812338    5.3522206058
   0.5049951631    2.7375886727    1.8908605997
   1.3489500871   18.4426811276   18.2901947409
   0.7764814969    1.4816965377    0.5226272197
   6.7586405102   14.2019538194    8.4853790623
   0.8421307635    4.5791095675   17.5200588477
   1.0330080934    1.1522734136    2.2822221597
  12.1295061270   11.8343872900   11.9418648226
  -0.4024510096   19.4498425947   17.1279963826
   6.6862337533   14.3884775294    6.8410016666
  13.0342554791   16.1704564799   14.3869024286
   6.0610042773   10.3226560385    1.7642194478
  13.7349296110   12.4806221940   12.5445982638
   2.0411505990    5.8856386293   19.2837347380
   2.8300464204    7.3384208733   18.7006404633
  11.5996331661    8.8030015439   17.6585206907
  12.0856604176   11.9104437165    7.6852499192
   1.0986523193    1.5150071869    5.8316887518
  -0.3501785049    2.9089478758    6.7918047598
  10.2755475283   14.0033457693    6.8467590796
   3.8171211981    3.1548583303   17.5517703399
   5.7531273556   19.7977587015    9.2831278040
  11.9255317214   15.0288029120   15.3913352048
  12.7481629801   10.6373084026   14.4222269091
   1.9470524090   16.7313966923   18.0204620427
   2.9471064445   18.0234955063   17.5367894780
  11.2210663206   16.3727236446   14.2722238290
   6.5451540661   17.9980458309    9.0698216065
   0.1126158403    2.8516268582   17.6134646542
   2.7390997998   16.9032216305    2.0843897684
   0.9655665676    8.2045521268    6.1099746752
  12.8431636525   12.0507659539   17.0150746543
   2.1897150013    2.7235880526    6.7319089276
   6.6228125308   16.6652404643   10.0406002064
   8.8491635657   11.2827850962    6.4805775503
   4.8124181284   10.7228492594    0.5280229988
   6.5703623524   12.7070340783    7.4932904252
   6.1455399125    9.5520664725    0.1699393044
   3.7642687919    5.7630679834   18.7332827928
  12.3391511889   13.5953174738   12.2075234541
   2.9678767548    1.6346862237   19.2059194286
   3.8794716337    3.4640400415   15.9178204656
   1.4102863367    3.0684091684   16.3792287607
   2.1186208621    1.5339536691   16.2215958645
  16.4528828501    2.2583244260    3.6773761399
  15.5529130962    2.6987538064    2.2132110522
  13.2273202524    9.9776977821   17.4398311148
   2.9677861436    7.8054296235    1.2105984174
   3.7726452841    9.5285946817   19.3552344216
   1.4461599280    7.2849701098    7.4655088629
   1.1617055215    4.8368209472    7.1612465957
   1.3013899238   17.4608993079    1.0366964781
  12.8174172472   11.2375901354    6.1845084285
   7.9153976636    1.5095599621   10.9797672682
  12.1685030597   12.9229999167    6.1853654017
  12.5482785449    8.8038956721   16.2244760858
   8.9199141659   13.5637078950    5.8119590331
  13.8387158129   12.1325293177   15.1104649109
   4.2142016007   18.8063468859    8.8430091351
   6.0193188216   14.7807072507    3.0372695976
  -0.4997492094    5.1629714860    8.0020018543
  -0.2258012118    7.9877632983    7.5146171994
   5.4554665749   14.9963092491    1.1238609441
   6.0959797810    3.0760988430   11.2317870671
   1.1379996358   14.6839090075    0.5474230399
  13.3612387924   17.8325651308   17.3676359171
  14.2236407868   16.6889188924   16.4428767988
   4.7231798290   15.5653616202   18.5941759321
  13.8968997129   15.2739725160   12.6615224481
   7.8595882441   14.4975989119    3.4740927991
   4.8569943859    2.8780174555    9.8855766775
   3.5865568778   19.7247500008   11.2830394570
   5.4237658546   12.3280841807   17.3072341204
  15.2161752837   14.3000940684   12.1572576367
  11.5642245346   19.4819886956    2.4389343636
  13.9679222401    1.5439494193    3.3187445338
   5.0889857341   17.6301962007    4.9730703787
   6.5692196817    1.4921843819    8.0684419996
   3.8435001983   19.1566114569    1.6503692185
   0.4152743886   15.2716651985    1.9422051981
   6.7941075197    2.3491209189    3.4004331312
   3.1654929216    2.6078107249    2.2575380062
  -2.1368025140   17.5188183019   11.2141051769
   0.7417611965   12.8717242851    2.3523473878
   2.2173684317   12.8756037540    0.9235071863
   6.6321540841   13.2081830731    3.5129400753
  12.7849498146   14.8350251402   17.5421692515
   4.8789223235    1.8415549646   11.3264319185
  14.0127431478   15.7750683686   18.3869188004
   7.0378009787   13.0861024704   17.2447696066
  12.2564421933   14.0122850534    8.2108724862
  12.6719559139   16.9317071998   10.3180869862
   5.2169373700   13.2702004409    1.3196660250
   3.0004944543   16.4412733848   11.2773092205
   5.8899162374   17.9778461799    3.3549795786
   4.6615710414   16.1768694116   11.6735570196
  13.3912273982   15.1301956161    8.9277264029
   4.6305900148    2.9466515050    1.0975560863
  -2.3155140022   15.8918732755   12.8815794045
   6.5763433343   15.7165995359   18.6721274807
   2.4643544374   12.3152158575    2.5252959075
   7.9339405991    1.1219428984    7.0052243461
   6.4115068668    0.6237654518    6.3657389564
   5.6523816935   14.0389654070   16.6420492580
   7.9114554587    4.2713859231   17.2783058714
  11.8690753210   20.0373934731   11.7054312102
   3.5321651076   14.6008549817   14.9086222415
   5.0767286946   15.0803977549   14.0902336016
   9.8641560117   14.2703735043    9.2747141294
   3.7357107962   17.2583377519   12.7201930102
   4.3099940455   17.0724059205    3.4210090886
   8.4890357417    0.4480036437    2.3341188382
  -2.5093619719   17.0969232626    9.4831361765
  13.8900360243   18.8724248253    4.0264846308
   6.7501070608    2.2180064709    1.5710752481
  12.7072534402   17.6303185977    3.8713292610
  13.1236698195   18.3691365478    5.4692011435
   4.5703832944    3.4553224720    2.7540478559
  12.1430180054   15.8132065068    8.0273883482
  13.5047704936   18.1533324886    9.3444044217
  10.0027980396   15.1070706772   12.1680747737
   0.4865391413   18.5987364388    9.9070322282
   1.8527646536   11.9004285513   10.7759308467
  12.5538436440   13.4942412048    2.4864794505
  10.8265952223   13.4194384563    3.1381171249
  11.2069578519   18.4402757238   11.0022406615
  11.6303124930   18.2635920881   19.1460326230
  11.3571639308   15.8595809637    0.8338331193
   1.8138263018   13.3267404851   11.9019315970
  11.6162143810   18.6829587857   12.6311651191
   0.2653387360   12.6450311451   11.3052203649
  11.9982357285   12.3068980742    3.6963272216
   4.9806313612    2.2466044866    5.3585301406
   9.9304764554   16.1291880985    9.4655438915
  15.3716577350   13.5368553878    7.9537896375
   8.8488413500   11.6163960112   10.5543847296
   4.7533788307    2.7963623111    6.9220661676
  13.1088229846   16.0902931288    0.5432516683
   5.8640024610    4.6608820779    4.7032267403
   5.8034296408    4.9246103403    6.5368145569
  14.3764723735   11.3996978610    8.2794725424
   5.5070237729   19.5477956148   14.7047512110
  -0.0268916773   19.7467103916    8.5558637224
   1.2106920823   18.4663462905    8.2517508427
   8.4590850938   15.0536411848   11.3304032563
   4.2327159585   16.3856380463   16.1300968437
   2.9146943039   16.8973326033   15.2915896238
  -0.8376570229   13.2529646065    8.4709399339
  -0.6644869837   11.2216909588    7.6810282299
  11.3652913260    2.7783060674   14.4256914466
  13.5952670918   15.3677092182    3.5336043827
   4.8118465181   18.8830946103   16.2885220773
   8.3097985131   13.1112482744    9.9995518616
  15.6524835193   11.2246463192    5.5837785409
   3.6741488726   19.2434033184   14.9081588206
  -1.3931211092   18.8705053686    6.1767536694
  -2.4837957913   17.5108603082    6.4119855951
   7.7419123697   12.7843580951   11.5942050947
   3.2129989507   12.6417115651    9.1949547189
  -1.7966630572   14.4117104628    9.4520744185
  13.0480789958   15.9710638751    5.1870796496
   3.6288567141   14.0898443524   10.1437353077
   0.4225024112   17.3740460485    6.5116181419
  11.4470068850    2.9926847858   19.1292630171
  14.9791897474   10.3994237324    9.5807895821
  -0.8966891609   16.1350732657    7.1584123897
  15.4725286574    9.4799927488    5.1033886365
   4.4694051758    6.3775802363    4.4162859560
   7.4913755821    8.5824487971    4.1593584542
   4.2208594978    6.8026665863    6.1620026983
  -0.8583213401    9.8426457738    8.7648361987
  14.3025777954   13.6591276658    6.0331324681
   0.7167015850    7.2385057588    3.8210842247
  -0.7731896416   10.0831773725    5.6657127111
  -0.5931158193   17.2429056010    2.8055125659
   0.4078862997   17.8776965328    4.2023892863
   2.0306474518   15.0192306110    8.1302235953
   0.8745989444    6.9736128508    2.0348925447
  15.2336992997   15.0134763917    5.3378485658
   3.6030896490   15.4476510723    8.4108880857
  11.5083904348    6.6180833292    3.8269059375
   7.3140111288    7.3624688391   17.4524318320
   2.8931990900    6.6002113650    5.3769622455
   1.3111007058    8.5623512768    2.8202973966
   6.7283504109    6.8545877504    3.6127714248
   8.1985597303   16.3682245907   16.6790658435
  11.1993380210    4.9057594531    3.0897180960
   7.5782499153    7.0302725160    5.1743203255
   0.9516017482    4.7236147434   12.1045886837
   8.3346829830   19.1290000944   11.9073452288
  11.2691874455   10.4073213739    4.0684210663
   9.4930223414   15.1106044815   16.0563840087
  12.8198706346    6.8992573037    6.9498994203
  11.2474340611    8.9251572401    3.3378313531
   9.3372993865   17.6739982984   11.4812408605
  -0.7740232207   18.8898404896    3.2372999890
  11.6749035547   11.0326978723    1.5101307564
  13.1219856832    6.9469586232    1.6170610789
   8.7170560881    5.2065711095    3.1815905905
  -0.9051733619   13.2719473180    4.9142194083
  11.9141343753    9.2211379894    1.0335667981
  12.3980105911    5.2028402747    1.1574012832
   9.8313192220   16.4849309051   17.1350134367
   9.2840061189    5.7196055134    4.6451783868
   7.4733559874   17.4610192416   11.6930780211
   1.7944002196   14.6511566359    5.5848557465
  -1.1046619638   14.2746131076    3.4637595608
   9.4308434639    9.3083342624   10.5780683965
  14.3628404825    7.7510198759    6.5563661467
  -1.0850837592   12.4487877999    3.5092777728
  15.3359357959    7.6655261604    3.5023530760
   3.2546432161   15.4898987342    5.9001995681
  13.9364086461    6.0718979888    5.8724157533
   7.3676611123   19.3322340648   13.7274503273
  16.6768134760    6.4699621318    3.8100459611
  12.1181332504    9.0847513490    5.9013066028
  13.0579081866   10.5631381216    0.6205615101
   3.4183569475   13.8824886652    5.0797450131
  13.7033268566    9.7570420546    5.1095814092
  12.1358415734    6.7196472347    0.1264299398
   9.8761299100   13.2173027456   17.2378946318
  -0.7829870176    7.9423233267   14.1188945625
   9.4807383046   11.6117206454   19.1682599637
   7.3359723506   18.1076427072   14.8990869460
  10.7815714587   14.2208765729   18.4509768774
  14.6950000105    5.6720882874    2.1976010681
   9.3996668228   18.9437699258   15.8307447596
  15.1035283211    7.0112436129    1.2591491468
   8.0159948303   12.6485471686   19.0955107237
   1.8908915500   10.0534642784   16.6553188962
   1.2560973997   14.3464730307   16.0713771722
  10.1619747814   18.5476025346    5.7800146307
  11.1738470706    1.6209906383    6.4325445480
   5.3266121510   10.5799247265    8.1645827774
   3.8054423451   11.4917447259    5.2350651844
  11.3279189074    1.5563308508    8.1483133727
  16.1019785604    9.6616044126    0.7676931950
  15.6784690520   11.4429925235   18.7089254067
  14.7028797771    5.2924898221   12.1188977303
  15.2910193184   12.8275575679    1.6043575770
  14.4600870931   13.8703702086   19.5288670119
  -2.8041684919   20.0730769747   11.9774832086
   2.7932349345    1.5843811171   13.3289486219
   0.7076935838   17.4937847698   13.3331029400
   1.5349272934    2.1852055363    9.9145765188
   8.0151466516   20.0496922837   15.8465403769
   4.3781882297   11.8906139228    7.2450669573
  -1.9906962941   13.9850337688   15.3875089965
   9.2859485734   17.7588987849    3.7786379808
   3.5165865580   10.1769112758    9.3849782538
   2.3927396647    9.1857145863   15.1980874653
   7.7165857777   18.7629355739    5.3071056823
   0.4650584106    7.2800327767    0.1991864046
   1.8335021082   13.8886288946   14.3727878759
   9.6647164101   11.0154631830    2.8887899388
   2.0086960087   10.7955755603    8.4583961973
  11.3549258324   20.0579812722   14.3625175701
   4.3478106435   12.0178459694    3.5977826751
   2.6902783048   12.7165503961   15.9901646350
   1.5364533130   19.1052538370   13.5198203555
   2.7842497024    1.6832036666   11.0602585847
  10.0616328666   17.4205643326    7.1155832340
  -1.4280685984   12.2465454097   15.3678820550
  15.5084440793    3.9615173718    0.4914915737
   3.6182866401   10.3507707587   15.9576589404
  14.3821288245   11.4930305862    1.2775822804
  12.6425274733    0.8747726952    7.0397819630
   3.9794043140   10.2275035465    3.9222745193
   8.5600874392   10.3448013054    1.7043988824
  15.8753311393    6.3421961119   19.0808820968
   6.6609585831   10.1131704404    6.4704323591
  14.0484738326    2.4177081192   14.1466972321
  -0.8044516597    8.0423034056   18.2470459218
  10.9017013343   16.9520207183    3.8106997618
  16.5807537317    7.8362477286    0.1421391578
  -0.9299481209   19.5025643063   14.1207282269
   0.4262803931    1.4530226609   13.5395219858
   1.6012651605   18.1831788406   11.9068310733
   2.5160165602    3.4199346389   10.7440217085
   0.7371243566   10.1175565792    0.5138201517
  -0.5144779186    4.1468949736    0.1358942718
   0.3317817010   12.1170407858   18.5388503262
   0.9941215824   12.0156905499   16.6439858593
  14.2298290379    1.6904919766   15.8511735788
   9.4565588339   16.0032626305    3.2666529567
   2.1580763250    9.0710868644    8.6514670459
   7.3999300040   17.3853776083    6.4506515206
   5.3194590264    9.2966886489    5.7012628880
   8.1409140419   11.7901265830    2.5938111870
  -0.8659011676   13.4258684341   16.5542266316
   4.6064498510    9.0672712642    1.6263275172
   8.3989415624   13.9767682736    7.8067379869
  12.2328997319   12.7061426416   13.9960227293
   4.1433523895    1.4697640611   16.4493437904
   1.9751372127    3.1612495627   18.3474066768
  -0.0382940586    6.2635562877    6.3056197174
   3.5111469229    5.6365434313    0.9719473943
   0.9583859243    3.5697098375    5.2864023379
  10.7954434407   11.3167905529    6.1229568788
   5.1630629614   18.0595050116   10.4945312618
  16.8569155271    1.0372038933    1.7638406061
  11.3363610149   10.5692543323   16.5931137104
   3.0072453540   16.6369362613    0.0499996841
  12.2509833090   17.1782178906   15.8329562450
   6.1999940396    1.4313298584    9.7577907633
   2.2898254915   14.3566794952    2.3030475451
   7.0656535658   13.8653594026    1.4897578630
  11.9660076959   19.4694776981    4.4347840300
   5.7700688098   13.7209729769   18.7611002856
  14.9123037185   15.6292166543   10.8080546686
   3.9720116114   18.9718794363    3.7231633001
   5.0103468049    1.4163878202    2.5386614766
  11.8627075394   16.0827856024   18.7483503501
   6.7505770530    2.7289997405    6.4056295957
  13.3315046787   18.5793421376   11.4275657885
  11.6200511824   15.1982111067   10.0137870014
   3.2420830593   15.3952243914   13.0116329879
   4.8400718412   17.5834023922   14.6114363975
  10.0793562452    4.0579747008   15.5638363528
   9.8374811086    3.8152510738   17.9869065957
  -0.7294466524   17.7688814644    8.2705193788
   9.6364696327   13.3846849088   11.6129865065
  12.0784866272   14.2603497984    4.4058513236
   1.5919310005   13.7912668122    9.9425229766
  15.5776190455   12.3763777277    9.7361218533
  15.8233097451    9.7002938909    7.0972281677
  11.7721984246    2.8773270666   16.9696912948
   3.9386404217    4.7725475716    5.5589577703
  -1.7428521751   17.4509768690    4.6238770879
   8.7757774867    7.3329293826    3.4685470595
   8.3979441958    7.0120827812   15.7744349144
  14.9383216974   13.2993330099    4.0359048621
   3.0853770114   13.7770245536    6.9645374514
   8.7628360613    7.8555102935   11.8121166063
  13.0863896812    7.5639093908    4.8343962827
  -0.7449272454    8.1185083688    2.5755725843
   0.4764957636    6.6702603245   12.3726818343
   8.7633580317   14.7649752237   18.0024071927
  11.0149895037    6.5376262443    1.8413542129
  12.9715931060    9.7007829884    2.7039031709
   8.6537870037   17.8158188674   13.4587958211
  16.7038732724    5.1402524758   11.3594892294
  16.0182204336    6.9879569908   12.7017733082
  16.6306346530    5.3317386664    1.5837698695
   1.8289263454   11.1336880206   15.0131085857
  12.4806538030    1.2578571688   14.6312947235
   5.7060280459   11.1307496806    4.9934067649
   7.7946586343   19.2138155168    7.3841044265
   9.6883288348   11.8963025467    1.0424345930
   0.0054635414   10.0488870148   18.3995911184
  -0.0230322270   19.1886354293   12.2386975464
   1.1945107316    2.5251323881   12.0447474593
  -1.4781464921   11.6959584419    0.4324009484
   9.6350786166   16.5976533604    5.3841589056
  -0.1058465033   13.6937513029   14.6002038009
   3.4965691017    9.8865882009    7.2873728717
