B2 C140 Ca1 F48 H298 O66 
1.0
1.7928740309849669e+01 -4.5037002740432178e-16 -8.4118864499828247e-17 
-2.5060603103745325e+00 1.9434676434940673e+01 1.4244467459231296e-16 
-1.0726300004455649e+00 8.1150384482725402e-01 1.9448746714612177e+01 
B C Ca F H O 
2 140 1 48 298 66 
Cartesian
   9.7610804160    2.9882920879   16.8263404584
  -1.2770294408    6.0208525946   12.1034046545
   0.0573078238    0.8280461157    1.7084859728
   7.1682080007   13.8427670728    6.5573645910
   5.1202545448    6.2304121323    1.3395633351
  12.3770296190   12.6583562572   12.6696715706
   3.5848226759    2.3129907759   15.5389939396
   1.6472190041    1.8714520381   18.4028500058
   1.3413773766    2.8070388354    5.4267484346
   1.9007949026    1.4294605766   16.9870865768
  -0.6471708794    3.8893363958    5.9562382305
   3.0973542577    5.9150026671   18.8580953696
   1.7811050015   16.2006720430   18.7962080874
   0.2019910172    3.6699010016   17.7222596161
  11.8468351617   15.6338063402   15.3272771432
   4.4417176702    9.7709797293    0.6225124424
   6.4250185921   17.1532317807    9.1325494830
  12.6177887513   11.8200445672   16.1059816654
   9.7464534491   11.9296605242    6.3260035536
   9.4744998029   13.4031590909    6.2010071666
  12.9492846206   11.5201273271   14.6607311906
   4.1893519125    7.4171717215    1.3798610475
  10.8297892436   10.3900820273   16.7309982245
  12.0347772668   11.4624531997    6.7483919722
   0.0267549172    4.8311376490    6.9580416148
   0.3400264684    7.2019371896    6.6965583233
   4.7214803951   18.7347766098    9.7251894858
   2.5658105591   16.2759860601    1.6716131660
  16.2814229668    1.5482362096    3.2196725524
   3.6506940282   19.0759958432   10.7524588447
   2.0455195553   14.9005758843    2.1579380508
  13.0833251770   16.6789684002   17.0688231126
   5.2781149471    1.8344490293   10.8729105640
   7.5671508201   13.7640308783    3.0332346521
  14.9668003536    1.2314468220    3.9315345892
   6.4302296032   14.2291966473    0.9908815674
   5.3789418482   14.7687065384   18.9652914697
  -2.2212691461   15.4652220458   12.2823991966
   2.4700024351   12.5610847389    2.4454715810
  12.6835940536   15.6430286172   18.0511423492
   5.4746074213   13.1055199438   17.2487463360
   5.4407266581   17.8415384571    3.5194973874
   7.1362120653    0.5270979764    2.4139970832
   6.0872613578    1.5300472046    2.7892692031
   3.7343314252    1.6700313060    2.5030816201
  -2.4485504128   17.2631707264   10.7999706920
   6.3443251898    1.0722379275    6.1459880072
  12.1528481651   15.2080013601    8.8036439794
  13.9193799883   17.4890482676   10.6988543825
   3.6130513915   15.4914155962   12.1978028339
  13.1486740999   18.3426889849    4.0868012446
   6.6623095374    2.2879804125   18.3155349476
   7.4203984746    4.5591216453   19.2033124265
   7.5702827733    3.4974475992   17.9832650180
   3.8069808774   15.3290490184   14.6339163026
  12.0243086948   18.2301878104   11.7912094841
  10.1537004517   14.7476654798   10.0687067126
   9.0487293146    2.8297659692   13.0582068028
  12.5218694623   15.7889840327    0.4771533166
  12.6939370912   13.0805860653    3.4024803072
   9.3403887856   14.0111927625   11.1354763250
   5.1412424995    3.1985660846    6.6727190719
   1.7382555003   12.7789854391   10.8073651792
   3.8331142488   16.7859715141   15.0725337007
   0.8804980214   18.5060951185    8.1088354276
  10.0361286193    3.0647106246   14.2607694269
  11.0350285996    4.2092522565   14.0340263358
   5.3502541010    4.6659368072    6.4912760692
   4.5968265072   18.9591493040   14.5606432490
   9.0551756058   11.8423028396   10.0555524267
  -1.1919030264   13.2749209512    8.5321421009
  15.3229934144   11.4209802601    8.4699788678
  -0.0788625947   16.9316819384    6.6963517837
  -1.5371072566   10.4534860210    7.9478913012
   5.2889398223    6.7656710503   15.7378722073
  14.0386034185   14.7005239662    4.4636213671
  -1.0384793221   17.8538378877    5.8596643011
   3.1439426759   13.6267729607    9.0287584516
  15.5809104583    9.8906949576    5.7317943499
   3.9117339457    6.3306260212    5.4543334883
  11.5327648870    2.1894881112   18.4072868752
   1.8649422301    5.0423049861   13.3321773771
   9.2551064275   20.1106407392   18.4845007937
  15.3637077741   13.9685475987    4.5222978243
   6.7648242678    7.1744096444   16.0874545840
   3.0933759407   14.2568407816    7.7065084999
   7.6749356922    7.3821403437    4.2837061075
   0.1519960867   18.2264878352    3.8059390178
   6.8449061628    8.7981685526   15.9100576951
   9.7349344349    7.7783429289    9.4419264460
   0.5690685550    8.1074801499    3.0449552317
  12.7019602523    3.1888908318   18.7875614042
   1.9076534029    5.6695382955   10.7285042023
   1.0726568728    5.1343757829   11.9418502681
  10.7052728173    5.5061424397    3.2890157057
   9.2997640701    5.6883595490    3.7727019111
   8.4816769858   15.5681721450   17.3701753397
   8.8547722680    8.3662081019   10.5902054894
  12.2407241512    8.5065232395    4.1717265534
   8.8286649502   18.1225612984   11.3077826242
  -0.7637157314   13.0850326856    3.4224699576
  14.2035395085    6.5658775066    6.4775964921
   7.4286677100    8.6270407439   10.0601505243
  13.3926839542    9.5702211137    2.2050741689
  12.0810948848    5.9130763582    1.2878162949
   2.7791526334   14.2380704427    5.3289760011
  12.5091311523    7.9223604344    5.5044763069
  16.2129549486    7.1388380226    3.2877441986
   8.5326122619   18.0721339795   13.7365801739
   8.9036475093   13.1627128753   18.0421727199
  14.8573683155    8.0233922846   14.6430066144
  15.8696176288    8.0424242733   13.4956546455
  15.8137755524    6.5199588080    1.9835850667
  14.9078350559    2.9919907291   11.0346114581
   8.6693106523   12.1224870231   19.0289710678
  14.9210110399    4.5381667834   11.1808439884
   9.3886114170   18.5453228093   14.8833831588
  14.1922590068    5.2189851965    9.9802073847
  15.8162285600    9.3737047991   12.7187603253
  11.3927641034    0.5354115307    6.8219406844
   2.4651339731   10.0022347467   16.2198897256
  -0.7433610663   10.1873405907    0.1122811730
   0.7235642621   13.2271851497   15.4189985950
  15.9407099443   12.0883843845    0.4803467730
   4.9102170015   10.4988208821    7.5299314188
   5.0865446669   10.2774857879    4.5618238377
   9.1768932092   16.8548460070    5.7289787108
   8.0836239153   17.8508528909    6.2011623147
   1.2236904971   12.0301136565   16.1528333233
   2.2931064314    0.5363808373   12.8169000803
   1.0224762229    1.1589947336   12.1519284221
   0.6790620212   17.8733236018   12.3507095757
   0.6574494808    1.5671141009    9.7335637749
   9.7132774571   10.7711331073    1.8790967531
   2.5670957645   10.0765378265    7.8527194188
   6.0588818635    9.9377609576    6.6735652309
  13.2969227429    1.1560887621   14.5946224775
  -0.4691723364    8.4006633428   18.5016472962
  16.8409292474    4.6644198389    0.6608157232
  -1.5627964661   13.2887374860   15.3183204839
  -0.2880317393   10.7006758448   19.1987047169
   9.5424180710   16.9313371152    3.4592576561
   8.5195641615    6.4079328793   13.2650908282
   6.3729919627    1.6248413162   17.1930356505
   8.3300794911    5.5904676449   18.9680019368
   8.7400159875    4.1098477686   12.5141504852
   7.3231720320    1.4176262204   19.1184280931
   8.6798578278    3.2880635774    1.0640446438
   5.4603152792    2.6682124745   18.8714080338
   6.2915154770    5.2556106034   19.2953283731
   7.8706112300    2.3834146527   13.5128896621
  11.4936705478    4.1197083917   12.8141114298
   9.6558414773    1.9625385314   12.2347070622
  12.0677653340    4.2366274347   15.0301718344
   4.2753625890    7.3236929262   16.3924766472
   5.1780006398    5.4339004643   16.1649520118
  10.5057323617    5.5069356440   14.1233500408
   5.0464220590    6.7974519940   14.3690643180
   2.6492591232    3.9721051374   13.4889622002
   8.1347661409   19.4127360430   18.1081535343
   2.5235780291    6.1562726406   13.5671757865
  11.0139886268    7.8375536841    9.9013001779
   1.0788661643    5.4507953358    9.6831787038
   7.0105837364    9.1779648253   14.5446103804
   7.8822576936    9.3439701044   16.5412776270
   0.8289196096    4.9193539095   14.3351831027
   9.8163498311    8.3307140457    8.2303260249
  10.4633197713   19.0991030347    0.3943978449
  13.7774418584    3.1716760355   17.9276822837
  10.3021076640   19.6086957244   17.7241792003
   2.9988312266    4.9484555532   10.4971754905
   9.2120065256    6.4347546333    9.3069311505
   6.6543652123    9.1303040247   11.1133791261
  14.2255678222    2.0491491950    0.5695132383
  12.1902632798    4.4637521415   18.7840221380
   5.6903055335    9.4131571049   16.2547131649
   2.2968611855    6.9761463866   10.7808345454
   6.7729712889    7.5125582696    9.5011131481
  15.1048427062    8.9922009612   15.5542565752
   7.4641431375    9.5140129648    9.1367210838
  13.7190833518    2.4290160706   10.8292911375
  13.6144530010    8.2788231691   14.1479590283
  14.7847406446    4.7672945741    8.7825841420
  15.6892896309    2.6676627825    9.9840042800
  14.5545082962    6.5917569888   10.0607976850
  14.9322134573    6.8289846365   15.3341597007
  -1.6926240433    9.1643302297   11.3986393737
  15.3741992873    2.4271006087   12.1238704274
  -1.3268839222   10.3918607426   13.1861247276
  12.8731488357    5.2042920718   10.0936716426
  14.5985068111    9.9964034721   12.5999876586
   0.7277375423    1.2402505046   18.7443680000
  12.9504853081   12.8638196216   16.4530557087
   1.6655055332    2.1435651799    4.7055311538
   5.3482747534    5.9794041241    2.3871636989
   6.1066592026   16.9108415796    8.0953314866
   9.6158664750   11.6539936860    7.3581829740
   6.0916095829    6.5643680410    0.7173937932
   4.5839121611    2.7065129028   15.5309542115
  16.4877357619    4.3859063692    5.4448056144
   0.4562481489    1.7748094629    1.2479285262
   0.6968728935   16.4718323702   18.6474316304
  -2.1833340564   19.3931147512    1.1368970433
   6.7709627474   14.7853541641    6.9000286071
  -0.2192750974    2.6987567679   17.5491737190
   0.5029787058    0.5863265026    2.7626304788
  11.4443017052   12.2062871313   12.3493672135
  -0.8039468003   19.8005792644   16.9029576270
   7.1489020777   13.8779464718    5.5288271990
  12.8358712881   15.4366451383   14.7685297307
   5.2779349787   10.4603197897    0.3798487231
  13.0673515836   12.0295652456   12.0625405016
   3.0423236447    4.9798818931   18.4090026498
   2.1004936463    6.3909728850   18.7202768400
  10.8820289925   10.2229225954   17.7857939893
  11.9178096146   10.6722278059    7.5948872073
   1.0847564860    2.1697453423    6.3104326161
  16.8924890676    3.1416464295    6.6161897573
  10.4811588228   13.8331320094    6.5719697102
   2.8492085887    3.1282196671   15.2956859646
   5.3696549434   19.5383484226    9.3655057872
  11.6519413715   14.7114697318   15.8189686763
  12.5072312987   10.5394778963   14.3899945559
   2.0452348908   15.1418896331   18.9590713355
   2.3736868861   16.5138633384   17.9101238538
  10.9879711945   15.8199365485   14.4297658483
   7.0286546420   18.0716572818    9.1204826904
   0.7562537872    4.0863818101   16.8238982914
   3.2945508391   16.6193036853    2.3263378103
  -0.7056290894    7.4734345628    6.9285676648
  13.0889263199   11.0972627886   16.7613818346
   2.2504748691    3.5263205510    5.6346017466
   7.1247805813   16.5721543594    9.6560758250
   9.0788481469   11.3763515236    5.7638441986
   3.6689240807   10.3247844352    1.1716992024
   6.5837825448   12.9672183844    6.9767842142
   3.0239219332   10.2532434313   19.0141140051
   3.8608126096    6.6890521029   18.4710883974
  12.3062829801   13.6282596180   12.2088680398
   2.4245359899    1.6419433875   19.0514872136
   3.3687335517    1.5505391601   14.7336533807
  -0.4037300025    4.4751217747   18.1914627566
   1.4274942026    1.8494246971   16.0569076832
  17.0777116131    1.2250586462    3.9452158834
  16.5374647903    2.5393156498    2.9623924765
  11.5031423596    9.6821680997   16.2428405733
   3.5543877644    7.4598376450    2.3074895404
   3.6038302154    7.5056651492    0.3919579275
   0.5131566683    7.9580721409    5.9401368345
   0.8163175531    4.3335480572    7.5765097852
   1.7903851323   17.0474245870    1.4589305471
  12.9810397123   11.1611303063    6.2092336364
   4.2019294198   19.6301632835   11.6159076837
  12.0858396665   12.4269342129    7.1964818262
   9.7718154698   10.2948469861   16.3477493150
   9.2734764046   13.8223920571    5.1191179661
  14.0416189454   11.2909296977   14.5958074953
   4.1672529846   18.4156651909    8.8223778298
   7.1993706308   14.8201281008    3.2668450354
  -0.7259773998    5.1705596879    7.6954845842
   1.0560269971    7.4630983424    7.5130172363
   6.5934521544   15.4014016652    1.1163270139
   6.2408462998    2.3635527490   11.0055819950
   1.3220650736   14.5537873528    1.4546830732
  13.1415542411   17.5003344008   17.6875210848
  14.0229987117   16.3522509457   16.4901251078
   4.5169842628   15.3226202999   18.4798525566
  14.7416655697   15.3876744218   12.6915363080
   8.6076392500   13.8300142244    3.3217032975
   4.6332343722    2.4932144810   10.3774167764
   3.1072609158   18.2113539222   11.1451161025
   5.5254451200   11.9952536790   17.0704443306
  -1.8370333925   14.4556302655   12.3451044369
  14.1492452257    0.8822578475    3.3355978131
  14.6657056352    1.9443579906    4.6308190355
   4.9177423716   16.9917486777    4.0110672006
   6.9717792619    0.7453805018    7.0186758184
   6.9999742005    0.4922598342    1.3244953431
   1.4135491127   15.0819719791    3.0440676159
   5.8119135746    1.5058547940    3.8708537448
   2.9382987985    1.3443698304    1.8678961429
  -2.0526591258   17.7942143871   11.7714223619
   1.7177020127   12.4916833025    3.1292179805
   2.2879779752   12.3600275053    1.4413029924
   7.1784544264   13.0058386671    3.7324349318
  12.5843984414   14.6454683892   17.4875459157
   4.8928080734    1.5836634409   11.8966293793
  13.4153419072   15.6269842173   18.8448724357
   6.4130569849   13.5616789058   16.7181777920
  11.9519860357   14.4556664238    7.9294259762
  13.4259447160   16.4923222217   10.9088554089
   5.4893606462   13.9308279897    1.5005891361
   2.7321202017   15.7557323466   11.6153334999
   5.9081115642   18.4593995889    4.3116515712
   3.9711161220   14.4728069939   11.8186706591
  13.2268610900   15.4015394423    8.9028365699
   3.8413633051    2.7551178457    2.2183945569
  -1.4268991877   16.0560159139   12.9208446058
   6.3596627659   15.2139061967   18.6810919441
   3.2785665008   11.9221545474    2.6921828090
   6.8620426659    0.7415688522    5.2879327269
   5.3799648210    0.5338571781    6.2029349351
   4.6446130241   13.4644614073   16.5755345013
   7.2674224108    3.9921889285   17.0081239883
  11.6978020670   18.9606725215   12.5746247158
   3.3121270915   14.7167090938   15.3789036597
   4.9232075944   15.0163426146   14.6235432773
   9.9557351172   14.3888825339    9.0884234312
   4.2467184190   16.3544550979   12.3256171496
   6.1647450176   17.5766068980    2.7852715079
   8.1549882403    0.8976700061    2.7331254156
  -2.0520725239   17.5481844287    9.8097615817
  14.2120349954   18.2114324427    4.1606171358
   6.2350036126    2.5955168589    2.4199770047
  12.8391644678   18.0762856171    3.0840819354
  12.6475042599   17.6620657050    4.7463699062
   3.3213868348    1.6091872216    3.4699177899
  11.9289325328   16.1911950807    8.3862232088
  13.6097948357   17.7111112178    9.6708077531
   9.5109684175   14.2917735905   12.1219828961
   1.3909764766   18.4285511117    9.0766159256
   2.6975872182   12.2846298608   11.0482998728
  11.6716139179   12.7875582838    3.3068415068
  13.4418059826   12.3081818749    3.5405291184
  11.3980449897   18.2213706526   10.8306505198
  11.9310068931   16.7597575248    0.4811642405
  11.9816153636   15.3432397736    1.2272702793
   1.4879402218   13.4276743052   11.6592203739
  12.0147182108   17.3153797571   12.1989329822
   0.8502601148   12.0582124875   10.8114098953
  12.8931220628   13.6799508747    2.5605743515
   4.2901557147    2.9217394816    6.0117302269
   9.9264837549   15.8114057028   10.1713707629
  -1.7027475217   13.8079396933    7.6331859452
   9.9821101162   11.1599605315    9.8016706711
   4.8294754890    2.8817680848    7.7145851286
  13.5938773375   15.7612498151    0.9463077788
   5.7780429425    4.8616371412    5.5698713846
   6.0728017617    5.0991373308    7.2024530591
  14.8585235254   11.9689438423    7.6268652232
   4.9845929837   19.5379256571   13.6129480237
   0.6076313265   19.5722738170    7.9413024750
   1.7053844063   18.4321604103    7.4191350215
   8.2139421052   14.1670060931   10.8418935824
   4.2459328974   16.8925305851   16.1513420503
   2.8745157137   17.3041113666   15.1572552824
  -0.1896939288   12.7978287221    8.2737374873
  -0.6833372311   11.0615127452    7.5764111266
  10.7593954374    2.2676563558   14.3134071889
  14.0019770463   15.1776083392    3.4261851356
   5.4164822792   19.2035234414   15.3060146811
   8.9232324177   12.5300980880    9.2228586907
  15.0949996584   10.9204600245    5.6139337730
   3.6766300928   19.2861423083   15.0336896718
  -0.8414280457   18.9898943897    6.0517845963
  -2.1603716422   17.6372697045    6.0665453371
   8.1633847600   11.3366458431   10.2906645245
   3.6205366006   12.6660825177    9.0499908775
  -0.9341816243   13.9759723496    9.3144141436
  14.0304683370   15.3269639453    5.3380412627
   3.6362890474   14.4412453828    9.5618947233
   0.9692899520   17.0203816653    6.2419864934
  10.8755287902    2.4070612086   19.2164770895
  14.5757999491   10.9976627622    9.1114976823
  -0.4946095839   15.9992393226    6.6871390409
  14.7934343561    9.1456426180    5.2273186024
   3.3496814565    5.9261983859    4.6291877156
   7.6775204161    8.4756932883    4.4286536544
   4.8894210667    6.7419214339    4.9899389652
  -1.0424170758    9.8753091145    8.7736339356
  15.4242574984   13.2577339170    5.3838203316
   0.8683420979    7.3156076434    3.6689304854
  -1.4533828966    9.9210338330    5.1120543487
  -0.1442684249   18.2196410084    2.7576957272
   0.9833707815   17.6454993075    3.9533267532
   2.7550743672   15.2176150215    7.8053375432
   0.8065842217    7.8793558700    2.0125592569
  -1.7064409885   14.6627724237    4.7521546726
   4.2796767958   14.2694968528    7.4644253659
  11.4666063535    5.8845066445    4.0442843718
   6.8249079273    7.1766912888   17.1375175199
   3.2220912176    7.1144774493    5.7647403748
   1.1515288732    9.0081168219    3.3030275095
   7.1218219252    7.1424406795    3.3627068067
   7.8598039306   16.3713843873   17.7257225786
  10.9499039238    4.4359985309    3.0293121641
   7.3123414260    6.8270488770    5.1500565814
   0.5369994734    4.1779629999   11.6941695847
   7.7604372062   18.1391294615   11.1946292231
  11.2533097549    9.1535439104    4.0323639606
   8.6531619288   15.2371008953   16.3316670290
  13.7366778471    6.5391951931    7.5055998708
  12.0559822692    7.7599755992    3.4210790330
   9.1080422712   19.2255413715   11.2718058384
   0.2839181367   19.2929199230    4.1294772065
  13.9482165141   10.5081407940    1.9642241048
  13.0509339141    6.0968529708    1.8305905137
   8.6280435445    5.2558270153    2.9720003154
  -0.3625047284   12.2302326274    4.1119693747
  12.3638868732    9.4540625923    1.7666701004
  11.9897833424    4.8097070623    1.0162037755
   9.5271077306   15.8179040139   17.7645896758
   9.1163713962    5.2918955235    4.7277704936
   9.2845769118   17.4524710692   10.4920964354
   2.7498195840   15.2719900930    5.5654878906
  -0.3157446272   14.0466926724    3.6478445524
   9.3044281313    9.4204647478   10.8034795341
  15.0607010185    7.3146883541    6.6105045209
  -0.5038947261   12.7398229506    2.3910974451
  15.2067090393    7.5057597390    3.8218195144
   3.7878991467   13.8284094669    5.0519297764
  14.7015120747    5.6697754025    6.2780004410
   7.6827447559   18.7314072328   13.4407024710
  16.5836226221    6.4858796878    4.0371540412
  11.5609351411    7.5837935548    5.8391970643
  14.2295486513    8.7863361037    1.8277093162
   1.9779422863   13.7546445282    4.6321458327
  12.9057733080    8.7142128798    6.2279119342
  12.1781157802    6.7019930879    0.4720713311
   8.7998390587   12.9150923536   16.9572433909
  -1.0147290508    8.1289646055   13.8699138164
   9.1317337818   11.0577288617   18.7118895824
   7.9297650163   17.2640631558   14.0630860089
   9.9307566400   13.5895266679   18.0869045899
  14.7076492473    6.0055436785    2.0569535435
  10.3679880563   18.0588010648   14.9836193813
  15.9346786641    7.2679953177    1.1182375874
   7.5576571956   12.0044070271   19.1067982857
   1.8422311961    9.8202311414   16.9698405216
   0.4962274886   14.1322307826   16.1370381525
  10.1115951318   17.4407655483    5.7301796826
  10.8206857033    0.8482812610    5.9456533266
   5.2070903069   10.5409687698    8.6099745423
   4.5476987346   11.2248900134    4.8035158408
  11.2588723035    1.1990746957    7.6243102912
  -1.1043773414    9.6698536716    1.0340752593
  15.5701056050   10.7907532551   18.6566014932
  14.3405474705    4.7226430711   12.0480040563
  15.9809817571   13.1489708990    0.8380370509
  14.4436681448   12.7526580220   18.9924490160
  -2.3818460366   19.8582779074   12.0330053769
   3.0283546388    1.3775984204   13.0147486473
  -0.0296917803   17.4984144603   13.0968676456
  -0.1365597797    0.8573052578    9.7544132798
   8.8381987073   18.5779682749   15.8640471728
   4.5553919273   11.5351930319    7.2417924404
  15.4546518379   12.9553454938   14.8045776347
   9.4153741438   17.9863361400    3.6373167446
   2.6246305808   10.0900445129    8.9202464787
   2.7703861964    9.2367120452   15.5664833433
   7.8785790234   18.4272957573    5.2957884602
   0.7257974890    7.3933017489    0.1297203204
   1.3887586521   13.5854290451   14.6831421285
   9.9208328985   11.2158349777    2.9053307293
   2.1603086612   11.0921542566    7.5228760793
  14.1589192583    0.7419581473   14.0283188454
   5.4784685826   10.5076869680    3.5112218791
   1.9154688215   12.4175594275   16.8987747943
   1.6766694929   18.1007987198   12.7882418626
   1.3083705031    1.3725565486    8.8543111176
   9.2373116371   16.2413951019    6.6068000248
  -1.6355695681   12.7337647721   16.3021720181
  15.8485833756    4.1680951729    0.7143140462
   3.4768072752   10.3415091241   16.6131266335
  15.3196645160   11.5264313879    1.2017474393
  12.4387992020    0.4265797156    6.5446231761
   4.2710920927    9.4762999120    4.5859850628
  10.1311363500    9.8158457301    1.7212659854
  15.7430287237    6.1262574155   19.2127143707
   6.9378835993   10.1584486738    7.1891002017
  13.1649990093    2.1397060893   14.1812651701
   0.1999546495    7.7285834944   17.9558681985
  10.6319547292   16.7335100491    3.2668404147
  -1.5854254204    8.3552970630   18.2019751655
  -0.5217753688   19.5376118581   13.8638774578
   0.6319587415    1.9985231286   12.8669798318
   0.5665970337   17.0958830662   11.5659834850
   0.2892589379    2.5164409937    9.6074488284
   1.2448282360    9.6153052097    0.7516567203
  -0.0320635094    4.1802402970    0.5380018483
   0.0928401848   11.6400322881   18.7465514871
   0.3244903783   11.6798854569   16.6543827773
  13.7723956254    1.0891050366   15.6907331670
   9.0757064262   16.7095889878    2.4254561850
   1.7358752420    9.4040439639    7.5779338443
   7.2636630968   17.1972193845    6.3871491045
   5.9259186385    8.8011063767    6.7021618949
   8.6662795228   10.6599436359    1.7853957894
  -1.7638187482   14.3692098061   15.4006006983
   5.0641090632    8.6281624913    1.3688456284
   8.4501679554   13.8719818415    7.1046262262
  12.6704813179   12.7260563575   14.0244574632
   3.3903362748    1.7441983588   16.8559377332
   1.3170789600    3.2636970287   18.6804136606
   0.6727153992    5.8804785407    6.3020296638
   4.5294102600    5.0159149858    0.8120424282
   0.2027012892    3.4965422378    4.8918826056
  11.0266971544   11.5158746620    5.7929167685
   5.4206945788   17.5309586403   10.0699718665
  16.6144550888    0.8040090743    1.9628804295
  11.1279400145   11.7306650142   16.3667116415
   3.3493754941   16.1347130183    0.4542248813
  12.0596486769   16.8363930137   16.0836297624
   5.3490215983    0.6351110371   10.0584846816
   3.0765920515   13.8823227843    2.3671119255
   7.5636910488   13.5965087272    1.6737782229
  12.7176750929   19.5534639329    4.7280159687
   5.3677232979   13.3934639944   18.6255001760
  -2.0306033518   15.9235237486   10.8867168412
   4.3474646847   18.6622382965    2.8618264715
   4.8966206675    0.8995426605    2.1591637572
  11.3833272232   16.0300341362   18.5865677843
   6.3222633080    2.5430028865    6.2230259147
  13.4426784994   18.5377494797   11.5022173677
  11.6574700479   14.6839307465   10.0766864571
   2.9177445388   15.1163517943   13.4711032733
   4.5365757521   17.6461545934   14.1711446326
   9.2897260218    3.1959365435   15.5899369592
   9.0190554390    3.1689784032   17.9467124993
  -0.0978827814   17.5926604096    7.9750283502
   9.5249115414   12.5462462892   11.2208217776
  12.8323473250   13.9330104345    4.5523226476
   1.8236472436   13.4700312968    9.5752321615
  -1.9925340333   12.4215404172    9.3583926805
  15.9376529711    9.4856344543    7.0026616063
  11.0597263792    2.4992037240   17.1260651260
   4.1694382012    5.4724743477    6.5878947606
  -0.9394930261   17.5721094000    4.4445658252
   9.0143549629    7.1096585211    3.9991354423
   7.6670347446    6.5105788978   15.3465113752
  15.7210986903   13.1714532545    3.4341283638
   2.5092915023   13.5498867354    6.7072786287
   8.9296593571    7.4386947473   11.5960911341
  13.3883737118    6.8117902127    5.3642166110
  -0.8393239806    8.3457799169    3.2569108021
   0.0891405381    6.2167414910   12.1779351680
   8.0494472916   14.3942269705   18.1508907040
  10.9218907340    6.3591707401    2.1412411361
  13.2754827773    9.4534447875    3.7395530114
   9.2873937090   17.5938918034   12.5770928016
  16.1773804050    4.9942639464   11.3835472753
  15.6983208472    6.9079948527   12.6183810525
  16.7969682598    5.4615678748    1.9014111308
   1.9359790586   11.0690055341   15.3698147302
   9.5428184641   19.9463683444   14.4839061062
   6.2479115841   10.3365392169    5.3956010706
   8.3605744307   18.7249024235    7.2480115928
  10.1830698669   11.6947779183    0.8519999782
  -0.0605751443    9.7312231801   18.1601590443
   0.1902539585   19.1121310182   11.8847585982
   1.5078504236    1.5899754234   10.9001912383
  -0.6795469238   11.5185406211    0.4164847949
   9.0356081072   16.1098233992    4.5507197961
  -0.4261480172   12.9250566735   14.5627873470
   3.7823289547    9.6515478669    7.3111017939
