B2 C140 Ca1 F48 H298 O66 
1.0
1.7929628488022853e+01 1.0607240896950132e-16 2.7150947639844414e-17 
-2.4969519335850050e+00 1.9450203287490311e+01 -1.6066597866423942e-16 
-1.0839758869634550e+00 8.1622664611596529e-01 1.9449759445610791e+01 
B C Ca F H O 
2 140 1 48 298 66 
Cartesian
   9.7581434016    2.9809113488   16.8400327544
  -1.2853088898    6.0289667607   12.0957323845
   0.0782162816    0.8129150565    1.7281168541
   7.1608645369   13.8659847216    6.5811524221
   5.1261615083    6.2293578508    1.3364829187
  12.3667713344   12.6569952241   12.6739618900
   3.5641891511    2.3068737686   15.5301195111
   1.6419769040    1.8754028687   18.4109488136
   1.3319445830    2.8047827462    5.4139397183
   1.9269123187    1.4461934503   16.9965392457
  -0.6682948271    3.9027330150    5.9627183933
   3.0955080771    5.9213631192   18.8323518722
   1.7668737576   16.1993088544   18.7926501924
   0.1927322066    3.7048913303   17.7405897921
  11.8555752364   15.6603451957   15.3142503198
   4.4495977483    9.7864853358    0.6369056359
   6.4236856834   17.1648811544    9.1205594859
  12.6094990344   11.8427127507   16.0865006165
   9.7431700616   11.9138996307    6.3003221848
   9.4678878882   13.4215685608    6.1971899958
  12.9461630947   11.5539557295   14.6429063191
   4.2001190437    7.4336169269    1.3940721385
  10.8258205572   10.4300440605   16.7325802615
  12.0331547187   11.4686116916    6.7639140657
   0.0272228527    4.8286261235    6.9555126233
   0.3340243408    7.2132877781    6.6920291562
   4.7303698401   18.7751206845    9.7175425115
   2.5673567392   16.2746138618    1.6713470865
  16.2918774865    1.5578832859    3.2072261596
   3.6423611055   19.0986048267   10.7554067118
   2.0606465488   14.9211420219    2.1492763385
  13.0835917591   16.6909480427   17.0534761968
   5.2776362812    1.8403178163   10.8798481649
   7.5706459499   13.7589605231    3.0431567305
  14.9659836506    1.2289449844    3.9231872414
   6.4302052492   14.2467000299    0.9941946687
   5.3517688785   14.7868822216   18.9695584542
  -2.2199199383   15.4896829799   12.2866189335
   2.5126658901   12.5569132347    2.4491307236
  12.6835648646   15.6686665224   18.0434733558
   5.4737469216   13.1165065299   17.2404061394
   5.4480157886   17.8554686454    3.5128771021
   7.1383357435    0.5380777740    2.4105485947
   6.0899213152    1.5347740424    2.8034167130
   3.7278896879    1.6753153584    2.4903521873
  -2.4309317444   17.2717688435   10.7982328521
   6.3374749040    1.0667059404    6.1445767007
  12.1570305533   15.2183297816    8.8009317205
  13.9400872297   17.4874746255   10.6970260119
   3.6092241079   15.5058628644   12.2040340210
  13.1430354474   18.3365710990    4.1076079423
   6.6610143949    2.2874928336   18.3172029403
   7.4032329139    4.5546951587   19.2067003657
   7.5552695633    3.5056149000   17.9810500863
   3.8307542264   15.3343836843   14.6324976779
  12.0240723417   18.2439805468   11.7847283464
  10.1430987441   14.7622987039   10.0717259460
   9.0479184808    2.8362383689   13.0795748324
  12.5170447019   15.8251816888    0.4726380154
  12.7007486659   13.0944433893    3.4108157723
   9.3369781557   14.0296930833   11.1210323070
   5.1186269860    3.2018275674    6.6476973690
   1.7436500647   12.7772021614   10.8072499565
   3.8439364491   16.8026260904   15.0621957726
   0.9020162209   18.5281177254    8.1220495749
  10.0297994663    3.0689490145   14.2665703716
  11.0319206770    4.2035112670   14.0268966397
   5.3339611623    4.6909612104    6.4964412331
   4.6071026906   18.9729452336   14.5344773594
   9.0762371457   11.8507383258   10.0717918214
  -1.1917816901   13.2964703193    8.5378273651
  15.3299879021   11.4267643322    8.4647138957
  -0.0779346720   16.9579252070    6.7026603771
  -1.5349204568   10.4697326116    7.9661225988
   5.2666020696    6.7729823588   15.7401780299
  14.0550803174   14.7122834229    4.4580422772
  -1.0307996657   17.8607875065    5.8712003377
   3.1532956275   13.6280835980    9.0335196845
  15.5810988880    9.9048809293    5.7140275090
   3.9188677860    6.3431041885    5.4521787138
  11.5207673629    2.1955186355   18.3855666212
   1.8454079098    5.0461990591   13.3309284970
   9.2645210248   20.1493697641   18.4853555671
  15.3686413454   13.9816455277    4.5195990669
   6.7601887856    7.1704526314   16.1086506152
   3.1194332076   14.2551711436    7.7102760143
   7.6584370089    7.4086259847    4.3050587573
   0.1547656581   18.2341813263    3.8057942529
   6.8141738023    8.8160651617   15.9078028545
   9.7308291140    7.7836761665    9.4394960527
   0.5659882342    8.1061656463    3.0433489257
  12.6909259116    3.1871058014   18.7963580019
   1.9016019174    5.6903341718   10.7470713311
   1.0538010321    5.1487063294   11.9716703149
  10.7066208522    5.5092217254    3.2829270270
   9.2783296422    5.6903073824    3.7788498719
   8.4695101499   15.5606131314   17.3796486723
   8.8613984047    8.3793065038   10.5966887019
  12.2407066576    8.5003837925    4.1593401871
   8.8413665301   18.1696074861   11.3143124981
  -0.7383620596   13.0914214529    3.4321803757
  14.1853713251    6.5660575411    6.4738185824
   7.4289611032    8.6141667282   10.0786010847
  13.4294446174    9.5602540545    2.2109454675
  12.0998393035    5.9113783498    1.2942276898
   2.7836700292   14.2291777566    5.3392676811
  12.5292615402    7.9388713581    5.4981364496
  16.1901792801    7.1561277313    3.2875912117
   8.5291167952   18.0933426805   13.7328996012
   8.8974835923   13.1607674707   18.0446325976
  14.8657468583    8.0326577212   14.6428152424
  15.8647629505    8.0404668875   13.5012224952
  15.8303878746    6.5267064767    1.9835561198
  14.9087226513    2.9830332840   11.0409290742
   8.6629952646   12.1459369958   19.0249177169
  14.9171597550    4.5208600174   11.1861304319
   9.3954915714   18.5650424213   14.8751898733
  14.1896399665    5.2511524007    9.9695595936
  15.8046709670    9.3901705078   12.7140687250
  11.4031217011    0.5093185176    6.8277924432
   2.4624075252   10.0139577677   16.2044083244
  -0.7269810158   10.1957552421    0.1196857250
   0.7311319182   13.2329086450   15.4296775132
  15.9489823262   12.0893179893    0.4958082283
   4.9081456792   10.5191962117    7.5298388619
   5.0939658486   10.2729587831    4.5409611242
   9.1761198285   16.8713616808    5.7254220270
   8.1093428058   17.8646367266    6.2120397873
   1.2411032965   12.0512246133   16.1626979546
   2.2957282956    0.5408471332   12.8044109605
   1.0260412297    1.1744853991   12.1520115881
   0.6783558298   17.8804885055   12.3424907101
   0.6441815296    1.5481774853    9.7181455243
   9.7236923102   10.7483142693    1.8715768948
   2.5602711908   10.0809785985    7.8126555415
   6.0469467293    9.9387299661    6.6657181806
  13.2864696984    1.1608704125   14.5834698159
  -0.4641252219    8.4004653940   18.4994944917
  16.8366941295    4.6699312234    0.6465340430
  -1.5793374282   13.3092748535   15.3221847905
  -0.3131232761   10.7143283083   19.2009226453
   9.5295659088   16.9402535053    3.4679947521
   8.5203594065    6.4139701058   13.2558629360
   6.3503404188    1.6338712017   17.1874242852
   8.3289645951    5.6000095174   18.9791252309
   8.7344145426    4.1188267379   12.5124152819
   7.3091224566    1.4202603388   19.1135526755
   8.6871311337    3.3055946922    1.0600926658
   5.4417716030    2.6934104426   18.8772613580
   6.2847671475    5.2723542089   19.2875890229
   7.8624330714    2.3770818190   13.5201960398
  11.4966023950    4.1300468484   12.7955012250
   9.6568047805    1.9671005484   12.2304638844
  12.0574388890    4.2398906937   15.0248090340
   4.2487019124    7.3466060112   16.4008335396
   5.1665868608    5.4379910453   16.1649156388
  10.4825265151    5.5019074672   14.1282114142
   5.0358610549    6.7965849265   14.3762342013
   2.6434051771    3.9877593707   13.4814804409
   8.1398545630   19.4418499312   18.1160417459
   2.5319476177    6.1518911611   13.5779882257
  10.9974365196    7.8454070180    9.9158162249
   1.0791107595    5.4428930921    9.6905604522
   7.0119219438    9.1997080124   14.5340351225
   7.8767945206    9.3526203071   16.5475300970
   0.8275473712    4.9211549544   14.3184679490
   9.8276909204    8.3335895779    8.2412842526
  10.4735631890   19.1331985513    0.3985396950
  13.7844953930    3.1637052997   17.9319107114
  10.2970895819   19.6267627666   17.7150439182
   2.9831357152    4.9538260543   10.4887883312
   9.2200914522    6.4449410969    9.3154046954
   6.6576664252    9.1386860750   11.1254592657
  14.2123058238    2.0462872773    0.5814548319
  12.1903855643    4.4656881443   18.7888745813
   5.6930825007    9.4526826416   16.2529089379
   2.2900789171    6.9944582438   10.7736378532
   6.7648417451    7.5280542178    9.5039037358
  15.1199740614    9.0110006211   15.5402380453
   7.4652629070    9.5308632703    9.1434050198
  13.7211325979    2.4430352549   10.8328146046
  13.6152794906    8.2820625540   14.1609435174
  14.7935505292    4.7648930586    8.7935605073
  15.6637595128    2.6681684847    9.9921252826
  14.5479211519    6.6113007267   10.0490201678
  14.9268323362    6.8425720010   15.3396730359
  -1.6808264264    9.1713525864   11.4022179222
  15.3504550498    2.4389828583   12.1436781526
  -1.3298634469   10.3920160520   13.1833772412
  12.8716565373    5.2194453663   10.0960979327
  14.5980779080   10.0031004327   12.5994581299
   0.6955149454    1.2375150846   18.6965154591
  12.9476448772   12.8852212876   16.4210479669
   1.7044784855    2.1590545537    4.6892471268
   5.3422507902    5.9993921669    2.3661408092
   6.0919467599   16.8762912833    8.0971558755
   9.6294505563   11.6308005053    7.3501169219
   6.0507422982    6.5618863382    0.6821692310
   4.5609243977    2.7799076431   15.5493885266
  16.4590225626    4.3712633520    5.4474311202
   0.4284940224    1.7695236785    1.2406917464
   0.6688954569   16.4632142014   18.6816486134
  -2.1704205185   19.3909844091    1.1810179628
   6.7990912567   14.8141984260    6.9020608979
  -0.2573835911    2.6701950565   17.5816259456
   0.4970412136    0.5484437329    2.7237482737
  11.4276803931   12.2850680419   12.3422573986
  -0.8252807374   19.8108316344   16.8371994903
   7.1994323110   13.8937122330    5.5230101500
  12.8485333845   15.4728749932   14.7444223616
   5.2638046887   10.4273693659    0.4133810148
  13.0428112534   12.0074338054   12.0588795632
   3.0608887315    4.9453182646   18.3732151288
   2.1128012811    6.4050679807   18.7056392249
  10.8764196319   10.1798537677   17.8254172792
  11.8598351990   10.6563452828    7.6059245319
   1.1204918730    2.1595416084    6.3047660919
  16.9229872490    3.1235305751    6.6453360338
  10.4421881632   13.8091331757    6.5429715048
   2.8389538868    3.1071174463   15.3014827314
   5.3602820202   19.5847403548    9.4085705001
  11.6063328285   14.7248416705   15.8690023894
  12.4909864175   10.6069938901   14.3711747423
   2.0722394124   15.1411220498   18.9520541931
   2.3596534208   16.5368720369   17.9053536712
  10.9625847641   15.8021848145   14.4755411061
   6.9755764033   18.0728270324    9.0892065339
   0.7159665450    4.1096692231   16.8519997395
   3.2808515235   16.6825706668    2.2622993802
  -0.7501235999    7.4493052678    6.9029646225
  13.0511521887   11.0899939059   16.7799184862
   2.2553683375    3.5013830844    5.6221415350
   7.1604956501   16.5996960601    9.6818558755
   9.1413807784   11.3514219431    5.7773942039
   3.6629831472   10.3487670030    1.1727420866
   6.6206961117   13.0131356893    6.9451671387
   3.0239979902   10.2402324233   19.0407857704
   3.8575188495    6.6786025900   18.4877105037
  12.2513343422   13.6511946306   12.2133758308
   2.4448591327    1.7418417325   19.0718204990
   3.4082066312    1.6345778052   14.7472942924
  -0.4069782377    4.4198597371   18.1483047835
   1.4358866008    1.8488235458   16.0384808887
  17.0553866592    1.2582834679    3.9436831655
  16.5619633177    2.5602069844    2.9579362222
  11.4675253524    9.7100150196   16.2330893535
   3.5590519367    7.4576886088    2.3267745894
   3.6028987927    7.5205672797    0.4375189998
   0.4755456664    8.0120879685    5.8725291410
   0.8398206005    4.3487676964    7.5465124791
   1.7490857429   17.0785932776    1.4484954369
  12.9775622609   11.1845405336    6.2269807189
   4.1881872594   19.6469322420   11.6075339289
  12.0808286821   12.4706306838    7.2028903369
   9.7718446831   10.3339798673   16.3342181211
   9.3492782725   13.8379859056    5.1244716285
  14.0049996060   11.3326216189   14.6103614605
   4.1800765359   18.4720717753    8.8239580365
   7.2247466417   14.8560443247    3.2764930911
  -0.7830756860    5.1238147533    7.6958498040
   1.0792827529    7.4822960056    7.5276977508
   6.5922719393   15.4162603960    1.0975731098
   6.2388267831    2.3468896009   10.9932852993
   1.3282354589   14.5977257407    1.4365679105
  13.1471481204   17.5349891802   17.7061372214
  14.0386858186   16.3802925380   16.4961805451
   4.5413711763   15.3006662759   18.4540737526
  14.7721036180   15.4048894143   12.6913449708
   8.6089631482   13.8477104502    3.3112285797
   4.6217373312    2.4727481609   10.4024785188
   3.1217452304   18.2501382469   11.1646045812
   5.4931426041   12.0185008112   17.1075293546
  -1.7835813369   14.4696703168   12.2972457563
  14.1269935137    0.8772879309    3.3602888706
  14.6765787641    1.9650942434    4.6829912898
   4.9218011634   17.0189263192    4.0305475186
   6.9534076647    0.6862734999    6.9963825877
   7.0095476284    0.4971335509    1.3085002657
   1.4199436736   15.0917891640    3.0807498036
   5.8474020381    1.5155534533    3.8532937252
   2.9518135950    1.3639365197    1.8733843280
  -2.0444146805   17.8296029674   11.8213295367
   1.7075058329   12.5603933216    3.1372791713
   2.2525734404   12.3513408687    1.4838258579
   7.2124595428   13.0250478282    3.7454000476
  12.5573922231   14.6542122651   17.5313961365
   4.8876301465    1.6327987066   11.9004673691
  13.4312284976   15.6512462691   18.8589578145
   6.4113800000   13.5577665020   16.7276995312
  11.9444999092   14.4801984558    7.8657292616
  13.4096181273   16.5421193577   10.9254138138
   5.4732434545   13.9610301325    1.4990940834
   2.6830418814   15.7703128212   11.6508086982
   5.8659092273   18.4488907480    4.3401134444
   3.9530194440   14.4657285752   11.8297748403
  13.2030757783   15.4173401872    8.8952058474
   3.8605522242    2.7443988338    2.1952459985
  -1.4334265861   16.0663207680   12.9303861040
   6.3514262602   15.2007558268   18.6740032542
   3.3240898476   11.9347097129    2.6961604325
   6.8480804164    0.7507181463    5.2658627081
   5.3678567602    0.5038001402    6.2250896715
   4.6110871595   13.4980803020   16.5931010643
   7.2321002283    4.0314284093   16.9867291382
  11.6890253413   19.0009879651   12.5942922786
   3.2869629403   14.7251096800   15.3937771843
   4.9044685878   15.0067201619   14.6092539251
   9.9371946856   14.4093784155    9.1523036385
   4.3024198418   16.3989833732   12.3143413410
   6.1620156513   17.6063449441    2.7963552854
   8.1649863628    0.9062346094    2.7741463138
  -2.0366304689   17.5649905793    9.7783363301
  14.2046533636   18.1976478029    4.1595625536
   6.3085309229    2.6042725073    2.4623100070
  12.8710234382   18.0850188947    3.0399471037
  12.5996874017   17.6873532299    4.8089489710
   3.3389901761    1.5722484648    3.4632544120
  11.9121620761   16.1939001827    8.4068608343
  13.6047325828   17.8120339955    9.7304802776
   9.4898421253   14.2508396405   12.1908570299
   1.4140862179   18.4618761778    9.0795740172
   2.7089891912   12.3308494914   11.0780226068
  11.6465388777   12.7232731148    3.3189909848
  13.4908992601   12.3371165032    3.5228622696
  11.4033259192   18.2664963783   10.9099830840
  11.9326275258   16.7564797065    0.5384578006
  11.9962270244   15.3230353222    1.2575372499
   1.4730389001   13.4542663543   11.6381648507
  11.9987006355   17.2926211419   12.2052252036
   0.8614180817   12.0544213746   10.7631421868
  12.8758533693   13.6949817739    2.5629441572
   4.2583538936    2.9440335952    6.0494404975
   9.9412176450   15.8426928379   10.1351159017
  -1.7365589563   13.7837568280    7.6176984869
   9.9892618141   11.1578850371    9.7984260820
   4.8222573990    2.9422569984    7.7489370552
  13.5995783773   15.8030502634    0.8830552716
   5.8062139086    4.9016204558    5.5627439958
   6.0791679983    5.1364806916    7.2156851669
  14.8361152948   11.9472948607    7.6511518278
   4.9312869239   19.5508398448   13.6334231204
   0.6050126184   19.6433876473    7.9409280835
   1.7424434882   18.4763348107    7.4223961366
   8.2299280021   14.2030111129   10.8122691979
   4.2556871598   16.9385109851   16.1397018432
   2.8735811722   17.2811465168   15.2004293034
  -0.1960904748   12.7868116545    8.2498429019
  -0.6777998134   11.0808170370    7.5578935212
  10.7457497575    2.2728872981   14.3022379579
  13.9789735508   15.2211956397    3.4409195264
   5.3895196329   19.2256028297   15.2642596122
   8.9085453591   12.5845345286    9.2051976414
  15.1072370848   10.9479849075    5.6202862801
   3.7107787983   19.3299465103   15.0177206690
  -0.8713012394   18.9692776103    6.1404147567
  -2.1534895746   17.6290736633    6.0555396697
   8.1930619848   11.3693142676   10.2672984273
   3.6201484631   12.6494057939    9.0741252486
  -0.9353692486   13.9970322277    9.3482597933
  14.0368852697   15.3567649069    5.3181054648
   3.7167322287   14.3960834975    9.6307615546
   0.9627604627   17.0563963945    6.1748676844
  10.8655312789    2.4185417224   19.2030730681
  14.5802878927   11.0086060215    9.1177922470
  -0.4457825028   15.9923426356    6.6620740300
  14.8223610807    9.2331370648    5.2601353970
   3.3166859943    5.8982469460    4.6062416140
   7.6988824254    8.5443135313    4.4769897047
   4.8661266399    6.7628822669    4.9965449782
  -1.0766219598    9.8859021563    8.7660638243
  15.4193341267   13.3343655815    5.3813748455
   0.8964950072    7.3373807464    3.6545105348
  -1.4269799056    9.9693562746    5.0993403500
  -0.1327442931   18.2243108095    2.7890073360
   1.0008168430   17.6672346685    3.8735712054
   2.8169628563   15.2182788552    7.7520511983
   0.7878777353    7.8604003899    1.9645081358
  -1.7143043416   14.6772361961    4.6859823381
   4.2503702502   14.2310960127    7.4693864635
  11.4434998910    5.8584530706    4.0676377216
   6.8723498124    7.2162168598   17.1182285252
   3.2274298961    7.1838075532    5.7539733210
   1.1051683011    9.0455005462    3.3105491436
   7.1243096494    7.1486175511    3.3860495584
   7.7886292333   16.4197483506   17.7335348906
  10.9589917898    4.4221162854    3.0450319840
   7.2934366193    6.8372872183    5.1234989685
   0.5366960402    4.1890295628   11.7285072832
   7.7809362085   18.1389895029   11.1854551434
  11.2509939998    9.1211159145    4.0673958110
   8.6634970049   15.2647459411   16.3173040537
  13.7083741613    6.4785238859    7.4771262855
  12.0696823089    7.7612659801    3.4232093503
   9.0751245953   19.2291707949   11.2835364025
   0.3053920645   19.3058924456    4.1028025284
  13.9161245277   10.5339818935    1.9671279130
  13.0465843750    6.1326823354    1.8250963628
   8.6642351841    5.2779077565    2.9640571712
  -0.3569469355   12.2590747431    4.0989280776
  12.3243200455    9.5239045845    1.7643627864
  12.0015933947    4.8226778925    1.0072672182
   9.5359723268   15.8115380305   17.7691203454
   9.1174688354    5.2842087687    4.7095742477
   9.3146636911   17.5217500775   10.5032417295
   2.7396270948   15.3252725587    5.5980494411
  -0.3011163467   14.0128245193    3.6021182168
   9.2993889198    9.3958185388   10.7870157351
  15.0980044869    7.3043714063    6.6145405518
  -0.5685996760   12.7744155028    2.3258372206
  15.2016223859    7.5073458423    3.8282579918
   3.7870736820   13.8769701985    5.0626379830
  14.7380063142    5.6731839197    6.2453387892
   7.6862457352   18.7439148999   13.4238034017
  16.5687437068    6.5149305814    4.0524860939
  11.5318715086    7.5641791280    5.8278001173
  14.2021938805    8.7885729453    1.8249979179
   1.9810794302   13.7405833059    4.6732357070
  12.8793530167    8.7111091289    6.2276402670
  12.1616572550    6.6644952969    0.4993085016
   8.7772229639   12.9278218319   16.9776714233
  -1.0337873663    8.0753951195   13.8737655416
   9.1261622928   11.0679136149   18.7097246546
   7.9307318649   17.2482420366   14.1064463904
   9.9457267302   13.5712620951   18.1176036617
  14.6957824638    6.0749033083    2.0508630622
  10.3816331141   18.1457787914   14.9867088643
  15.9498246486    7.2527094254    1.0975947123
   7.5610963989   12.0456364234   19.1459279063
   1.7959080580    9.8346703499   17.0022833443
   0.5484212824   14.1027801015   16.1329381688
  10.1739689180   17.4644169607    5.7080595533
  10.8147982157    0.8649919905    5.9528920624
   5.2208601308   10.5569567220    8.5924405713
   4.5063899089   11.2490521732    4.7842803645
  11.1998165270    1.1842922648    7.6065904900
  -1.1065887070    9.6765943058    1.0088008037
  15.5544593455   10.8058783936   18.6916043760
  14.3858054524    4.7541333827   12.0829575433
  15.9881993816   13.1751197133    0.8363882423
  14.4195172498   12.7580000815   18.9281146239
  -2.3748682570   19.8551646009   11.9572484917
   3.0141520638    1.4158891330   12.9832438816
  -0.0492865291   17.5302147870   13.1119857513
  -0.1816261127    0.8582051949    9.7488727333
   8.9297851956   18.6358264740   15.9144145648
   4.5727556910   11.5494072696    7.1962043138
  15.4430564297   12.9762899352   14.7754425660
   9.3844666057   18.0239957453    3.6379498317
   2.6126678281   10.0625713584    8.9286051418
   2.7997286789    9.2530316909   15.5621806288
   7.8964367740   18.4220996189    5.2847968171
   0.7300203321    7.3791171551    0.0947763103
   1.4046550304   13.5702262168   14.6724056425
   9.9525679484   11.2666949959    2.9392088650
   2.2079147766   11.1162668776    7.5640713845
  14.1301515732    0.7899618563   14.1158097720
   5.4879712577   10.5007179158    3.5244368655
   1.8900839863   12.4210199651   16.9343592320
   1.6894499278   18.1102693388   12.7868623834
   1.2781455637    1.3906776547    8.8797827698
   9.2608898420   16.2679604211    6.5649815837
  -1.6527388283   12.7505931298   16.2658407605
  15.8354054272    4.1568043882    0.6673575411
   3.4228023412   10.3611011903   16.6086506839
  15.3037383897   11.5347627732    1.1877684383
  12.4768458867    0.4390740652    6.5138778026
   4.2404799854    9.4805153682    4.6883923525
  10.1689908447    9.7694862947    1.6721984900
  15.7210925964    6.1392004295   19.2248681822
   6.9275164431   10.1293902435    7.2136720046
  13.1716536749    2.1251809838   14.1853610431
   0.1936371308    7.7189835633   17.9430745503
  10.6399158722   16.7707772597    3.2935788975
  -1.5811517985    8.3385904919   18.2611736794
  -0.4775293519   19.5382915748   13.8429427303
   0.6180802378    1.9382892767   12.8660555836
   0.5675928954   17.1667810376   11.5835411125
   0.2970174772    2.5582912126    9.6000503616
   1.2251416043    9.6665878668    0.7102429038
  -0.0402273993    4.1320636503    0.4973140424
   0.0485473442   11.6413920687   18.7598401870
   0.2722813515   11.6986211781   16.6692240405
  13.7372621489    1.0953985214   15.6736368174
   9.1100567172   16.7112905662    2.3865343778
   1.7492311619    9.4026271839    7.5573136397
   7.2913397323   17.2183545198    6.3851771683
   5.9010835605    8.8434673025    6.6996832206
   8.6100362873   10.6674728607    1.7981372879
  -1.7875306391   14.3813057690   15.3756799385
   5.0675922642    8.6363464915    1.3664728500
   8.4549430412   13.8915896330    7.1094182409
  12.6776447875   12.7333247083   14.0427189399
   3.3554306179    1.7539924921   16.8818266287
   1.3051467011    3.2552497837   18.6971399134
   0.6570330633    5.8781381617    6.3067381170
   4.5422651305    5.0109931374    0.8214971347
   0.1999103654    3.4935193756    4.8999022738
  11.0005034793   11.5183753456    5.8137445554
   5.4190038878   17.5324011305   10.0696777011
  16.6139165447    0.8140914932    1.9584507849
  11.1454425593   11.7549916532   16.3711861871
   3.3469543225   16.1460365452    0.4745411619
  12.0516523258   16.8653826329   16.0960895190
   5.3449089972    0.6288245541   10.0510869076
   3.0751498811   13.8791040876    2.3663500150
   7.5756698385   13.6035229576    1.6570423174
  12.7315588591   19.5716318112    4.7230285807
   5.3708496559   13.4040790943   18.6221467665
  -2.0319151205   15.9401185916   10.8907496899
   4.3649679857   18.6656020341    2.8657883655
   4.8868112160    0.9001612623    2.1619395435
  11.3764186680   16.0489223713   18.5999803075
   6.3175670171    2.5401237126    6.2316376127
  13.4301417651   18.5610478163   11.4925593457
  11.6699558216   14.6899203602   10.0745414432
   2.8967441569   15.1348161054   13.4916780755
   4.5473855339   17.6436617912   14.1742932202
   9.2878733635    3.2071254301   15.5826981841
   9.0007210869    3.1814378605   17.9452574031
  -0.1074694586   17.6134627767    7.9654968824
   9.5313099374   12.5742221268   11.1975641776
  12.8367138279   13.9397488231    4.5529063237
   1.8407103037   13.4827373708    9.5764050884
  -1.9968952907   12.4289677771    9.3284297620
  15.9444149893    9.4949547048    6.9919065320
  11.0535049035    2.4991010337   17.1244511372
   4.1554707736    5.4799897023    6.5916796780
  -0.9276778623   17.5924556670    4.4377412934
   9.0180879446    7.1236288206    3.9916323970
   7.6493871775    6.5228478391   15.3426012813
  15.7393770549   13.2043550258    3.4386504113
   2.5097925832   13.5638460140    6.7224383187
   8.9294918691    7.4470678720   11.5906319301
  13.3732145821    6.8106734348    5.3787291789
  -0.8168235438    8.3280225276    3.2405491075
   0.0774116953    6.2214353407   12.1688552803
   8.0536038280   14.4190555226   18.1592963288
  10.9303345160    6.3468788733    2.1441457644
  13.2839580204    9.4705957993    3.7535708077
   9.2926787745   17.6134427324   12.5682579568
  16.1705188617    4.9889925473   11.3805468340
  15.6947274321    6.9178688384   12.6146860089
  16.8026525876    5.4858506949    1.9153502350
   1.9375860709   11.0771463640   15.3781569115
   9.5433036207   19.9612840633   14.5082355413
   6.2535450520   10.3395323434    5.3970289124
   8.3659730963   18.7488084784    7.2437141158
  10.1967142953   11.6936132040    0.8416640652
  -0.0611362478    9.7556526533   18.1559226244
   0.1890597451   19.1193813156   11.8794193158
   1.5113555906    1.5974449771   10.8897159954
  -0.6735591738   11.5329695763    0.4292952127
   9.0349772082   16.1179585113    4.5536843282
  -0.4167250285   12.9364991504   14.5855723376
   3.7910038998    9.6522171332    7.3087985414
