B2 C140 Ca1 F48 H298 O66 
1.0
1.7943818573800172e+01 -2.9049951145757048e-16 -1.8096582235153601e-16 
-2.4571012149902440e+00 1.9501115165465233e+01 -7.8757901858112083e-17 
-1.0342262202035706e+00 7.7338159792546379e-01 1.9447011611578635e+01 
B C Ca F H O 
2 140 1 48 298 66 
Cartesian
   9.8432725658    2.8728465717   16.8981301956
  -1.2667560087    6.0589721286   12.0558567178
   0.1257803168    0.7536258296    1.7898631984
   7.1970732123   13.9509970685    6.6515364491
   5.1559610575    6.2241176735    1.2945445753
  12.4013556743   12.6405182560   12.6342204161
   3.5939693717    2.2964669265   15.5914815755
   1.6366127948    1.8322369965   18.4439947577
   1.3739912709    2.7638388221    5.3828276774
   2.0897328972    1.4243839044   17.0110745804
  -0.6822794617    3.9027413244    5.9966477938
   3.1862201977    5.8902459428   18.7944377249
   1.8146189697   16.1599613380   18.8005319915
   0.3081415511    3.6540449480   17.8112473890
  11.9611725473   15.7029295632   15.2557430117
   4.4673492158    9.7929263441    0.6783644845
   6.4871737454   17.1991447462    9.0963279314
  12.6531193640   11.8305230407   16.0645204814
   9.7487119630   11.8523835678    6.2577590998
   9.5031288345   13.4394042705    6.1735973168
  13.0492997262   11.5826620526   14.6548712565
   4.2621009633    7.5351331353    1.4429453818
  10.8630414564   10.4967379845   16.7383272823
  12.0465553763   11.4900289845    6.8507257102
   0.0242081965    4.8060320803    6.9717968024
   0.3499566004    7.2550853342    6.6789374734
   4.7777631222   18.8022925088    9.6878232378
   2.5921249718   16.2834006048    1.6324424581
  16.3746259725    1.6016325386    3.1437015456
   3.7316081967   19.1768792608   10.7408793326
   2.0859017876   14.9707606088    2.1677534273
  13.1851598666   16.6941117654   16.9990435679
   5.3116991669    1.8022751952   10.8979280330
   7.6338466151   13.7984394861    3.0543721220
  15.0037295466    1.2106647925    3.8886062294
   6.4589623381   14.3131483329    1.0182580513
   5.4171500501   14.7587494412   18.9777311525
  -2.0578566859   15.5176348199   12.2696151465
   2.6747478727   12.5802660628    2.4594092752
  12.7549669841   15.6897774931   18.0466209013
   5.5431120034   13.1297279717   17.2064141899
   5.4576575216   17.9335787958    3.5052362045
   7.1621972127    0.5528360275    2.4036563191
   6.0864249105    1.4850137866    2.8068566964
   3.7280906287    1.7085238836    2.4211651893
  -2.3440438910   17.3084732837   10.7905554600
   6.3396716815    1.0424191868    6.1658097448
  12.2161496905   15.1923984753    8.7635141698
  14.0779691265   17.4718264367   10.6711130644
   3.6038820647   15.5308499736   12.2660323686
  13.1215432758   18.2828475325    4.1757735723
   6.7132341174    2.2573066617   18.3069465754
   7.4807499940    4.5507755065   19.2182497062
   7.6271134509    3.5135260427   18.0126964412
   3.9134312749   15.3209357756   14.6416890992
  12.1262916299   18.2667215871   11.8253917970
  10.2367044023   14.8234034854   10.1304113002
   9.0918430178    2.8350717516   13.1844031311
  12.5212227069   15.9169087538    0.4752084982
  12.7383812783   13.1024818290    3.4405187397
   9.3938568393   14.0274313129   11.1194043431
   5.0787718884    3.2035944192    6.6342515610
   1.8166760297   12.7324110053   10.7923313959
   3.9487334412   16.8224347916   15.0628766538
   1.0341291205   18.6362451920    8.1518812408
  10.0855954392    3.0519469003   14.3272221289
  11.1091782037    4.1731162938   14.0445878759
   5.3440511812    4.7908343221    6.5110341022
   4.7354915334   18.9838826213   14.4466025403
   9.2478886855   11.8786395760   10.0674535021
  -1.1188794877   13.3461654542    8.5589036341
  15.4077310887   11.4193127741    8.4733782395
  -0.0292942547   17.0800342144    6.6769317898
  -1.4784475029   10.4865618703    7.9744915433
   5.3028098512    6.7102383598   15.7769245087
  14.1235838238   14.7491890896    4.4089391801
  -1.0033697190   17.8354226771    5.8742137251
   3.2219808403   13.6082269001    9.1087503137
  15.6824210365   10.0040946951    5.6381413909
   3.9193645577    6.3753352537    5.4248512223
  11.5800676421    2.1926113914   18.3280581003
   1.8007759741    5.0171418521   13.3324215277
   9.3911969521   20.1998202107   18.4878182588
  15.4368980854   14.0262181564    4.5314576973
   6.7947240075    7.1639692698   16.1106315132
   3.3157155438   14.2052852438    7.7231572476
   7.6447773089    7.5163998658    4.3549396216
   0.2041978218   18.2650337708    3.7850644083
   6.8261058713    8.8134561132   15.8230911528
   9.7663102969    7.7572009427    9.4707359904
   0.5673597764    8.0805448328    3.0182838112
  12.7708656061    3.0936122356   18.7923551666
   1.9192699492    5.6842018143   10.8121509248
   1.0728209254    5.2205357497   12.0482195181
  10.7525072386    5.4934815565    3.2769839141
   9.2767038103    5.7244461843    3.7888805869
   8.5470983501   15.5018063562   17.4446268110
   8.9294823096    8.3466298643   10.6016158155
  12.2525516183    8.5237688943    4.0905058048
   8.9450887317   18.2848576887   11.3481030653
  -0.6750336094   13.0514548378    3.3710195626
  14.2484229868    6.5484845477    6.4724529594
   7.4785640215    8.5595826298   10.1553219747
  13.5200607828    9.5507308695    2.2643917072
  12.1572123085    5.9067917492    1.3591289633
   2.8164905966   14.1780351045    5.4785744325
  12.5696242459    7.9672751970    5.4845772891
  16.1782388145    7.2450382470    3.3255023577
   8.5738339803   18.0313965586   13.7231496715
   9.0077788557   13.2101875779   17.9934933132
  14.9564749554    8.0088474734   14.6486851612
  15.9489841814    8.0117484999   13.4963048917
  15.9046871468    6.5182826677    1.9887271768
  14.9739303626    2.9562912952   11.0582827651
   8.6831451847   12.1091843106   19.0224070652
  14.9095724952    4.4635778350   11.2093084926
   9.5033933132   18.6514221542   14.8520742168
  14.2955796716    5.3357363888    9.9683414647
  15.8621275281    9.4338874843   12.6414148285
  11.4852463885    0.4516413786    6.8189271887
   2.5333064477   10.0276372013   16.1552640284
  -0.6408304123   10.1943344234    0.1271898713
   0.8724579532   13.2055113277   15.4147618749
  15.9883928610   12.1081460040    0.5003251798
   4.9125906945   10.5713400642    7.5000243993
   5.1120844560   10.2906414172    4.5032230474
   9.3079385752   16.9668949008    5.7534108621
   8.2199444186   17.8791381073    6.1534968720
   1.3594133119   12.0520039736   16.2275309182
   2.3096910770    0.5677850985   12.7817329150
   1.0780575157    1.1495344884   12.1124109371
   0.7109164289   17.8927458038   12.3660843649
   0.6324966503    1.5070892429    9.7027234126
   9.7537737965   10.7086182373    1.8598987695
   2.5834631242   10.0696362281    7.7278985540
   6.0397954585    9.9177049756    6.7038166593
  13.3117487546    1.1252503480   14.6214178616
  -0.3571009891    8.3686530598   18.4610828871
  16.8236977961    4.7215640071    0.6183287661
  -1.6044611942   13.3180841884   15.2884598547
  -0.3428980282   10.6893518126   19.1966648662
   9.5387080159   16.9603339386    3.4655590488
   8.5804227083    6.4029518702   13.2375935807
   6.3615976295    1.6003097111   17.1577218940
   8.4344717408    5.5553348711   19.0182471158
   8.7931569944    4.0880169396   12.4967737728
   7.3629790678    1.3646302505   19.1051018117
   8.7276109269    3.3626875411    1.0123086507
   5.5053187388    2.7246776140   18.8960775286
   6.3350866870    5.2500280389   19.2523228777
   7.8990739425    2.3020902630   13.5263698867
  11.5973105698    4.1282592359   12.7150586973
   9.6998960744    1.9726691243   12.2030238839
  12.0674044754    4.1941171647   14.9705075511
   4.2221748976    7.3947623445   16.4179366931
   5.1838763561    5.4025754380   16.1447614119
  10.4907823752    5.4101633912   14.1505580709
   5.0682409660    6.7504311930   14.4158610861
   2.6890123320    3.9939677743   13.4364651751
   8.2599326186   19.5175344934   18.1272193380
   2.6317478977    6.0961016909   13.6233818961
  11.0206383296    7.8194090765    9.9768805924
   1.1201627013    5.4019726607    9.7116971836
   7.1105363585    9.2229546302   14.4973214175
   7.9309617423    9.3280386433   16.5637185580
   0.8993626709    4.8589023366   14.2359128462
   9.9079699759    8.3215268236    8.2546574576
  10.5434000258   19.2383659657    0.4131996849
  13.8979360264    3.0811007754   17.9651014744
  10.3574342855   19.6468231655   17.7057764887
   2.9997113006    4.9400161413   10.4594094382
   9.3215896029    6.4550352144    9.3257098021
   6.7351728549    9.1316667090   11.1617247209
  14.1777093100    2.0403465976    0.6299493330
  12.2868768148    4.4007650365   18.7951690700
   5.7722317493    9.5577855847   16.2320402453
   2.3154621763    7.0070776303   10.7451241337
   6.7785354830    7.5717020555    9.5239478486
  15.2536988566    9.0327961013   15.4842019169
   7.5199094915    9.5794496439    9.1401653907
  13.7473657583    2.4682970315   10.8456622225
  13.6858018507    8.2352779224   14.1990338194
  14.8402729050    4.7341541150    8.8510817365
  15.6600102220    2.6135222345    9.9974797388
  14.5846677674    6.6218123210    9.9902970242
  14.9737673858    6.8583361616   15.3362575714
  -1.5921169508    9.1609140421   11.4163370625
  15.3484917555    2.4240204775   12.2410493137
  -1.2625305952   10.3423394252   13.1614813007
  12.9077427600    5.2391468897   10.0816879549
  14.6482409361    9.9746977328   12.5696022289
   0.7974130768    1.2074513015   18.6420001581
  13.0423403571   12.8097367915   16.2520200689
   1.8017248193    2.1033387531    4.5206399908
   5.4627894334    6.0067776972    2.3675588282
   6.0857384553   16.6720771524    8.1923538984
   9.6703335456   11.5389498481    7.3416293791
   5.9631985493    6.5030632189    0.6526509629
   4.4993773612    2.9041822514   15.5861402926
  16.3330660966    4.3038151585    5.4626464034
   0.3841093802    1.6634304882    1.2861822840
   0.7319600060   16.1691148884   18.7072826686
  -2.1236589545   19.3257151356    1.1592772119
   6.7353420916   14.9436693751    6.9681500602
  -0.3479574198    2.8214347931   17.6021009656
   0.7324548676    0.4825484502    2.7174014143
  11.2675293624   12.3434327174   12.4784905468
  -0.6852526630   19.8521533395   16.7564936677
   7.3477253744   13.9229638201    5.5308603212
  12.8434986417   15.5400163717   14.6988743352
   5.3661728938   10.4921953669    0.5559936488
  13.0965406120   12.0105856307   12.0988603056
   3.2584382920    4.8726287578   18.3429581067
   2.2048084348    6.3751400125   18.6623777958
  10.9302392153   10.1075273034   17.7820311976
  11.7192368187   10.7041013008    7.4820205622
   1.2043120509    2.1311447544    6.2609195138
  16.9975079188    2.9523635972    6.6102242156
  10.5044782172   13.8678657167    6.5168763205
   2.7664971750    3.0063427000   15.3839971158
   5.4791104106   19.7496309256    9.6366360717
  11.6431396165   14.9001700093   15.9460983088
  12.3622464004   10.8190472923   14.1562582714
   2.1713348118   15.1305972431   18.9228563688
   2.3606364007   16.5826350953   17.9449438237
  11.0769333865   15.7567331243   14.7409446229
   6.9746682774   18.1989504878    8.7751674159
   0.6551533093    4.2217764103   16.9118065630
   3.3367579344   16.9906990119    2.2401754120
  -0.6947706267    7.2985165165    6.9440684107
  13.1044574630   11.1169232722   16.7553253755
   2.1475641054    3.4092086308    5.6707508951
   7.2076217147   16.5280460408    9.5931302616
   8.9792540610   11.0808386760    5.6394349191
   3.7046119398   10.3464402282    1.2358910446
   6.6178777789   12.9782671309    6.8848634373
   3.0498513071   10.2057026673   19.2074462063
   3.9572564489    6.5359742256   18.4067874356
  12.3057379814   13.6548404025   12.2557852206
   2.6027066328    1.8476694019   19.1484662210
   3.6895670863    1.5929206390   14.5851705352
  -0.5376369328    4.4308004697   18.2927417747
   1.5096818410    1.8842364189   16.2247987477
  17.0811179433    1.3454303558    3.9769991860
  16.5195747830    2.7362282204    2.9526311408
  11.4809697333    9.7530343425   16.1528920861
   3.6212070423    7.3964868218    2.3259586434
   3.4993696361    7.5094893554    0.6341111726
   0.4454370286    7.8714025576    5.8284488031
   0.8709810143    4.3121353859    7.4784926888
   1.7211472374   16.9364703715    1.5348951204
  12.9794719052   11.3024914773    6.3373944132
   4.2059704620   19.5652935330   11.6375390913
  12.2097089518   12.5320142328    7.3189250868
   9.8853821507   10.3718546025   16.3733814126
   9.5722661795   13.8418404483    5.1767561914
  14.1530041335   11.3863204563   14.6215370241
   4.2496905749   18.7021268672    8.7024603408
   7.3048253568   14.7155969442    3.3697417567
  -0.8067640309    4.9761825828    7.6290740437
   0.9743397761    7.5835451838    7.4675496896
   6.5714782506   15.3583813645    1.0247267445
   6.3224544501    2.2778563279   10.8805938871
   1.3601341803   14.6454355925    1.3318629629
  13.3082410662   17.6641128618   17.5891809084
  14.1633738108   16.5022589990   16.5606619213
   4.6288099034   15.2613229707   18.3009077992
  14.7755955743   15.4878683686   12.6792617108
   8.7438494995   13.8551989349    3.2938583142
   4.5053071254    2.4977604444   10.4324963440
   3.1720805477   18.3144266161   11.1729708634
   5.4716039233   12.0152135490   17.2318107744
  -1.6244407400   14.5367515579   12.1417159193
  14.0517041689    1.0153269661    3.2304720149
  14.8390529710    2.0115990708    4.6621555994
   5.0236937810   17.0625529456    3.9761562966
   6.8399251821    0.4922249060    6.9822923894
   7.1608050705    0.5016317739    1.3381326392
   1.5703344659   15.1168987526    3.0932498867
   6.0445336263    1.5614120560    3.9458853548
   2.8618391935    1.3106646168    1.7205956069
  -2.0475031053   17.8322472656   11.6213030467
   1.7652850409   12.6369471643    3.1699911764
   2.0436744525   12.2110197438    1.4565697024
   7.1948371200   12.9708257192    3.7450247121
  12.5633586432   14.6844185332   17.7373274194
   4.8650690762    1.7168175794   11.9118269287
  13.5468463335   15.6286446522   18.8409834490
   6.4702831094   13.4850155818   16.8173611477
  12.0413517897   14.6753635353    7.8908372948
  13.4699069099   16.6027152628   11.0116721762
   5.5467028388   14.1069430120    1.5467530482
   2.7261937813   15.8378897343   11.7107438859
   5.8245894068   18.4239445760    4.4139561225
   3.9762472298   14.6186944735   11.8890889711
  13.3318893442   15.3556968077    8.9106542405
   3.9407754159    2.7547646968    2.1847355346
  -1.4801549430   16.1191332032   12.9666644805
   6.3493936107   15.1157880037   18.5724320964
   3.5606362316   11.9094868114    2.8036026214
   6.8402615661    0.7848423170    5.2002625210
   5.3692423188    0.5160018145    6.2389436559
   4.6637317274   13.5635245783   16.7614986119
   7.2581985158    3.9906242595   17.1450513686
  11.7954459183   18.9576730356   12.5356986940
   3.4104020343   14.8008425396   15.4225399111
   4.8930207418   14.8288528231   14.3971900449
   9.7930136208   14.3369755702    9.0628728925
   4.4038444795   16.2304277768   12.2606603423
   6.3059296604   17.6237070423    2.7648386266
   8.1093893884    0.8575956676    2.8128650117
  -1.8693427484   17.6566380242    9.8936988197
  14.2639693553   18.1335827271    4.2362321588
   6.4813983878    2.4786206895    2.5963958197
  12.9274741774   18.2307080874    3.0992384229
  12.5702635763   17.6782271511    4.9288069901
   3.4558329216    1.5255732017    3.5269477112
  11.7350376575   16.1925976731    8.5526113584
  13.6857134949   17.9602141398    9.7394006413
   9.4786910225   14.2031937230   12.2002970158
   1.4697192350   18.5436590812    9.1783154621
   2.7849140781   12.3484866588   11.1828336249
  11.8275040004   12.5232263798    3.4407592619
  13.5680740280   12.3763360711    3.3308797176
  11.3359749758   18.4304358464   10.9621602630
  12.0114918123   16.9269872908    0.6182829263
  12.0437862488   15.1843807986    1.2318238045
   1.4805417153   13.4728544452   11.5345037786
  11.9739288508   17.1728371617   12.2312553481
   1.0681339729   11.9824325274   10.5571132652
  12.8294816374   13.7253417850    2.4501806767
   4.0954191522    2.9211339848    6.0671321183
  10.0218896323   15.8815981197   10.0481509010
  -1.6914728638   13.6168178128    7.6989793894
   9.9420261095   11.1272801636    9.7792794037
   4.8797760381    3.1474317785    7.6718307175
  13.5691318295   16.1114692123    0.6350866232
   5.9087124777    4.9689793952    5.5185977303
   6.0434385038    5.1379308290    7.2934031580
  14.7467301376   11.8604264598    7.6188804623
   4.8056761598   19.5804743176   13.5085919420
   0.6255558559   19.6030642237    8.0099037318
   1.8453932657   18.4821675800    7.4228426932
   8.4167775707   14.3213941842   10.7939456842
   4.4273147031   16.9415725922   15.9905937768
   2.8584483055   17.0878156183   15.2824426880
  -0.2915752072   12.8575610022    8.1131833380
  -0.6923177562   11.0568031896    7.5566312152
  10.7336142049    2.0846679158   14.3330648587
  13.9996190173   15.4103673682    3.5662827440
   5.5728029481   19.2022262839   15.1992442665
   8.9679438192   12.5413233288    9.2757422236
  15.2457619106   10.9842582824    5.6930165949
   3.8124695190   19.4508312388   14.9468427332
  -0.8944810639   18.8111736245    6.3331614688
  -1.9995351581   17.5531875247    6.0758549104
   8.2388500971   11.2800550474   10.2422657572
   3.6695858032   12.5833485572    9.0808094797
  -0.8438574217   14.0910670848    9.3069930540
  14.0810185041   15.5223677180    5.2271178284
   3.9721073529   14.0646665913    9.7948213330
   0.8645285092   17.1340764621    6.1208157711
  10.7768333401    2.3737108419   19.0987420121
  14.6206198024   10.9198915548    9.0812237736
  -0.2061158901   15.8963509729    6.6944773753
  14.8670534307    9.3037902724    5.2674583357
   3.3430212792    5.7764746649    4.7031751830
   7.6912174859    8.5127366830    4.6498160987
   4.8740972084    6.7704979032    5.0510218949
  -1.1469003234    9.8581621609    8.8405640788
  15.4082223443   13.4862630450    5.5457511921
   1.1203189844    7.2869921250    3.6961955160
  -1.3824370584   10.0914068543    4.9993983418
  -0.0707742023   18.2517244023    2.6672245548
   1.2697059280   17.7024230029    3.6922065042
   3.0043220196   15.4157980333    7.6449265877
   0.7395105932    7.8232472806    1.9466638123
  -1.7602082470   14.8155539837    4.5209603946
   4.3777244597   14.1453246420    7.4606951344
  11.4304406597    5.7079092253    4.1097798091
   7.1154217993    7.1416753661   17.3108015154
   3.4413469652    7.2855885903    5.7201342051
   0.8991307667    9.1132618724    3.2687000122
   7.0603990869    7.2586179723    3.4592603764
   7.7981656636   16.3183280995   17.5833791039
  10.9199403817    4.4576936440    3.1026068849
   7.2258438769    6.8791002164    5.2133843908
   0.6177193192    4.2417560500   11.8055254616
   7.8755459335   18.0784250298   11.1643856653
  11.3012498290    8.9790119089    4.3179603386
   8.6349009862   15.3956212495   16.3298998190
  13.5964457482    6.2318021319    7.3197442788
  12.1780409535    7.6484851174    3.3700409359
   9.1128207290   19.4156502774   11.3035846300
   0.3654155323   19.3169161552    4.0369329064
  13.8018628939   10.5650354117    2.0348922568
  13.1063838753    6.1382784392    1.8533370548
   8.6226206932    5.3543616197    2.9458244190
  -0.2832852425   12.3062365765    4.1106943958
  12.5741688101    9.7172130754    1.8545311057
  12.0765717526    4.9041139479    0.9776389186
   9.5402699266   15.7593474707   17.6929455047
   9.0652392155    5.0476598441    4.7739297800
   9.5381235654   17.7991495112   10.5886969874
   2.6877615553   15.2790406996    5.5316608150
  -0.1104114137   14.0767740305    3.5414698032
   9.3305516876    9.3571843560   10.8549852553
  14.9931622788    7.2516567183    6.5954600288
  -0.6435276981   12.8802336837    2.3570974386
  15.2981415808    7.5908378490    3.8030778856
   3.8739859093   14.0818037063    5.0854449144
  14.7972475109    5.6492047129    6.1589117703
   7.8986399403   18.8499102304   13.3904698085
  16.6141180826    6.4986007863    4.0600962049
  11.5969088019    7.6052223173    5.8619062152
  14.0438643630    8.6715966135    1.8159669549
   2.0807395536   13.7507202487    4.8299327925
  12.8813485382    8.7399448943    6.2351779552
  12.0476800406    6.5438965901    0.4212243297
   8.8071788466   12.8227473628   16.9781311970
  -1.0190305513    7.8039238301   14.0178120580
   9.0872399471   11.2183771549   18.6948888854
   8.0943994665   17.1564111280   14.2183072493
  10.0522364650   13.4143268874   18.1951499981
  14.8859235271    6.3888137599    1.9989064674
  10.5711668341   18.2693055942   14.9252692160
  15.9899596973    7.1261493392    1.0972119931
   7.6138333058   12.0692789509   19.2381016760
   1.7683113723    9.6777563154   16.9824211790
   0.7884683667   14.0330756308   16.1389176271
  10.2505299535   17.4137327432    5.6259180858
  10.9348410108    0.9011092172    5.9485918434
   5.2364777285   10.6037801377    8.5570170702
   4.4952917900   11.1505635904    4.6720712914
  11.1102594894    1.1747441267    7.6132405521
  -1.1404878750    9.6316434358    0.9482082132
  15.5080874254   10.8271438832   18.6971099002
  14.4534538609    4.7782629239   12.1902933785
  16.0228235291   13.1304057642    0.7626241244
  14.5243920760   12.8414626734   18.8825771049
  -2.0542775966   19.9594969810   11.8265927613
   3.0065957459    1.4018177780   12.8619047986
   0.0581403387   17.5871784710   13.1778441467
  -0.2468741276    0.8073587088    9.7880033143
   9.2412360270   18.6036549517   15.8971149757
   4.7180170921   11.5611656225    7.0825543908
  15.5656547124   12.9421467216   14.6175031428
   9.2509805322   18.0494004073    3.6414418219
   2.6048471016    9.9531916932    8.8202646042
   2.8663820958    9.1470155349   15.4687040038
   7.9081872476   18.4338759173    5.2542345483
   0.8034630098    7.3399602203    0.1206419106
   1.6625834005   13.4938199197   14.6762864227
  10.0553853992   11.1558339617    2.7380776044
   2.4808949373   11.1682660609    7.6387648816
  14.2655228961    0.5943882626   14.1101715060
   5.5095482735   10.2855295881    3.4726524205
   1.9501833280   12.3584080691   17.1486458518
   1.7423635638   17.9518458158   12.7282888218
   1.3518944797    1.3022100427    8.8097756448
   9.4423824810   16.1233019158    6.5236426517
  -1.6435052280   12.7824913365   16.2824454275
  15.9963109835    4.0170357341    0.4778313900
   3.4377483057   10.4662780225   16.7249142015
  15.3143150191   11.5628128041    1.1748672415
  12.5393086803    0.4741001489    6.5060621157
   4.4648100953    9.5842461308    4.9768470305
  10.2514048438    9.7047627218    1.6609826061
  15.7257585082    6.2048885606   19.1994314469
   7.0219119088   10.0178782930    7.2658426880
  13.2229511935    2.1806642673   14.2090494286
   0.1756141863    7.6349645670   17.8439688348
  10.6090018828   16.9196104053    3.4787089250
  -1.4234739439    8.1369877406   18.4359234142
  -0.2063511634   19.5415008486   13.7199002109
   0.5979463247    1.8313550381   12.8358282170
   0.6852464254   17.1886243025   11.4224287880
   0.2793115316    2.5859038650    9.5497367482
   1.3634087067    9.7449058432    0.6755736333
  -0.3803066036    3.9856770188    0.5153749974
   0.0127662581   11.6701675046   18.8191184266
   0.4152143924   11.6600367646   16.6217171552
  13.5449768047    1.2119051595   15.6529725110
   9.2211497062   16.6475093518    2.5220776812
   1.8203280990    9.3441042980    7.3657269792
   7.3049844152   17.2802548332    6.4752161017
   5.7778814981    8.8221596545    6.6845585249
   8.6353880786   10.6589627404    1.8493790391
  -1.6785378086   14.4300370098   15.3773907359
   5.0842966930    8.6845397922    1.3560341917
   8.5519288558   13.9422214209    7.1155396505
  12.7577509144   12.7636292766   14.0331115689
   3.3465054689    1.7422150704   16.9124363518
   1.3199151232    3.1867704248   18.7143938818
   0.6330613610    5.8893904568    6.2846363519
   4.5746480087    4.9982408130    0.8359437620
   0.2198574532    3.4308206750    4.9398034071
  10.9747903269   11.5069306721    5.8577096371
   5.4406031759   17.5052834293   10.0519539580
  16.5998167656    0.8288458708    1.9697264242
  11.3077301231   11.8118920203   16.3684648301
   3.3511470660   16.1718392321    0.4975326284
  12.0881787875   16.8913864515   16.1151016885
   5.3843152280    0.6033098529   10.0457250041
   3.0829948979   13.9135255207    2.3766054620
   7.5889020222   13.6110158268    1.5648909814
  12.8204688848   19.5908512610    4.7161213557
   5.4698579747   13.3645889086   18.6249749049
  -2.0101366664   15.9475542156   10.9366382334
   4.4601675716   18.6572733492    2.9093077599
   4.8777896228    0.9262951580    2.1843532208
  11.4470041195   16.0603788971   18.6651373638
   6.3183956267    2.4916263096    6.2675479511
  13.4442077647   18.6008561904   11.4743264550
  11.7476938189   14.6909049434   10.0407023328
   2.9609551027   15.1918946310   13.5572433408
   4.6900611716   17.5669437416   14.1510682240
   9.4008591509    3.1996224258   15.5199779966
   8.9712598714    3.1693246729   17.9435197285
  -0.0728460715   17.6370453318    7.9498753067
   9.6384585688   12.6512634783   11.1299152810
  12.9038698667   13.9563719771    4.5929195143
   1.9360449039   13.5077083096    9.5759878093
  -1.9715639511   12.4142179035    9.2087049307
  16.0184311667    9.4974732247    6.9686390852
  11.0984002498    2.4633371014   17.0791610926
   4.1105261653    5.5006016242    6.5817682315
  -0.8664728294   17.6655330786    4.4574460065
   9.0722493829    7.1180097397    3.9692191985
   7.6551114664    6.5202168262   15.3160665994
  15.8587888305   13.2838976184    3.4316645272
   2.5131720631   13.5706916734    6.7174716960
   8.9997071943    7.4412635923   11.5829149260
  13.3662527591    6.7965741700    5.4274696776
  -0.7654485691    8.2605576219    3.1824661775
   0.1034034129    6.1907463402   12.1523070614
   8.1562944750   14.4207174325   18.1982841035
  11.0178130331    6.2622327585    2.1144825371
  13.3503541245    9.4859339103    3.7525880137
   9.3505207925   17.6612546721   12.5551853768
  16.2422956108    4.9149525455   11.3303241179
  15.7609690236    6.9271599022   12.6162416575
  16.8691973968    5.5263765048    1.9286769167
   2.0065106308   11.0648999701   15.3996391710
   9.6347937746   20.0212364659   14.5616226926
   6.2975377795   10.3544045092    5.3674079682
   8.4474360961   18.7682925464    7.2317455407
  10.2895027700   11.6718685854    0.8515180988
   0.0110925810    9.7678620081   18.1620815551
   0.2424795977   19.0917168638   11.8225055354
   1.5686558907    1.5818675975   10.8425983452
  -0.6596224903   11.6176537078    0.4920453932
   9.0507907270   16.1542041304    4.5570647797
  -0.3185819021   12.9670867710   14.6883240136
   3.8540698948    9.6370504137    7.2868193609
