B2 C140 Ca1 F48 H298 O66 
1.0
1.7932197380058359e+01 2.5616593353364019e-17 1.9143113339214731e-16 
-2.1954883205014486e+00 1.9455547519425604e+01 -1.1128260926954367e-16 
-6.7064413187736349e-01 4.3097590723034740e-01 1.9610765075164394e+01 
B C Ca F H O 
2 140 1 48 298 66 
Cartesian
  10.2204402922    2.7253574966   16.9837883900
  -0.9613269086    5.8382632339   12.1126185931
   0.2169556907    0.7279424371    1.5860076315
   7.5311961940   13.9868918650    6.7951055908
   5.3127611842    6.3613735271    1.2269016825
  12.7194829966   12.6832586491   12.6665977627
   4.0026860130    2.1091807489   16.0328361229
   1.9113058007    1.2550450260   18.8599229783
   1.5648187561    2.5920438499    5.3316618010
   2.4978510707    0.8921551245   17.5297157325
  -0.5220574570    3.3903690116    6.2611112852
   3.6840720618    5.6100547308   19.0219323905
   2.3029184728   15.6092319419   18.9109418800
   0.5702553178    3.0932288386   18.3621556438
  12.2689240809   15.3705605863   15.5151342507
   4.4513516761    9.7452903567    0.7750495822
   6.3998721368   16.7121056791    8.8978727565
  13.2873326261   11.7902527461   16.2345841825
   9.6340162528   11.6855102101    6.2718407430
   9.6859825983   13.1921114047    6.1676779600
  13.3574455894   11.5369298745   14.7123363002
   4.4604142425    7.5851153688    1.5797371800
  11.2345436379   10.6618366596   16.8228449415
  11.8606220707   11.0069168000    7.0451717823
   0.0388910295    4.6102011501    6.9908553066
   0.1966084249    6.8860187613    6.8033664949
   5.2257965971   18.6798040781    9.6401702563
   2.6870741828   16.0457735182    1.4873245282
  16.4291851178    1.4903764048    3.1133205082
   4.0322550602   18.9463931942   10.5707815815
   2.2456774739   14.7773777473    2.1792050431
  13.5163552148   16.3364642783   17.3218096051
   5.3328176448    1.6962880279   11.1001520793
   7.9706209587   13.1550424676    2.9625439354
  15.1483518101    1.0550845112    3.8593189277
   6.6271037536   14.1931183053    1.2697852627
   5.7995500767   14.4871508803   19.3959194208
  -1.6298938301   15.2378996206   12.3700157662
   3.1937766395   12.6435939892    2.6722023682
  13.1390200922   15.4655659947   18.5639047204
   5.9695235723   12.7035253457   17.6906156066
   5.6908648417   17.8559801207    3.8211193426
   7.1244940355    0.2671849325    2.5975371991
   6.0020647157    1.2298914517    2.7526828810
   4.0097859652    1.9935633690    2.4088749481
  -1.9347359003   17.1432188201   11.1187592256
   5.9211397375    1.0316916567    6.4425547513
  12.7054749630   14.9289341495    9.0252429008
  14.4726842389   17.1645477384   10.6998190749
   3.6503587292   15.3757687110   12.3903889710
  13.0033801584   18.1024020214    4.3033815305
   7.1180024414    2.2248650958   18.2864144579
   8.0576183223    4.3685578404   19.4050918523
   8.0972085479    3.4011114955   18.1518239667
   4.3953862329   15.1229092762   14.6743333124
  12.6545725753   17.9218301178   12.1033045272
  10.5114418713   14.5660374162   10.0987082566
   9.3991517113    2.5362916614   13.3165406906
  12.8427958874   16.2799861524    0.6597149391
  13.2664515937   12.8098353877    3.6889195928
  10.1127786736   13.8678673465   11.3514005178
   5.0394598565    3.1146565902    6.5561233810
   2.1453360986   12.4679719466   10.9492542702
   4.9035386276   16.3959761962   15.2894998176
   1.4795584094   18.5719087347    8.4153615293
  10.4540297468    2.6179986878   14.4281385244
  11.4863540259    3.7112044106   14.1672122409
   5.3203687278    4.6033759142    6.4661978627
   5.3286184950   18.5428024645   14.2196209439
   9.7448735811   11.8129877475   10.1029809601
  -0.9656656158   13.3936750278    8.2460852016
  15.7971414335   11.2216322568    8.4655381086
   0.3991452875   17.1688470353    6.6751572283
  -1.1206176105   10.2436197877    7.8966922947
   5.4817566129    6.5392274665   15.6687983051
  14.5097238075   14.7527629702    4.3431880246
  -0.7368466324   17.8086774481    5.8226878248
   3.7895934553   12.8575349273    9.3316487597
  16.3958854364   10.2744929435    5.5492880389
   3.8913652946    6.2817498585    5.5235772851
  11.9084150301    1.9285846086   18.5251234436
   2.1159196418    4.7580918621   13.4580457201
   9.9761790327   19.8461559838   18.7680497975
  15.9129085512   14.2841216746    4.6644999368
   6.9003415006    7.0715458907   15.9529062971
   3.9205652695   13.6659700236    7.9555565392
   8.0641007514    7.4335756245    4.5666358352
   0.5152300661   18.1771346133    3.8996831163
   7.1728466124    8.5430615643   15.8272619149
  10.2177056812    7.4588509463    9.7176291279
   0.9035652154    7.6701338468    2.8438776115
  13.1153876029    2.7361051441   18.8631622578
   2.0920108065    5.5042537693   10.7917840643
   1.3039146635    5.1508605958   12.1194707331
  10.6597746874    5.3191877158    3.2573768933
   9.3637717216    5.8502498758    3.7525504396
   9.0207204056   15.1489775606   17.6359503489
   9.2171741407    7.9906660222   10.8369973503
  12.4772564302    8.3824831441    4.1495807008
   9.0451685447   18.6348743329   11.7478422604
  -0.3111181637   12.9728728403    3.4507437757
  14.1563013114    6.1218933782    6.6642568499
   7.6911339694    8.4269000532   10.4567104694
  13.4330091443    9.4454759259    2.2940655684
  12.2604503120    5.3879868444    1.6910780023
   2.7389171474   14.0496822016    5.8857464671
  12.8693758976    7.8471352165    5.5351479791
  16.5230801869    7.1688893471    3.2812866266
   9.0553488956   17.5885266195   13.9166659209
   9.3542816712   13.0717253842   18.3261706082
  15.2352114296    7.8219792195   14.6184154095
  16.3343853327    7.7005323405   13.4734856441
  16.2010168593    6.2816713165    2.0363463972
  15.0734495445    2.9052577641   11.3488932049
   8.8211919070   11.8825272236   19.3197179010
  15.2205209958    4.4406474225   11.2890145150
  10.0081858446   18.3838928795   14.8346565056
  14.6809628479    5.0936850665   10.0461528135
  16.4979604906    9.1347284263   12.6714404846
  11.7420621228    0.3842302953    6.9475268550
   3.0738813985    9.6973750438   16.0700156706
  -0.4803830168   10.2754158968    0.2154720499
   1.3528371580   13.0580225323   15.7923449434
  16.0411336036   12.2120429421    0.4271140735
   4.9559333968   10.1942931096    7.3392383339
   5.4946077989    9.9180645187    4.3206491632
   9.7144505655   16.5847055707    5.7771326093
   8.7070334288   17.5843037163    6.3117812916
   1.9711156578   11.7694783724   16.4657812724
   2.5339602389    0.3422469037   12.5408277999
   1.2697215736    1.0263734482   11.9800843277
   1.4014158534   17.6790959456   12.6314853019
   0.5723701634    1.3647943334    9.6062560944
   9.9455043736   10.3639781391    1.7536043597
   2.6061474220   10.0063834825    7.3407546797
   6.2845728249    9.8088624182    6.5962476322
  13.6171171034    0.9263644392   15.0744085674
   0.1104152437    8.1575600664   18.5934996137
  16.4251878374    4.4024684010    0.6273176958
  -1.0019674947   12.9574141878   15.6764058856
   0.2632387435   10.3390691594   19.5380185775
   9.6673390071   16.6759399395    3.3016066585
   8.8474513344    6.1536731191   13.6325883804
   6.7348405654    1.7536485496   17.1077565050
   8.9959577236    5.4373027589   19.2069330644
   9.0320619450    3.7872702835   12.7907040412
   7.6733419183    1.2862019430   19.1406866025
   8.8867635962    3.2760402866    0.9873148351
   5.9747190205    2.5006891288   19.0068368471
   6.8187431132    4.8661530807   19.3847969396
   8.3119627560    1.9432975154   13.6872490397
  11.9757313105    3.6925233960   12.8690229686
   9.8038616746    1.7978376178   12.2730335762
  12.5391378257    3.7834900767   15.0285388685
   4.5004620405    7.2675968421   16.3118247564
   5.5468533909    5.2581365517   16.1706474166
  10.8696883946    5.0478444380   14.3577678860
   5.2127605489    6.3601469452   14.3570767119
   2.8644876502    3.6051262747   13.1661803270
   8.8403436743   19.1445734410   18.4462989249
   2.9890647922    5.7700587761   13.8082485371
  11.5059288657    7.6070028159   10.0062521150
   1.2713367478    5.2127324305    9.7793678949
   7.5483995650    8.8034139798   14.5667372823
   8.3536757505    8.8903258281   16.6421173646
   1.3559896247    4.5654893184   14.5350872803
  10.1079155269    8.2865054995    8.5720183493
  10.8598169809   19.0239309669    0.4192765307
  14.1809621184    2.4340096798   18.1727362221
  10.8959158834   19.3767074406   17.8780406593
   3.1364724218    4.6781367693   10.6188202766
  10.0535471568    6.1554325334    9.2550591254
   7.1815618987    9.0452144181   11.5270146779
  13.9985357421    2.1616901538    0.6592102595
  12.8675441322    4.0801937370   18.7585332387
   6.2614893384    9.5469802011   16.1330091568
   2.4617067495    6.7889330975   10.6271110610
   6.8982686455    7.4083884360   10.0188821788
  15.5340112496    8.8699862776   15.3889185648
   7.5876466318    9.4396332786    9.4595535355
  13.7804333875    2.5655024812   11.0366242284
  13.9940373632    8.0937793541   14.1499001633
  15.1777435891    4.5034645440    8.9830105465
  15.7804125156    2.3085370993   10.3446541065
  14.9369898792    6.4156283423    9.9989144487
  15.3583028474    6.6897481061   15.3461438501
  -0.7496616745    8.8174280376   11.4949538193
  15.2974260740    2.4782477540   12.5851730016
  -0.7167543510    9.9832276898   13.4333888013
  13.2430998389    5.0642997754   10.1391236766
  15.3050258914    9.6963927069   12.3721482604
   1.0414285039    0.7719883281   19.0450695931
  13.7354343092   12.6865367208   16.5164973169
   2.0115161446    2.4700472896    4.2924765477
   5.7661086545    5.9808358731    2.1663836019
   5.6651964666   16.1345805128    8.2956337671
   9.4485843772   11.5167900958    7.3581458625
   6.0301466136    6.6903065740    0.5595308610
   4.4833663838    3.0520042907   16.0397435875
  16.4456424066    3.5338518892    5.7024780559
   0.6027725908    1.7004139316    1.4588119727
   1.2726009210   15.3909903617   19.0944700845
   0.2415398913    0.1432967079    0.6847818294
   7.0676048123   14.2853108299    7.7554345648
   0.1019924109    2.2884794239   17.8867640016
   0.8138873210    0.2182984618    2.2976426980
  11.7001132847   12.2604705598   12.8498713458
   0.4382341565   19.1128343589   17.6381327903
   7.4335816705   14.8060176454    6.1425750174
  13.0534284136   15.3601992952   14.8101561650
   5.1344893957   10.4697502091    0.1595662297
  13.2185359405   12.1896983380   11.8805693114
   3.6930895476    4.5636235287   18.7174071328
   2.7776608573    6.1294033559   18.7695484287
  11.7845957374   10.1041112101   17.6554137416
  12.0009864847   10.0784787035    7.6546078571
   1.6029807824    1.6367613618    5.8609790122
  17.4066205410    2.4739675427    6.9540603653
  10.8379362172   13.3340077194    6.3424681058
   3.1816453378    2.2915882803   15.3253723729
   6.0807071065   19.5090086935    9.6870428553
  12.1472433051   14.3551283883   16.0024658502
  12.5080363754   10.8822544214   14.2646985905
   2.7434836305   14.6287955295   18.7933975652
   2.4940950920   16.1864233940   17.9907607806
  11.3155813776   15.5084184792   15.0411607162
   7.0500205728   17.4084916589    8.3011641247
   0.8447905443    3.9432394517   17.6064379234
   3.2144083232   16.8207277803    2.2363446589
  -0.9019451373    7.1319359344    7.0744932277
  13.9901492439   11.1222748407   16.8018148803
   2.2271298828    3.3290503860    5.8224141788
   7.0712794171   16.1283140422    9.4717771265
   8.6448155410   11.2979444721    5.7582867369
   4.0100791154   10.2779816459    1.5904973871
   7.2428217104   12.9551886514    6.4188059569
   3.6835121374    9.4443648195    0.1381251018
   4.5662988295    6.2377856664   18.6434514019
  12.4479056186   13.5956624981   12.1618466742
   2.8329943718    0.9788174984   19.5007809900
   4.6469314900    1.3749984291   15.6186393348
  -0.2552995348    3.6631799438   19.0681842440
   1.8583657442    0.8199926542   16.6451594470
  17.1013865319    1.7705233223    3.9609171904
  16.1295169652    2.5040257649    2.5664216050
  11.2783260001    9.9999997831   15.8579375724
   4.1494467771    7.6575873153    2.6564987491
   3.4959417378    7.5943849027    1.0297742282
   0.3529340968    7.7077130074    6.1609548907
   0.9300772591    4.4752097875    7.5871229567
   1.8799165681   16.5200984645    1.0529704991
  12.7795334999   11.4890747924    6.7133693540
   4.4971845423   18.9977328883   11.5938248891
  11.5192745181   11.9511745725    7.6617925799
  10.1798678809   10.8283105190   17.0242778919
   9.5931992510   13.5258040590    5.1506810225
  14.2734667556   10.9975337616   14.4254638435
   4.8992779401   18.7130113957    8.6350446540
   7.9314671229   14.0409917574    3.5273081181
  -0.7973389726    4.9990437655    7.6553316986
   0.8180500817    6.9538797695    7.7711894016
   6.8526824983   15.2256021758    1.4067745737
   6.1672415013    2.3582536960   11.3629251140
   1.6660270601   14.2267737231    1.3348122242
  13.7327731074   17.3563294807   17.7452193346
  14.2983604807   15.8565336062   16.7736765306
   4.8367559472   14.7818876844   18.9833488015
  15.3216622631   15.5770311048   12.7870599217
   8.9734625607   12.6540010201    3.0236230180
   4.4180274726    2.2354871648   10.8006970841
   3.3105486838   18.0326151670   10.6442368942
   6.1500445670   11.5723347392   17.6052025338
  -1.5703361200   14.2050001993   12.3329910512
  14.3303137033    0.5404262475    3.2427792275
  14.7886116040    1.9660240554    4.4102886951
   5.3518674147   16.8363639870    4.0096706510
   5.7341630872    0.9723804077    7.5641537719
   7.2459801298    0.0534960058    1.5369754014
   1.6327791168   14.9913616470    3.0765243271
   5.8545386263    1.7062026296    3.8433529955
   2.9382223886    1.6994374584    2.1810206162
  -1.8890292574   17.5461885947   12.1170962760
   2.6146963467   12.3120513584    3.5788537692
   2.5228026130   12.1773282661    1.8192400615
   7.1078903079   12.5123264598    3.4608890573
  13.0763260187   14.4594888295   18.1638641840
   5.0892768845    1.3005796908   12.0875543196
  13.8972680497   15.4373305854   19.3693383504
   6.8523401242   13.1793561124   17.2867092683
  12.4249259846   14.7785412430    8.0210904241
  13.9204379184   16.2159585855   10.9689406187
   5.5505827637   13.8446743171    1.6546398841
   2.7358502838   14.9675527455   11.9361995979
   5.9047973031   18.3655378950    4.7792008741
   4.4860097651   14.7395271700   12.1691610413
  13.7618291255   14.5407744448    9.2504272047
   4.3151762721    2.7397461691    1.6811445152
  -0.8089389216   15.5552085196   12.9497882603
   6.6592203563   14.9575629739   18.9414194203
   4.2873434134   12.3704423372    2.6767807766
   6.8557857807    0.5720737182    6.0528420359
   5.0365318259    0.5517620484    5.9598082142
   5.0631820998   12.8705647525   17.1191168258
   7.5487834820    4.0233346962   17.4302060538
  12.3196280717   18.4514094626   13.0277537940
   4.0362931727   14.4410877362   15.4152063246
   5.3822666293   14.7286121721   14.2027134919
   9.9677415585   14.3319689652    9.1202726208
   3.8950870555   16.4085099540   11.9896932630
   6.6213017222   17.9095390267    3.1340989400
   8.0341449935    0.7686786377    3.0060146461
  -1.4077708644   17.7281583489   10.3692525663
  13.9075642115   17.7378086636    3.6239923167
   6.4221924879    2.1277768625    2.2176408405
  12.2225234574   18.2457792139    3.4306515121
  12.4690555577   17.4813707752    5.0616064262
   4.1365912196    2.4399103365    3.3993140908
  12.8946459656   16.0227100854    9.0901928557
  14.2873715570   17.4731650857    9.5555460371
  10.5586455216   14.3421510804   12.2331787337
   1.4540215301   18.6294477438    9.5392329067
   2.6571881996   12.5570318413   11.8763934877
  12.5509068426   12.1037946094    4.1384542179
  14.1880386529   12.2941274869    3.3429083642
  11.8309121229   17.9270717817   11.2634222606
  11.7666543153   16.5490591919    0.9214812901
  13.2627422148   15.6956133873    1.5861706927
   1.1268449545   12.7265581097   11.1652129835
  12.7548947983   16.8414013573   12.2973670771
   2.1464904779   11.4431437275   10.5853169406
  12.7950797167   13.2159463484    2.6613675641
   4.1920886139    2.8808827782    5.8920443893
  10.4198534476   15.6219783763   10.2576431434
  -1.6328203795   13.7047831851    7.4404025562
  10.3470982530   10.8791231385    9.9743286689
   4.7240560819    3.0211756390    7.6327573118
  13.4476411516   17.1379408789    0.6127041469
   5.9959139270    4.9977322616    5.5364042393
   5.9336499027    4.9667153794    7.3580910494
  15.0899255741   11.5580663246    7.6430365997
   5.6636712867   18.7613360307   13.1943748658
   1.5691113256   19.4704570346    7.8705612914
   2.5580469430   18.1515534423    8.2743669446
   9.0279356559   14.0868727058   11.3736212748
   5.5594325745   16.1195233302   16.0624897346
   4.1166102220   16.9377761848   15.8927215813
  -0.1867288716   12.8011447576    7.7540660853
  -0.2611358069   10.7136886780    7.5096690723
  11.0922527378    1.7302000382   14.5954489756
  14.4249225652   14.9252594087    3.2645725889
   5.9138021059   19.0924875024   14.9525109965
   9.6887734089   12.3523509157    9.2007359760
  15.8844412978   11.2044103441    5.4671349755
   4.3838190407   18.9964284518   14.3771567021
  -0.6555176176   18.9313170349    5.8375977775
  -1.7337012645   17.6587604217    6.0238937342
   8.6057135263   11.4698607824   10.3502949816
   3.6548347147   11.7837510135    8.9412304767
  -0.5311819869   14.2319960858    8.8128008042
  14.2282273110   15.6967583505    4.9047442271
   4.7258493155   12.9438797381    9.9190188962
   1.3345953701   17.3169856620    6.1906784469
  11.1791912770    2.1107388483   19.3025078995
  15.0466223006   10.5974001867    9.0108603345
   0.2137180548   16.0065407676    6.6683780128
  15.9357028647    9.7027267271    4.6889088756
   3.0551687193    6.0239211705    4.8387812365
   7.9844055069    8.4934879053    4.8024733630
   4.8478215689    6.4913143420    4.9804390583
  -0.9550421512    9.4708686502    8.6696461242
  15.8417403090   13.6939421221    5.6209768153
   1.0063758015    7.1165693357    3.8784597121
  -0.4946630776   10.4660830186    5.5015694772
   0.7121487497   17.8210213489    2.8341421113
   1.5262402695   17.9261882489    4.3320560311
   4.2588796601   14.7960180825    8.1841612264
   0.8999992473    6.8704943436    2.0294724869
  -1.3174559619   15.0770823891    4.7359532479
   4.7705333646   13.3499555395    7.4429056721
  11.3602060442    5.7856979329    3.9638594990
   6.9297852591    6.9421229351   17.0862295153
   3.6474130627    7.2678234768    6.0221203898
   1.6222793473    8.5038414438    2.6185629557
   7.3545668839    7.1057040038    3.7795914447
   8.4278209687   16.0672844423   17.9310002132
  10.7337130670    4.2364033426    3.2625137427
   7.8431459041    6.8529568284    5.5585538828
   0.8224897084    4.1164088018   11.8354111256
   7.9758285429   18.6908256776   11.7188709032
  11.8342608914    9.2045632456    4.3392548305
   8.5637377403   14.7050298261   16.6408526703
  13.4108840149    5.3988329424    7.2025777346
  12.1091567861    7.4869501566    3.5565079382
   9.4328650389   19.4982911557   12.3550715385
   0.2331377322   19.2368863814    3.9142257411
  14.4256199814    9.9204941136    2.0880319779
  12.9725165302    5.8816763911    2.2835372598
   8.6116007075    5.6908566664    3.0154808873
  -0.0025347944   12.3642020243    4.2533656661
  12.7235604158   10.1842853144    1.9727958791
  12.3783331601    4.3635340327    1.7964182365
  10.0115831682   15.4955747163   17.2245174467
   9.1975127963    5.2241713970    4.6610167769
   9.3902070744   18.3787203107   10.7119519682
   2.2672674264   14.9803853124    5.8336907439
   0.1626427484   13.9858812619    3.4457838677
   9.5514844325    9.0732100326   10.9135828836
  14.4984208665    6.8761841889    7.3545835860
  -0.2122273678   12.4906450623    2.5038003385
  15.6801865554    7.6967599358    3.6824852411
   3.7816990849   14.2778988416    5.5435742152
  15.0420249956    5.6342050838    6.2093350484
   8.0409006815   17.9969346425   14.1908009441
  16.7489262627    6.5252489656    4.1668877714
  11.9310897984    7.7051443619    6.1363711980
  13.2541085746    8.5628094673    1.5662539352
   2.2808282480   13.3834039645    5.1413398737
  13.5229106267    8.5130902794    6.1589104058
  12.6588351173    5.6997234701    0.7405109887
   9.2860939269   12.6448869852   17.2977847085
  -0.5663068198    7.5398707896   13.9668318361
   8.6709554983   11.0205013583   18.6638818698
   9.1191212833   16.5612047157   14.3071955658
  10.4744200520   13.1260221966   18.4757864098
  15.1988605042    5.7662514693    2.2378972768
  11.0267931365   17.9840413509   14.6462364420
  16.0676063865    7.0114623174    1.1998625393
   8.5762855315   11.8478984154    0.1613804224
   2.3013246308    8.9389403978   16.4619852022
   1.1124129795   13.7438065058   16.5858558772
  10.7350470733   16.9263736928    5.8171264479
  11.2518007759    0.7649140641    5.9812683010
   5.0465082704   10.2533953238    8.4362106731
   5.2967396399   10.8403821074    3.7076796928
  11.5249348034    1.2025601901    7.6336146944
  16.8138627629    9.6778916064    0.7547340329
  -1.7350192191   10.5960745687   18.8328136777
  14.6886571580    4.9256207004   12.1772647443
  15.9946742442   13.1255653166    0.9491979501
  15.2451392293   12.6729717375   18.8735361336
   0.3834337962    0.3849248464   11.9452867320
   3.4160868998    0.9393191077   12.6897918558
   0.8355667096   17.6108088139   13.5693539063
  -0.1534899162    0.7142275810   10.0487343079
   9.6819302142   18.2611556421   15.8454877530
   4.6376551993   11.2564045883    6.9723879621
  -1.8205172055   13.0418617803   14.9589500450
   8.8346695523   17.3452129619    3.0475189179
   2.2657940022   10.0518233518    8.3869104685
   3.8024782856    9.3283846782   15.2920919652
   8.3171347389   18.2506297264    5.5539318274
   0.7897454505    7.6960589107   19.4481710980
   2.0828049418   13.6814122371   15.2735608838
  10.6264851925   10.1881960170    2.5574063451
   2.7406300967   11.1295514866    7.1048422855
  12.0992785393   19.5346775222   15.4028176734
   6.0608189359    9.1848214743    3.6575299414
   2.8629764549   12.1993232257   17.0259793296
   2.4430067617   18.0323015338   12.8709978091
   1.1289884337    0.8092819119    8.7900600960
   9.7212586277   15.6895627467    6.4743864837
  -1.2709767192   12.0658505762   16.2555891858
  15.3919576198    4.6219724762    0.5337455343
   3.7352086869    9.9609300404   16.9795061954
  15.1422176008   11.5693630140    0.8405519006
  12.8385777998    0.1782336382    6.7640061923
   4.5928706098    9.7385833587    4.8168478004
   9.5285347227    9.3385521182    1.4010224239
  16.1836710297    5.2588355431   19.3077759457
   7.0348796503   10.2343267188    7.2673065287
  14.1328917178    1.4142154239   14.2641413021
   0.3356506716    7.6687112889   17.7004131431
  10.6340959432   17.2172128089    3.2207180782
  -0.9100270500    7.9353557628   18.9905384559
  -0.0794651470   19.4111764497   13.4381262812
   1.0305135771    1.9172964488   12.5107654128
   1.4118971820   16.6441700091   12.1205170686
   0.0735960930    2.2715056606    9.2633903876
   1.5676022960    9.3639206895    0.7240353641
  16.8399073143    3.3860850873    0.7151190333
   0.9219855792   11.0819929792   19.1404762071
   1.2023045071   11.3879026479   17.1520764643
  13.5623954181    1.5162631482   15.9246471641
   9.8383096531   15.8413109822    2.5993161973
   1.9288507669    9.3410723354    6.7347108011
   7.9122618101   16.8906905291    6.6643458620
   6.4206610059    8.7184886108    6.5980019717
   9.1105572978   10.9117221626    2.2163889372
  -1.0574829136   13.8638456918   16.2489376546
   5.3043436354    8.7002806194    1.2436593203
   8.9247683539   13.9139511906    7.1925229108
  13.5483208678   12.7759895147   13.9127108464
   3.7368424472    1.4622315617   17.4030690374
   1.7302482033    2.6589674641   19.1343849754
   0.4018831087    5.6516040075    6.1120859130
   4.5912764436    5.2733572769    0.8485877525
   0.2971751822    3.0433316952    5.1400393410
  10.8306400401   10.9953842720    5.9563725298
   5.7253607718   17.4015279618    9.9662080279
  16.7851335074    0.5826710625    2.1647120254
  12.0038427937   11.9246971000   16.7552954476
   3.5775499485   15.9314566290    0.4258759707
  12.5047559098   16.5403218518   16.3006747051
   5.5478247314    0.6764394865   10.1268397930
   3.3899359116   13.9962098651    2.3653906289
   7.7821231046   13.4673303016    1.5694661493
  13.2838840500   19.4679328014    4.8251319501
   5.8117284656   13.0481680732   19.0440128604
  -1.3020285167   15.8180478138   11.0771427840
   4.6160817337   18.4462345301    3.2411348791
   4.8029189637    0.8078278154    2.2357598878
  11.9415431910   15.8572985252   19.1568449843
   6.2259787630    2.4040687977    6.3025402654
  13.9212301683   18.2464464482   11.5342379890
  11.8888905651   14.1675159483    9.9112312089
   3.2579745670   15.2611217858   13.8301469392
   5.4008570226   17.1251455220   14.2371531917
   9.7598551751    2.9880502983   15.6477095702
   9.4436217082    2.9278904964   18.0740772784
   0.5198977831   17.5945422178    8.0133900311
  10.3149454787   12.4364291776   11.2241755133
  13.4621275699   13.7955609270    4.6487128574
   2.6452240313   13.3589015679    9.9689028639
  -1.6469336094   12.4011625376    9.1690421669
  16.1583155196    9.5743688963    6.7356729716
  11.5317951472    2.2000770299   17.2337873734
   4.0357333695    5.2714432917    6.4583663431
  -0.5009072708   17.2866510204    4.4451058219
   9.4178903556    7.1495645108    4.1846954357
   7.8348078729    6.3657142116   15.2846039994
  16.1753114394   13.2700852975    3.6069099712
   2.6961384033   13.5003424553    7.2265237525
   9.1887825293    7.4131758160   12.0265395756
  13.6995192065    6.6981485882    5.4154446733
  -0.3881337855    8.2339804318    2.9825941804
   0.4002963875    6.1234329366   12.4114693808
   8.7918133542   14.2953889970   18.6314335842
  10.9730782338    5.9051115852    1.9878487822
  13.6868453691    8.9720727937    3.6831304527
   9.4553692960   17.4940855376   12.5826173412
  16.6040658174    4.7158200341   11.4189244601
  16.0228064062    6.7112990959   12.5875900337
  16.9493244268    5.1349414252    1.7949468238
   2.4500954988   10.8633584677   15.5453451514
  12.3631860684    0.3960635256   14.4595194579
   6.5065559512   10.3402920294    5.3132946712
   8.9808307710   18.5633276550    7.3744559813
  10.4719576148   11.1431595892    0.6919874237
   0.2690080403    9.5397962468   18.3060898427
   0.7384513985   18.5737638345   11.7897220481
   1.5434624710    1.6464068895   10.6578819220
  -0.6819401619   11.5603164753    0.7426156258
   9.5242409621   15.8337257481    4.5307149733
   0.2079122895   12.8184974513   14.9376376642
   3.8366080467    9.3479090963    7.0572139860
