B2 C140 Ca1 F48 H298 O66 
1.0
1.8103434039310336e+01 -4.5265030435292198e-17 -7.1086773150327515e-17 
-2.2783299606210847e+00 1.9564509444389255e+01 1.0107544422972941e-17 
-8.6428966774065386e-01 8.1406958060255177e-02 1.9446596598909675e+01 
B C Ca F H O 
2 140 1 48 298 66 
Cartesian
  10.1065463024    2.3137293392   16.8924617353
  -1.1403582455    5.7214708359   11.9967465857
   0.0875564586    0.6903400849    1.5038467074
   7.5426476762   13.8518561619    6.6291807380
   5.4287524967    6.3844140117    1.3286090007
  12.9064500780   12.6475120849   12.5043757504
   3.8749102808    1.6203342854   16.0750533460
   1.7672685011    0.7890405554   18.8491504479
   1.5148986056    2.5236318541    5.3131438609
   2.4222678549    0.4573479894   17.4877851404
  -0.5543879453    3.1778351267    6.2879313936
   3.5267599829    5.3101328819   18.9934182070
   2.0658441547   15.2887761429   18.5088305126
   0.4209589233    2.7352007752   18.3001091169
  12.1016933138   15.1516830808   15.4578505081
   4.3833936839    9.9115975393    0.7449535954
   6.1830471698   16.6337005009    8.8719020303
  13.2447045885   11.7467182840   16.0213705334
   9.4815019130   11.6266943878    6.2851593399
   9.7844559723   13.1911419907    6.0333874768
  13.2636352262   11.4261528127   14.5293772480
   4.4577021201    7.6349428807    1.6115661094
  11.2689109592   10.6729925023   16.6972880296
  11.6369046671   10.9600320552    6.9479867729
  -0.0071660948    4.4221371242    6.9075208214
   0.0657141089    6.7119743672    6.7659196893
   5.0248809019   18.6544013009    9.5366001165
   2.5828517694   16.1100374860    1.3208204247
  16.5067059819    1.3981586512    2.9540704386
   3.8143331129   18.9654350261   10.3801202285
   2.2122069115   14.8573541280    1.9319405338
  13.4188913631   16.1875155102   17.1817674560
   5.2941169220    1.4083745831   11.1455781625
   7.9926564164   13.0910110973    3.0831349746
  15.1810653275    0.9656434034    3.7216243751
   6.7740233415   14.1931898275    1.3622060935
   5.5601354288   14.2491063807   19.3236357852
  -1.7725484145   15.1141716858   12.2886873532
   3.3163591977   12.6343505017    2.7369424942
  13.0483553831   15.3507614900   18.4163833058
   5.7250689127   12.4521364931   17.6938422782
   5.5583710980   17.7121539538    3.9974565847
   7.1528339972    0.1321103811    2.5716122174
   6.1310601948    1.2248090241    2.8551177978
   4.0075632182    2.1286456187    2.2812536278
  -1.9807461753   17.1609441346   11.0387501400
   5.9114412541    0.7860722263    6.4841220855
  12.7058902836   14.8091914710    8.8037789066
  14.6399456079   17.1132586172   10.7546263465
   3.4710937402   15.2370217466   12.2539770067
  13.0371932994   18.1486975203    4.1896121761
   7.0139542073    2.0527754442   18.1227558659
   7.9222875562    4.0817859548   19.1573498945
   8.0878515899    3.1459143144   17.9261197973
   4.2441815834   14.9190271469   14.5134800285
  12.5731803102   17.7949506111   11.9797899693
  10.5772702875   14.5000101344    9.9463378403
   9.3177268048    2.2714634991   13.2267978223
  12.9837988912   16.3564288803    0.7178426185
  13.3787182866   12.7563300259    3.7555149717
  10.0451661990   13.8168572361   11.1834902202
   5.0476451068    2.9809184401    6.4686251989
   1.9171985417   12.4292851298   11.0068251690
   4.8585127936   16.2332081039   15.1745481480
   1.2472896002   18.4098981394    8.2149224424
  10.3857834722    2.4329541371   14.3613730436
  11.4309939441    3.5197837874   14.1043595893
   5.2422968044    4.5916004172    6.3307947159
   5.2957353772   18.3710035237   14.1087802018
   9.6710562600   11.7864123166   10.0669001542
  -1.1989389337   13.3043676928    8.1544710470
  15.7837560334   11.2603149966    8.3724085610
   0.3443313381   17.1237870465    6.6433359858
  -1.3267149902   10.2121281567    7.7711181714
   5.4368720371    6.3581148112   15.4599590773
  14.6163777711   14.7427218118    4.2942559929
  -0.6849866795   17.7732131822    5.7783176839
   3.6707079250   12.6386508760    9.2426002286
  16.5140400880   10.2361134224    5.4367356684
   3.6722849565    6.3553315557    5.5252387033
  11.7214201872    1.5921201465   18.4296393606
   1.9848365974    4.5993806332   13.1935887404
   9.7338592476   19.5381977823   18.5957160271
  16.0379322153   14.3470841446    4.5230853044
   6.8288414745    6.8255923747   16.0298345663
   3.6546234431   13.5804051507    7.9895509604
   8.1715898868    7.4909837186    4.6697475841
   0.4057941697   18.1390945141    3.9035129979
   7.1355563672    8.3025926685   15.7442117112
  10.1616254928    7.4166415810    9.6874884134
   0.9961169602    7.5168035824    2.7468051061
  12.9669335074    2.4664117421   18.7253981642
   1.9387399091    5.2885367885   10.6675667900
   1.1615686925    5.0042959460   11.9600149370
  10.7448426057    5.2331890656    3.2647644048
   9.3971461908    5.7656076361    3.8009735265
   8.7740142623   14.9734407212   17.3738030427
   9.1676402602    7.9278831591   10.7953296192
  12.5731674431    8.3810794816    4.1197482261
   8.8137679203   18.6435589371   11.9029465432
  -0.3387724965   12.8447436005    3.7490515839
  14.1498632491    5.8245671606    6.6392216432
   7.7371144967    8.3690887847   10.4712866847
  13.5466001717    9.4541720849    2.1267381048
  12.3709716465    5.3926423739    1.5689205398
   2.6124956782   14.0423344286    5.9853546271
  13.0047382541    7.6742748411    5.4992183219
  16.6657483155    7.1063799372    3.0916469345
   9.0145311225   17.4765146673   13.8935014815
   9.3045548765   12.8008911640   18.3729487770
  15.2677090190    7.7438551881   14.4516803376
  16.3914601162    7.5584674076   13.3622263103
  16.3318927698    6.1129190906    1.9748172437
  15.0782969957    2.6984968209   11.3032577676
   8.6564024730   11.5703848252   19.1828225382
  15.2818387513    4.2427833448   11.2931367312
  10.0275645331   18.1988559186   14.7846059476
  14.7598294955    4.9001476930   10.0101639316
  -1.5420434052    8.8923579326   12.5338854592
  11.8439777201    0.1102617490    6.9777143078
   2.9345453319    9.6065782483   15.9865644658
  -0.5541877759   10.4997474954    0.1421053167
   1.1614513955   12.8790027305   15.6659146643
  16.1135186233   12.2939634206    0.3273631121
   4.8869864862   10.1249161440    7.2089922483
   5.5555879283    9.7309369592    4.1908229678
   9.8183054211   16.5534426674    5.7019094063
   8.6398117870   17.5475079410    6.1699126660
   1.8274801561   11.6078451359   16.2188024518
   2.3257918561    0.1018755634   12.4507967845
   1.1728477548    0.8081779262   11.8351297066
   1.2944324530   17.6492783045   12.5818412527
   0.4430394944    1.1493011305    9.4662527577
   9.7866710601   10.3271171775    1.7032751002
   2.4747129401    9.9799133004    7.0587741428
   6.2108023013    9.6985171053    6.5608180551
  13.5529783261    0.6188196489   14.9372763549
  -0.1432205247    7.8942891542   18.4400133311
  16.4714415318    4.2541892576    0.6661444248
  -1.1965764725   12.4875914946   15.6075068971
  -0.0620400830   10.1837068401   19.3906091349
   9.5834143631   16.5506557707    3.2006433240
   8.9227193017    5.9494380139   13.5577073546
   6.6983059323    1.6569400302   16.8903903510
   8.8925370692    4.9806236967   19.0748279607
   8.9563673765    3.5507899738   12.7188379042
   7.5778819056    1.0113074784   18.8014149287
   9.1578440178    3.2745847976    0.8196297916
   5.8002623458    2.3910764970   18.7525897476
   6.7964867480    4.7972264363   19.2860303317
   8.2314633063    1.6675301022   13.7670508420
  11.8378628891    3.3672786078   12.8093239089
   9.7980452615    1.6459319714   12.0891681135
  12.5671761172    3.4554231071   14.8587358316
   4.4147716084    7.0706790532   15.8526485127
   5.3613112530    5.0016184505   15.9106554711
  10.9860322932    4.8520143147   14.3070435180
   5.1933610290    6.2240905091   14.1090736441
   2.6884635664    3.4868353090   13.0756951963
   8.5412136218   18.8245730962   18.2305035390
   2.8755694860    5.5850193681   13.3959567048
  11.4541274308    7.5475583481    9.9881972436
   1.0469067749    4.9341252958    9.6969057813
   7.5325504610    8.6169708741   14.3995657151
   8.1768607899    8.6956906464   16.5099836158
   1.1323421156    4.2231073890   14.2465091005
   9.8893933587    8.1944480649    8.5385654075
  10.9637750845   19.1507611756    0.4033246090
  14.0865843092    2.0939498467   18.0813175420
  10.7377125849   19.2011652201   17.7963513307
   3.0301823192    4.5218661007   10.6297955314
   9.9892970847    6.0835871873    9.2059928278
   7.1493474207    8.8720420959   11.5527724350
  13.9779377393    2.3242749315    0.6964238007
  12.7336289988    3.7447952217   18.3977372173
   6.1300704112    9.1921341068   16.0124448844
   2.3591426821    6.5849917611   10.5696234517
   6.9403324867    7.2920516449   10.0130878414
  15.4263016332    8.7237970031   15.3608783058
   7.6127019762    9.2597819899    9.4873589396
  13.7021572994    2.5289895180   10.9905548702
  14.0907526106    7.7351304561   13.8249463557
  15.1390670860    4.4288586061    8.8045034983
  15.7749227933    1.9824430173   10.4579214891
  15.1794672792    6.2086464220    9.9834571353
  15.2598879823    6.5085236026   15.0040988719
  -0.7912821610    8.4987780418   11.4946913328
  15.2804103560    2.2529690945   12.5870620983
  -0.8095106739    9.7839567111   13.2971406448
  13.3914187014    4.7931839419    9.9607045464
  15.4523133027    9.4966874725   12.0764332201
   0.6912508239    0.3830396459   18.8683021709
  13.8279057664   12.6063034142   16.2279454197
   2.0436234105    2.2452188438    4.2693050558
   6.1311900630    6.3282940609    2.2123011593
   5.4247981827   16.5656513098    8.1430251484
   9.0532483568   11.5746032926    7.2861586242
   5.9413574426    6.6523098794    0.3550297038
   4.4220345535    2.5679053537   16.2411181531
  16.4680767495    3.2910331192    5.9827625801
   0.1348607212    1.7676366627    1.7018087047
   0.9619507513   15.4215664481   18.5926156242
   0.0744964769    0.5461447336    0.3700418239
   6.9895777282   13.6755250767    7.5343023516
  -0.0727419886    1.9237300172   17.7676526048
   1.0256559829    0.1467561977    1.8275737278
  11.7873148229   12.4169278923   12.4060625873
   0.2056399711   18.9829168218   17.2182043382
   7.4047877288   14.9024048202    6.2392784173
  13.0122503339   14.7415742533   14.9211303678
   5.0647673171   10.7211936402    0.3579057900
  13.4875891874   12.0575488036   11.7232584382
   2.9874710843    4.3237533990   18.8002866588
   2.6786498783    6.0504759859   18.7674010845
  11.7805199726   10.0447129204   17.4855252018
  11.7298526008    9.9806099449    7.3169967596
   1.6012964776    1.6002617386    5.8589645270
  -0.4450742903    2.3515856171    6.9854342736
  10.7583324519   13.5906716684    6.2690913040
   2.9128094530    1.9767835506   15.6195721814
   5.7408193024   19.3725629830    9.7092962698
  11.9519094490   14.1862927327   16.1345506385
  12.5179994651   10.7775575273   14.2858611425
   2.4909582819   14.2518224134   18.5198831520
   2.3999587145   15.7710240486   17.6265606568
  11.3061758892   15.2517975890   14.7635900834
   7.1753327775   17.0368967013    8.4654289746
   0.7360359832    3.5136809487   17.6505066331
   3.2350019671   16.7727771485    1.9161266185
  -0.9579053644    7.0565762283    6.8915147655
  13.6633995225   10.8459247268   16.5740376002
   2.1235257716    3.2498179558    5.7788733775
   6.4160238332   15.6230969922    9.2341930151
   8.5415067739   11.3639714853    5.7082982930
   3.8051264948   10.3128841424    1.6756262657
   7.2563943199   13.0506881994    6.0151206310
   2.8454114612    9.7568642967   19.3355704176
   4.3427111220    5.5808946132   18.3842480682
  13.1000409652   13.6688695182   12.2265934906
   3.2492422188    0.2753063234    0.3536269971
   4.4101592918    0.8965354103   15.4460395448
  -0.0631430103    3.2107294903   19.0961282775
   1.6752167433    0.8138715269   16.8110417439
  17.2731398312    1.5969860144    3.6945253316
  16.2223076977    2.3109274906    2.5162102922
  11.3536924586   10.2659619149   15.7542462875
   4.3260152885    7.8869972243    2.6709591260
   3.5407256833    7.3974214511    1.1391356011
   0.6707989559    7.5005909201    6.2112656401
   0.9300593046    4.3525497050    7.4594037673
   1.6892700964   16.7144175886    1.0107893746
  12.5224257963   11.3240815027    6.4835293920
   4.1519429822   18.9321833494   11.3819058791
  11.4967555296   11.5673943195    7.9286998792
  10.2734441903   10.8677644904   17.0039298051
   9.5304637973   13.4668386529    5.0198088138
  14.1441815198   10.8030424461   14.4405109853
   4.6732179920   18.7787208176    8.5139889433
   8.3235303658   14.0264331378    3.7026201829
  -0.7786838336    4.6267274457    7.6903486514
   0.6655672912    6.6451538452    7.7256174662
   6.8504377692   15.2250253263    1.6990088380
   6.2269922105    1.9389126843   11.3667892366
   1.5480396606   14.1322597194    1.4776418422
  13.6369259454   17.3539245713   17.3760435503
  14.3333073921   15.6999205874   16.7311283479
   4.5818687455   14.6736292880   19.0319651496
  15.3037430389   15.3629714954   12.6028475451
   8.7510859608   12.3315146067    3.1628247917
   4.4856546587    2.1604518173   10.9438565057
   3.0623339118   18.1953922470   10.1452981311
   6.0212697261   11.3976837375   17.5785386272
  -1.9382349037   14.0256895085   11.9522181542
  14.4518092410    0.7443835939    2.9900928673
  14.8596036883    1.8121237803    4.4731191482
   5.2009960910   16.6864924329    4.0266675130
   5.3851269384    0.5220343027    7.4299289204
   5.0081228735   19.3769169819    1.5438623404
   1.5388857508   15.2461238577    2.8640465753
   6.1356681362    1.4172142500    3.9017190351
   2.9032161294    1.9555086621    2.0824468314
  -1.6169045090   17.6820656840   12.0686300378
   2.7594457462   12.4464011610    3.7091587977
   2.8368306035   12.0741845181    2.0434440491
   7.0787476066   12.6615128012    3.2773868160
  12.8965631420   14.2693574785   18.1595606532
   5.2191671716    0.8527914086   12.0488124948
  13.9103002041   15.4149237997   19.1406159217
   6.4548993480   13.0384384973   17.1504041803
  12.3579673966   14.4120889512    7.7773706078
  14.2634442710   16.1700598589   11.1323099073
   5.8837816248   13.8128349092    2.0031576677
   2.6586725485   14.6742181108   11.6585567261
   5.8024877754   17.9916750278    5.0392028707
   4.4411984605   14.7971730292   12.0314477551
  13.8480409856   14.6649990714    8.9500089516
   4.2965573079    2.8741145410    1.5364664111
  -1.0046608482   15.0645188422   13.0807673022
   6.4499272916   14.5406750269   18.6968196067
   4.3387376967   12.2623872349    2.8457199268
   6.8736442342    0.1431555526    6.3935925589
   5.2944404286    0.4154045511    5.6260436381
   4.7020499973   12.5670223362   17.1186174342
   7.8726723849    3.7030614088   16.9964408756
  12.4589850605   18.5423640179   12.7126931820
   3.8843401711   14.1948052069   15.2917260545
   5.0092113741   14.4209099968   13.9073674848
  10.1992914283   14.2360974653    9.0094371059
   3.3727891624   16.3809523435   12.1244194442
   6.4697247577   17.8804268157    3.3917643925
   8.1169145144    0.5395802480    2.9965261467
  -1.2801939079   17.3783954750   10.2236143112
  13.5486622969   17.9363713634    3.2268515026
   6.4305416698    2.1189032977    2.3365497383
  11.9091278506   18.1445384834    3.9625975507
  13.0692669276   17.3773102817    4.9686973285
   4.0805948639    2.6365629762    3.2576935992
  12.6412074528   15.9368403667    8.8587057890
  14.4666879993   17.0681742433    9.6844975502
  10.5956356264   14.2169000215   12.1155554343
   1.2820868826   18.8064072825    9.2685274904
   2.2405796679   12.6425208839   12.1286376659
  12.6216913801   12.0395587431    3.9499239130
  14.3792105811   12.1984685262    3.7373117493
  11.7747035079   17.7985961646   11.2682143555
  12.0976131285   16.5586751750    1.3292083945
  13.7752681725   15.9670334636    1.4569577094
   0.8444928241   12.7282975227   10.8925928601
  12.6456660872   16.8334703495   12.5276643583
   1.9906205591   11.3545681787   10.8753487839
  13.1169770302   13.1945634174    2.8248550157
   4.1183196540    2.9082438768    5.8048766552
  10.4300571381   15.5994319257   10.0675243421
  16.0041118418   13.5748300961    7.5545593354
  10.1083238891   10.8185322515    9.9485948414
   4.6465254705    2.6220858852    7.4382408036
  13.4249996241   17.2931776520    0.4183664980
   5.7855899652    4.8054064838    5.4117184077
   5.9328044218    5.0132389987    7.0796550436
  15.2001197556   11.5656127611    7.5321223051
   5.5389686922   18.7535981563   13.1155816007
   1.3960413247   19.1929679974    7.4392604927
   2.2666509738   17.9585373009    8.1063517120
   8.9277949408   13.8772866420   11.2649071726
   5.5646592924   15.9346454878   16.0923127817
   4.0570479071   16.6671406535   15.8146652246
  -0.2957397907   13.1008807438    7.4974904712
  -0.4189731930   10.8435095219    7.4970888640
  11.0602680055    1.5268384358   14.3710391941
  14.4587321724   14.8433706302    3.2398665715
   5.8908629303   18.9367036301   14.8693748576
   9.7870708796   12.3839441990    9.1091494342
  16.0353786954   11.2126554895    5.2280315228
   4.2376027554   18.6611188723   14.3816773100
  -0.6161325155   18.9160217689    5.7746419118
  -1.6154408415   17.4818254877    6.3056387079
   8.5124369747   11.7312535557   10.1549556887
   3.3881636336   11.7329609497    8.8118943399
  -1.0149252019   14.1968930843    8.6951566500
  14.5418784983   15.5942950243    4.9900491893
   4.6816964279   12.6525524423    9.6723776220
   1.3277719970   17.3380247345    6.2367102895
  10.9473960007    1.7952182999   19.1744042748
  15.2141874212   10.8803971107    9.2107926377
   0.1903643527   16.0106681381    6.6341758113
  16.1681268694    9.5572759962    4.5733970602
   2.7450732450    6.2200406640    4.9196837703
   8.0940820212    8.5593142386    4.5908299399
   4.5170288111    6.4543861767    4.8693085215
  -1.0082137375    9.3065154145    8.4047873789
  16.1898127111   13.9104489683    5.5604569237
   1.3492119680    7.1407082591    3.6496136004
  -0.3993696297   10.3004124308    5.4592029668
   0.7943273946   17.6673512752    2.9561742003
   1.2899939252   18.4007320839    4.4343755012
   3.8570777907   14.6229102405    8.4158142689
   1.1610278360    6.7213198861    1.9941350337
  -1.4352149803   15.2960540308    4.4047504393
   4.5232825965   13.2030547707    7.3049964730
  11.7183124285    5.4093686586    3.7811634997
   6.7673529911    6.7272805241   17.0809213654
   3.4262013696    7.2500451469    6.2197718810
   1.4581658190    8.4461533026    2.5375753743
   7.3503545899    7.1675605659    3.9375487800
   8.5306955921   15.9812792279   17.7749740203
  10.5490774999    4.1286299856    3.1629604212
   8.0774193768    6.8909012501    5.5433150944
   0.6677865655    4.1034791104   11.9008593629
   7.7520324498   18.9626938425   12.2114177179
  11.8642605419    9.1247744000    4.4922031476
   8.1460165489   14.5575181693   16.6338431082
  13.3131665319    5.3503295582    6.9973718714
  12.0782235525    7.6734968631    3.4595549758
   9.3802204172   19.5330673789   12.1249379858
  -0.2190691383   18.9654658323    3.7075581817
  14.6211636490    9.4549409529    1.8052456965
  13.1155460510    5.7901553143    2.3667310307
   8.6842428801    5.7648253500    2.9631603004
  -0.1692309716   12.3747101963    4.7422630897
  13.1388137171   10.5264061122    2.1961072855
  12.5175494365    4.2501536156    1.7381348608
   9.7885436686   15.0184669752   16.9629010784
   9.0514702155    5.0556092593    4.5711810177
   8.8255508949   18.2706894093   10.8980492599
   2.3277346733   15.1688247912    5.9913762167
   0.3659442076   13.7777319708    3.6361068946
   9.7729467327    8.8332167830   11.0669493752
  14.3483891274    6.5850785151    7.4168293897
  -0.1535856323   12.0707901817    2.9865519467
  15.7843231402    7.7483189907    3.2962005328
   3.5818688119   13.9012679750    5.5842056683
  15.1076836955    5.1514679479    6.6559104295
   7.9680771030   17.7138326081   14.0770390140
  16.8426436158    6.4636828056    4.0522045425
  12.0162557386    7.4446496880    6.0003285149
  13.0065643408    8.8189712477    1.4723258202
   2.0013768350   13.3780404337    5.4155521017
  13.4959171534    8.5447377811    5.9203854262
  12.5922477927    5.7273857368    0.5089807519
   9.0187487349   12.6377017988   17.3513049764
  -0.7659751034    7.4182111710   13.9109479003
   8.5305576131   10.7697413121   18.3135885045
   9.0283426777   16.3688336362   14.2563680780
  10.3658714416   12.6408126535   18.3745423167
  15.2282111225    5.6919702310    2.2580559436
  10.9977145884   17.6000829789   14.7104109132
  16.3580700757    6.5797532944    0.9765540159
   8.5237242783   11.8233286693    0.1749124257
   2.1035762553    9.0802576001   16.5048461319
   0.8457702535   13.3862387179   16.6323786946
  10.8767232058   17.0865158286    5.7946461494
  11.2688714071    0.6267561606    6.2502057601
   5.0359320700   10.2003228837    8.2878734891
   5.7169242602   10.4807959771    3.2633876610
  11.7670025577    0.7203078233    7.9157786856
  -1.1264398214    9.6623779872    0.7312053004
  -1.9664419056   10.6182292730   18.6465661641
  14.7210997413    4.5439129287   12.2210637799
  15.8888203104   13.2683806478    0.6850773668
  15.2809677294   12.1977066860   18.6727525856
   0.1675546032    0.3601139775   11.7710146661
   3.1804409986    0.8560537567   12.5854232030
   0.7535608953   17.1501954210   13.3843120989
  -0.4231051419    0.6194147279    9.9180113541
   9.7403146472   18.2350184084   15.8350659329
   4.5961695474   11.1143762234    6.8127878336
  -2.0068497748   12.7549867038   14.8539127079
   8.6051306202   16.9487939606    2.8426262627
   2.2080753855   10.2343534151    8.0755629760
   3.6683488605    9.1918137617   15.3656621780
   8.3671648142   17.9948092463    5.2019834936
   0.6503328618    7.3774313363   18.8992455447
   1.8135261416   13.5584262386   15.1320843337
  10.5817558499    9.9963831328    2.3929462042
   2.6051123638   10.8158464536    6.4149974906
  11.8231141083   19.5535765231   15.7481115800
   5.8853071662    8.7020844563    3.8045408734
   2.5810944124   12.0138155026   16.9345873344
   2.1453145412   18.1286496444   13.0107124107
   0.9289043126    0.5360242809    8.7545718440
   9.9022769439   15.7316492985    6.4077367410
  -1.3538764011   11.4726763421   16.0173949703
  15.4049259609    4.5661808048    0.6832133141
   3.5214996484    9.9882153628   16.7464953233
  15.3563171204   11.5796604896    0.5833952889
  12.9284240109    0.1199878629    6.7001869794
   4.4131965931    9.6989782110    4.4312235727
   9.1756254956    9.4386166527    1.3736524236
  16.2229255880    4.5145778499   19.0627345209
   6.8898556236   10.3414816648    7.1794646706
  14.3627361382    1.0653297651   14.2778162151
  -0.2401266243    7.5211631374   17.3557123202
  10.3178073634   17.4870483164    3.1653592935
  -1.0889159238    7.6352383712   18.9551302680
  -0.3711959150   19.3987504045   13.5312555516
   1.0858642564    1.6461079295   12.6642382973
   1.3333076637   16.7909721543   11.8761746803
   0.0596584337    2.0947907496    9.0456681205
   1.2136929152    9.6240323354    0.8013274277
  16.7321375936    3.2282489926    0.8346074471
   0.5428438233   11.0687656022   19.1331685452
   1.0311600936   11.0369421994   16.8580893702
  13.1297817549    1.3559747289   15.5782613440
   9.9189179952   15.9060441860    2.4357945113
   1.6673130115    9.3945482285    6.5464438267
   7.7608722086   16.9976303398    6.4641100089
   6.2462318441    8.6261242664    6.7544885787
   9.1790919246   11.0685451997    2.2318537901
  -1.3618833455   13.2850167411   16.4220428192
   5.0953158221    8.8097147982    1.1221563481
   8.9547389633   13.9077377416    6.9486317860
  13.4113244019   12.6362116918   13.8557639769
   3.5640946343    1.1894761694   17.3871904459
   1.5450074535    2.1524560348   18.9124732241
   0.0630684179    5.4698972160    6.0009154870
   4.7115528290    5.2130705712    0.9645216409
   0.1511608260    2.8332488586    5.0177551302
  10.5843586841   10.8492550888    6.0219756463
   5.6072027578   17.4392920107    9.9688769203
  16.9365290632    0.3262553470    2.1550823884
  11.9304376124   11.9157873177   16.7078629772
   3.5287313573   15.9605365878    0.2667239929
  12.3837711029   16.2646961116   16.3072752481
   5.5287721442    0.5977274808   10.0211082441
   3.4329050356   14.0895150916    2.4567328274
   7.8452441758   13.3739853996    1.7122725611
  13.2497445830   19.4814587164    4.6078119109
   5.5879955451   12.8180597010   19.0200053463
  -1.4713392089   15.7412983215   11.0712771747
   4.5116208409   18.5378293718    3.4520451972
   4.7826748329    0.9110789442    2.3102893892
  11.8192461656   15.6427064806   19.0259563600
   6.1335546711    2.1931814483    6.0928200641
  13.8686429511   18.1088249902   11.4205595512
  11.9973202065   14.0702142367    9.8092891812
   3.0740923774   15.2111101549   13.6667540934
   5.3643962200   16.9615231622   14.1121065242
   9.7633426926    2.5554158165   15.5934303086
   9.3981073555    2.7822258240   17.9118119281
   0.1903094361   17.6260386121    7.9056428790
  10.2793512963   12.3555876601   11.1468826792
  13.5615333652   13.8090216196    4.7627417087
   2.6309853616   13.2201055266    9.9791276346
  -1.6613365408   12.3249474636    9.0840613923
  16.0468773931    9.6379662457    6.6157180793
  11.3426345700    1.7973951690   17.1245843714
   3.9597104836    5.2007095459    6.3176274212
  -0.4507355898   17.2520750862    4.4893654440
   9.4436020548    7.1161725599    4.2330679859
   7.6488217726    5.8732114562   15.4754230041
  16.3951797979   13.2416250296    3.6685599745
   2.5742278192   13.4408259484    7.3114704313
   9.0796592206    7.1491703706   11.8708799341
  13.8917807609    6.5054597880    5.3712737569
  -0.3262931312    7.9685037928    2.7613554976
   0.2247553557    6.0299549561   12.2540035565
   8.7311563447   14.1756752232   18.6706767043
  11.0086496726    5.7308940177    1.9274955631
  13.7254999461    8.9383848202    3.4652199775
   9.2312907509   17.3808344513   12.5032525663
  16.6716439085    4.5560888892   11.3653957864
  15.9167358809    6.5884690472   12.4686560484
  17.0938244905    4.9902550059    1.7285670453
   2.3614204816   10.7534398199   15.1879469421
  10.2994528315   19.4725981478   14.1541537403
   6.3835346606   10.2609977235    5.2600409059
   9.0482665407   18.3814351604    7.1906361189
  10.4202517106   11.0785672996    0.6905159178
   0.0786454145    9.2799460723   18.2125029955
   0.4877518430   18.5072382512   11.7871859758
   1.4484121491    1.5631749049   10.5712198781
  -0.6356459462   11.7414677735    0.7443648781
   9.5405272049   15.8982779490    4.5121422248
  -0.0361575422   12.6910526112   14.8277128386
   3.7169421097    9.2314896901    6.9611519666
