B2 C140 Ca1 F48 H298 O66 
1.0
1.7967239749041489e+01 3.5691249443019823e-16 1.2919555000386204e-16 
-2.4388936199982685e+00 1.9504383976616836e+01 1.8571653698948800e-16 
-9.8418362877240251e-01 7.3104980092268801e-01 1.9416391339735029e+01 
B C Ca F H O 
2 140 1 48 298 66 
Cartesian
   9.8842282521    2.8242637215   16.8804935909
  -1.2408905729    6.0443414946   12.0054131353
   0.1336138579    0.7009091384    1.7980352229
   7.2549655021   13.9699188514    6.6548591680
   5.1544291132    6.2121632394    1.2945024245
  12.4164767203   12.6210578951   12.5929847104
   3.6507850748    2.2740228366   15.6048296449
   1.6912778681    1.7861765827   18.4400495056
   1.4081993132    2.7081449533    5.3424333506
   2.1384954546    1.3673339960   17.0102700055
  -0.6583588956    3.8496949683    5.9941813398
   3.2680187877    5.8380667919   18.7697029629
   1.8779671395   16.1200079270   18.7949161097
   0.3668964430    3.6085129810   17.8427484338
  12.0399143471   15.6866267918   15.2669470418
   4.5033548749    9.7901583441    0.7092550466
   6.5419556542   17.1996755885    9.0725525322
  12.7113268745   11.7751326191   16.0548477332
   9.7004331248   11.7888709605    6.2546196729
   9.5606296732   13.3952512737    6.1754381001
  13.1345759780   11.5387461035   14.6494982510
   4.2965955851    7.5582249561    1.4537531804
  10.9386113239   10.4860372368   16.6981484577
  12.0582218531   11.5099039963    6.8669740335
   0.0211017946    4.8000607816    6.9603225435
   0.3540751518    7.2374755932    6.6713634213
   4.8316413978   18.7578922063    9.6670614605
   2.6402103891   16.2975617408    1.6561106624
  16.4216144612    1.6383365840    3.1159394350
   3.8052713253   19.1509302097   10.7159156054
   2.0965811585   14.9314352646    2.1703258317
  13.2525279604   16.6771566405   16.9862768992
   5.3159236266    1.7880789521   10.8706456412
   7.7184396509   13.7734757288    3.0391304830
  15.0501715715    1.1989165445    3.8605231739
   6.4826276017   14.3029919036    1.0119374321
   5.4912688154   14.7003897252   18.9255678885
  -1.9817706310   15.4819337848   12.2386171988
   2.7084356398   12.5746295049    2.4567875172
  12.8185040215   15.6608164570   18.0489931985
   5.5874826011   13.0939966719   17.1963907051
   5.5011442067   17.9459776678    3.4994705542
   7.1781775709    0.5105030533    2.4193319985
   6.0885364124    1.4315098363    2.8109800756
   3.7284087302    1.7187638590    2.3921706694
  -2.3153958410   17.2989915086   10.7585498923
   6.3475489868    1.0269591619    6.1648102063
  12.2875014665   15.1807168441    8.7621637510
  14.1388915928   17.4636739739   10.6402185307
   3.5892119170   15.5163365222   12.2938465632
  13.1419294949   18.2520431433    4.1967641781
   6.7629317008    2.2366423711   18.2641355312
   7.5725502344    4.5656437410   19.1901873505
   7.6953731905    3.4892224630   18.0353032790
   3.9450477651   15.3073532293   14.6165666930
  12.1916873419   18.2205438582   11.8218724091
  10.3320039261   14.8090463179   10.1011572197
   9.1433014809    2.8081883774   13.1887585978
  12.5291912516   15.9206790079    0.4975691684
  12.7832648400   13.0803139470    3.4316842355
   9.4689715449   14.0068845043   11.1227111866
   5.0815835254    3.2112059410    6.6265298088
   1.8778008751   12.7057947257   10.7685988893
   4.0164536658   16.7720393969   15.0515258920
   1.1117798566   18.6380512055    8.1591890676
  10.1668114737    2.9937988959   14.3335862540
  11.1696255954    4.1376132736   14.0267559751
   5.3775843905    4.8144825730    6.4834441205
   4.8200300068   18.9586064205   14.3957402861
   9.3057679230   11.8716755376   10.0423411920
  -1.0723352009   13.3451485438    8.5488724373
  15.4465937042   11.3910386630    8.4530322820
  -0.0134414213   17.0766388628    6.6426549054
  -1.4535817514   10.4477224613    7.9474353989
   5.3464090992    6.6561168737   15.7839701099
  14.1589686417   14.7508313614    4.4036075021
  -0.9856217733   17.7991933298    5.8428340842
   3.2956055786   13.5515955987    9.1366064398
  15.7664038914   10.0394989216    5.6137334540
   3.9179673568    6.3610614983    5.4144362422
  11.6521018968    2.1717036054   18.3071623202
   1.8376434297    5.0038863698   13.3166311657
   9.4781852583   20.1669171619   18.4621230281
  15.5002543744   14.0427193602    4.5497585844
   6.8419888321    7.1866405470   16.0953515553
   3.4184694454   14.1996846560    7.7195225333
   7.6694826621    7.5160678459    4.3554004317
   0.2725286467   18.2446792537    3.7308735413
   6.8870992573    8.7917196756   15.7563267727
   9.8063482380    7.7238837698    9.4866987864
   0.6015198929    8.0493192912    3.0045570981
  12.8627317635    3.0223533935   18.7518346031
   1.9527163103    5.6515505347   10.7910058552
   1.1093525923    5.2385585282   12.0185105667
  10.7786210312    5.4906115246    3.2738337003
   9.3162872715    5.7282747840    3.7871976315
   8.6172924010   15.4692369526   17.4395017032
   8.9648214511    8.3138455613   10.5846415893
  12.3188901613    8.5220066911    4.0651361376
   8.9806804729   18.3075313568   11.3549988685
  -0.6567189754   13.0549826281    3.3267718077
  14.3074739050    6.4843330833    6.4704726547
   7.5185329923    8.5441776243   10.1517920786
  13.5504230425    9.5570775539    2.3223583940
  12.1727179030    5.9113838252    1.3788101676
   2.8566125146   14.1544987481    5.5503963203
  12.5780115320    7.9491000638    5.4776495749
  16.2389582025    7.2631519655    3.3399746290
   8.6372708861   17.9607149039   13.7199591071
   9.0725671728   13.2223780338   17.9486736466
  15.0149541434    7.9834544835   14.6175332624
  16.0392494755    7.9795288692   13.4613193648
  15.9770625766    6.5260678649    2.0095386297
  14.9955602812    2.9425310251   11.0569448797
   8.6966197562   12.0877317075   19.0066940726
  14.9313994446    4.4839453195   11.2149925626
   9.6035118667   18.6516364586   14.8085100770
  14.3838004572    5.3299912199    9.9656264361
  15.9659652910    9.4158442725   12.6004496371
  11.5247251891    0.4657152250    6.7956841966
   2.6071724009    9.9899915843   16.1367151460
  -0.6635563414   10.1819468022    0.1215736987
   0.9783779413   13.1716132252   15.3767443000
  16.0091210578   12.1043113476    0.4719244110
   4.9326069430   10.5618459903    7.4539879212
   5.1484167532   10.2971556075    4.5005212435
   9.4111135347   16.9338303917    5.7935886794
   8.2506878133   17.8483436764    6.0946098188
   1.4419659497   12.0112415172   16.2499440930
   2.3276029998    0.5622665047   12.7341591415
   1.1300726205    1.1233031310   12.0718209132
   0.7441373859   17.8645251398   12.3443552950
   0.6541620526    1.5153922827    9.6889264537
   9.7804849400   10.6861068516    1.8207447367
   2.6154090284   10.0282235980    7.7009089031
   6.0693144921    9.8823228324    6.7256475664
  13.3830730012    1.1044290928   14.6087715531
  -0.2718216046    8.3432748688   18.4307308812
  16.8135995196    4.7714104697    0.6225939995
  -1.5797283073   13.2842739999   15.2426160269
  -0.2811522850   10.6371387755   19.1529893660
   9.5727033382   16.9619289135    3.4650893430
   8.6310816737    6.3818888432   13.2157437228
   6.4059777095    1.5566845318   17.1249142092
   8.5214874068    5.4986199374   19.0134226024
   8.8561200830    4.0331540435   12.4669965627
   7.4242795518    1.3205743780   19.0741739363
   8.7578072737    3.3784430091    0.9942826049
   5.5888886730    2.7029605361   18.8611576410
   6.3781456637    5.1980643521   19.2085277599
   7.9490294785    2.2526886316   13.4982320383
  11.6823149053    4.1049775757   12.6771055470
   9.7297304526    1.9734804773   12.1853656039
  12.1039240567    4.1475204902   14.9185700568
   4.2574066606    7.3874299249   16.3906158046
   5.2096979921    5.3562891933   16.1125300092
  10.5306362378    5.3484700044   14.1392951880
   5.1138125514    6.7088048255   14.4201131150
   2.7223156524    3.9689068550   13.3905722568
   8.3504298006   19.5194005557   18.0956355509
   2.7115835897    6.0471671424   13.6271260974
  11.0701997363    7.7801728571    9.9926744262
   1.1483935990    5.3806915139    9.7130726253
   7.1835074791    9.1981803463   14.4696808056
   7.9784199777    9.2714835659   16.5321882755
   0.9391272018    4.8156857352   14.2096943035
   9.9540623693    8.2968995901    8.2419054010
  10.6004267153   19.2660722290    0.4018197876
  13.9768834330    3.0184883755   17.9570523909
  10.4260477305   19.6179074246   17.6867016745
   3.0366003937    4.9116541319   10.4484686862
   9.3993823405    6.4441822994    9.3095958778
   6.8002158793    9.1003716362   11.1616415389
  14.1805223740    2.0309618848    0.6407752439
  12.3734191723    4.3387647250   18.7693904601
   5.8380913325    9.5808416181   16.1966729225
   2.3309807508    6.9813937349   10.7227049413
   6.8055405800    7.5811438191    9.5395139124
  15.3486992716    9.0200082155   15.4328271274
   7.5647609790    9.5798582716    9.1365156784
  13.7671610630    2.4706852495   10.8358840535
  13.7403652495    8.1827627326   14.1932323627
  14.8830549798    4.7170028894    8.8713815225
  15.7169807100    2.5652976803    9.9729804178
  14.6379361895    6.6164363757    9.9510937604
  15.0197641126    6.8386022243   15.3070062774
  -1.5306759668    9.1262385062   11.3952845691
  15.3953546483    2.3975797351   12.2679135860
  -1.2035397713   10.3037172900   13.1374307908
  12.9551524359    5.2306001004   10.0475622444
  14.6969294479    9.9371993141   12.5313342510
   0.8263577639    1.0995389079   18.7338806432
  13.1551252040   12.8426588674   16.1786106573
   1.7571148908    2.1251637698    4.5242643055
   5.5893933842    6.0063992824    2.3241645234
   6.1131079060   16.5893488714    8.2675620883
   9.6414936089   11.5069450598    7.2927951996
   6.0603727157    6.4910417081    0.6006235605
   4.5171158327    2.8960744721   15.6319246211
  16.3950335522    4.2249597647    5.5344758308
   0.4407464409    1.6424776913    1.2936591552
   0.7995800283   15.9752172521   18.6434929014
  -2.1152647895   19.3595791344    1.1028237952
   6.7065705904   14.8831853978    7.0294745603
  -0.3719018193    2.8968574710   17.4891931537
   0.8495452153    0.5373240948    2.7486186575
  11.3345102432   12.2665606307   12.5795847592
  -0.5118291254   19.8679193234   16.7835818538
   7.3277611265   13.9345767336    5.6098828405
  12.9265981750   15.5076699138   14.6257022586
   5.3638110064   10.5065272773    0.5874327661
  13.1842977317   11.9711670531   12.0830138306
   3.3763677965    4.9070892600   18.3649623687
   2.2777778058    6.2744734702   18.6175681699
  11.0071990469   10.1619604069   17.6912195057
  11.7309504458   10.6711213282    7.4953654932
   1.2011846839    2.1007026644    6.2477658062
  17.0432488076    2.9333821545    6.5027346309
  10.5766744949   13.8733849590    6.5543639214
   2.7317628847    2.9078803633   15.4048931499
   5.5269554599   19.6607151820    9.7180221977
  11.7972087216   14.9291127478   15.9263142644
  12.4194773286   10.8800251123   14.0722982936
   2.2049345392   15.0784217623   18.8523797881
   2.3569259146   16.5592775071   17.8909526755
  11.0191803239   15.7908354507   14.6883147947
   7.0042450612   18.1340126021    8.6247496420
   0.6732554568    4.2199161542   16.9307194217
   3.2233811703   16.9730789444    2.2197185584
  -0.6684879206    7.2167120979    7.0099175646
  13.2548014790   11.0980306019   16.7187933931
   2.1856254203    3.4880658342    5.7304159810
   7.2046362822   16.4915993185    9.4755638199
   8.9779065289   11.1273304798    5.6735221536
   3.7490025502   10.3207352798    1.2920253435
   6.6523195243   12.9962802712    6.8731323791
   3.0422064278   10.1465436726   19.1404297242
   4.0746450037    6.4550795246   18.2528057837
  12.4721105327   13.6449499675   12.2448730995
   2.5435442331    1.7168987357   19.0549388774
   3.8126808013    1.5739521983   14.6476632581
  -0.4475228589    4.3333843535   18.3541774250
   1.5178791370    1.9983424924   16.3046210755
  17.1479955987    1.3740429628    3.9351947408
  16.4362939960    2.7120357538    2.9806975614
  11.5193836580    9.7558255407   16.1213906681
   3.6941399213    7.3807075961    2.3910998709
   3.4316052427    7.4849854712    0.6553807375
   0.4794651562    7.7770938866    5.7960099373
   0.8373972423    4.2326326850    7.4911939086
   1.6842633731   16.7960864819    1.5940856423
  13.0377522110   11.2904937388    6.3323781844
   4.2798646572   19.5715471050   11.6915880390
  12.2494431032   12.4238405678    7.3530210860
   9.8552283477   10.3853935553   16.3795413581
   9.5706654181   13.8387679019    5.0990106382
  14.2345860771   11.2968084992   14.5918415951
   4.3304593812   18.7627986522    8.6381385268
   7.2749181921   14.7284340577    3.4575716458
  -0.7749867965    5.0010751925    7.6909591436
   0.9487261063    7.6423299430    7.4835265966
   6.6001548159   15.4918339008    1.0246056983
   6.3376284964    2.2530303636   10.8200494503
   1.3991760530   14.6128345651    1.3878524892
  13.4335791425   17.6083892966   17.4024907548
  14.3185519029   16.5026842405   16.5031101642
   4.6732934042   15.2170260566   18.2975169607
  14.9502620674   15.4992925261   12.5970472530
   8.7695435069   13.8109875255    3.2625477348
   4.5774744781    2.4403622569   10.4726879494
   3.2022042699   18.3225570979   11.0500793055
   5.5014920451   11.9622526328   17.2140525505
  -1.5792987522   14.4752825856   12.1343062057
  14.1567094575    1.1444553207    3.1842474649
  14.9299344337    1.9694417681    4.5382441393
   5.0469688152   16.9920468437    3.8765295716
   6.8394544017    0.4546324826    7.0021045676
   7.2671861829    0.4822821416    1.3418035597
   1.5962315602   15.0986990812    3.1037944965
   6.0929902377    1.5433063523    3.9500984958
   2.9073696846    1.3147775649    1.7256419089
  -1.9676075780   17.9294425699   11.5741846926
   1.9253272353   12.5334302834    3.1642862668
   2.0960028528   12.1917371984    1.5852515452
   7.1579006307   12.9574649930    3.6120555811
  12.6165476559   14.6242211350   17.7379098923
   4.9082481175    1.6499379989   11.8912616593
  13.5980479183   15.5834667011   18.7699879180
   6.6063078061   13.4381715841   16.7634672960
  12.0685613408   14.6158749979    7.8056316720
  13.5806440124   16.5630520760   10.9675407851
   5.5827925926   14.1307535462    1.6234745147
   2.8220847896   15.8742574336   11.6517439410
   5.9026171996   18.4291414563    4.4156254343
   4.0545554108   14.5870487340   11.8244434310
  13.3722018344   15.2578436429    8.8907434902
   3.9549840868    2.8016465298    2.2155006637
  -1.4400329432   16.1893599259   13.0063858480
   6.4009743885   15.1217331684   18.4921837590
   3.5592987565   11.9688437391    2.7890842463
   6.7930859707    0.7955362098    5.2250871404
   5.3435690451    0.5898674352    6.1787032448
   4.6813089732   13.5900001847   16.7590724359
   7.2859023897    3.9684724720   17.1217449868
  11.8557203102   18.9440437753   12.5926020238
   3.5457988610   14.7842410654   15.4770966261
   4.8532298937   14.7426921042   14.2885754043
   9.8148396449   14.3581458572    9.1579937839
   4.4590457605   16.1411132105   12.2360275866
   6.3099109909   17.5903087524    2.8564207423
   8.1338055067    0.8606759937    2.8278385660
  -1.7086254439   17.6974711156    9.9573491142
  14.2315424565   18.0888389956    4.2889007582
   6.4884285602    2.4364397109    2.5674640636
  12.8791221718   18.2543654276    3.1848108654
  12.6492122752   17.5625697113    4.8620189129
   3.5225255310    1.5808959362    3.4404596057
  11.6873820712   16.1233123104    8.6583896489
  13.8237233418   17.8250317702    9.6776433083
   9.5102622570   14.2525515105   12.1227863814
   1.4518101510   18.5520992939    9.1928445290
   2.8041062236   12.2830803342   11.2032964274
  11.9644043403   12.4523629457    3.5100519483
  13.5950861429   12.4058236111    3.2585931349
  11.4080394043   18.4423347254   10.9842607306
  12.0295722682   16.9731968596    0.5727242796
  12.1283471031   15.2184423996    1.1418394226
   1.4637310609   13.3875383508   11.5302083981
  12.0305383733   17.2596542563   12.1546684255
   1.1657832996   11.8611311248   10.4804262840
  12.8076216782   13.6537131783    2.4979944236
   4.1323910950    2.8951533711    6.0548223150
  10.0423944991   15.8823041788   10.0562782955
  -1.6803272573   13.6630158563    7.6845835363
  10.0549961553   11.0646403248    9.7315405126
   4.8964271484    3.1588306514    7.7155857894
  13.6329427419   16.2890867987    0.6060073533
   5.8960544272    4.9489658988    5.5801936315
   6.0034316348    5.0855182273    7.3299120369
  14.7821774421   11.7615917503    7.5861040349
   4.8306207324   19.5524940632   13.3702517495
   0.6161996446   19.5822808046    8.0486985925
   1.8710622560   18.4151760789    7.4382813145
   8.4198265120   14.3455026785   10.7851525834
   4.5719080964   16.8759404821   16.0154265127
   2.9257740468   16.9633382884   15.2151078994
  -0.2349050513   12.8474438011    8.0557377792
  -0.5973061522   11.0621356698    7.5625699557
  10.6788073984    2.0168808371   14.3301991387
  14.0634053313   15.4551683865    3.5410123638
   5.6925847361   19.1384907973   15.1259525993
   9.0576694652   12.4665028739    9.2245637237
  15.3122279155   11.0721080006    5.7361193860
   3.8613243766   19.3787063176   14.8544776560
  -0.8724631598   18.8073920714    6.2921370833
  -2.0373370572   17.4061882669    6.1257804413
   8.4198035201   11.2923340477   10.2348245225
   3.6967922720   12.5358763518    9.0190849202
  -0.7886241481   14.1408791768    9.2216712397
  14.1099726846   15.5180024364    5.1468987424
   4.0611363608   13.9130230468    9.8109719547
   0.9533824302   17.1864300686    6.1190579412
  10.8193166563    2.3359940295   18.9723524038
  14.6968749230   10.8446204212    9.0539826433
  -0.0695913109   16.0201200216    6.7357194937
  14.9403477959    9.2800747725    5.2146384740
   3.4117555711    5.7577593710    4.7467009801
   7.7110353211    8.5739132596    4.7326322789
   4.9189555822    6.7166650498    5.0377728755
  -1.1297062250    9.8476074076    8.8424885225
  15.4701792370   13.5115779982    5.5615664866
   1.1468686457    7.3411358697    3.6262615368
  -1.3536737931   10.1163616676    4.9165268439
  -0.0518527034   18.2446471635    2.6508284852
   1.2558982095   17.8003327620    3.7034321647
   3.1820832812   15.2784568788    7.6281163601
   0.8112325344    7.7963049201    2.0243551319
  -1.7505084615   14.9182881666    4.5378104486
   4.5768981248   14.0907079997    7.3940326221
  11.4998943371    5.6545625921    4.1815746141
   7.1833258337    7.0471514754   17.1854069459
   3.5147997390    7.3157738577    5.7244926329
   0.8794661435    9.0839097478    3.1904510656
   7.0098772764    7.3415768828    3.4974341250
   7.9104552065   16.2043102637   17.4769175491
  10.8861402793    4.3789444581    3.0996590344
   7.2839045172    6.9340518484    5.2233901515
   0.6957417785    4.2103921474   11.7891759299
   7.9757590621   18.0354773492   11.1527131091
  11.2787857735    8.9846513392    4.3813137287
   8.5970743743   15.4204666145   16.3274613362
  13.6021935786    6.1214083896    7.2850606413
  12.2600685081    7.6831862533    3.3691069237
   9.1756842585   19.4596297815   11.3248019778
   0.3870389569   19.2909754760    4.0182114476
  13.8728579119   10.5652066828    2.0745051720
  13.1783452144    6.0781461285    1.8878477872
   8.5812774899    5.3799801885    2.9524137807
  -0.2303476566   12.2720287236    4.0988359131
  12.5985384095    9.6937779278    1.8540073344
  12.1435338281    4.8347393822    0.9770015686
   9.6464847202   15.8009036970   17.6723459757
   9.0772303670    5.0392272316    4.6321154989
   9.7049108238   17.8797944812   10.5649183902
   2.6363401883   15.1873566733    5.4743110481
  -0.0664412244   14.0012223027    3.5382265598
   9.3594638799    9.3397244229   10.8674188367
  14.9698573727    7.3510804875    6.6516218533
  -0.5071910578   12.8330011533    2.3114894187
  15.2642353916    7.7143884997    3.8129199669
   3.9180543338   14.1075707955    5.1274147530
  14.8032785884    5.6296279976    6.1285713465
   8.0151884369   18.8287405858   13.3957579051
  16.6293195899    6.4755989175    3.9820315080
  11.6382021249    7.6567694132    5.9162834313
  14.0146300613    8.6186435287    1.8290439283
   2.0578675179   13.7214503345    4.7869648132
  12.9641177052    8.7731898355    6.1977667083
  12.0378125604    6.4697377156    0.3977749221
   8.8899207323   12.7492350072   16.9286957710
  -0.9928869338    7.7573578833   14.0584706358
   9.1364210920   11.1170875982   18.6133039214
   8.1955015263   17.1157893321   14.1639727707
  10.1548127341   13.3602430703   18.1591997524
  14.8330856154    6.3393956013    1.9620376957
  10.6241120791   18.2109550875   14.7852627214
  16.0697442678    7.1198014876    1.0539776431
   7.5873398687   12.0309253449   19.1634644862
   1.9311119453    9.5777479158   16.7654451248
   0.8481252147   14.0548279575   16.1409159647
  10.3514600931   17.4352261561    5.5858650330
  11.0363751596    0.8587029478    5.9178981163
   5.2195820444   10.6352339559    8.5462385008
   4.5339981235   11.1485918042    4.5958148597
  11.2106167701    1.1255006484    7.5734377021
  -1.0980192214    9.5892991736    0.9424863912
  15.6011706926   10.8154396954   18.6995559754
  14.4545832799    4.7045203138   12.1356229712
  16.0643336432   13.1466472570    0.7750427690
  14.6485553021   12.8739228846   18.9439008876
  -2.0144094868   19.7996245368   11.7963640996
   3.0580721716    1.3627524285   12.7758453073
   0.1549945324   17.5087983976   13.1869736292
  -0.1888874298    0.7929840823    9.8040428993
   9.2931688680   18.4770805409   15.8559716045
   4.7782272651   11.5741275467    7.0265208040
  15.6722552444   12.8626791169   14.5116707273
   9.2013559730   17.9367254048    3.6226376419
   2.5867519873    9.8856667510    8.7765638584
   2.8205913602    9.1913748767   15.4775604960
   7.8847465280   18.4469339145    5.1931131822
   0.9024847332    7.3830688888    0.1040426014
   1.7667211259   13.4396112144   14.6740676826
  10.1764016025   11.0407100918    2.7380516597
   2.5613245137   11.1481906016    7.5998277445
  11.7737206530   19.9726633137   14.0864511581
   5.5002641171   10.0684901355    3.4121996920
   1.9980618993   12.2598135871   17.1790117300
   1.7813858139   17.8248768942   12.7074887144
   1.3506838798    1.2382603210    8.7882352480
   9.5648700492   16.0946079985    6.4588339309
  -1.6683237908   12.7950282518   16.2997292901
  16.0558022675    3.9760496869    0.4342012076
   3.4956022482   10.4663824315   16.7504774698
  15.3428653152   11.5909785095    1.1660589392
  12.5616070825    0.4623765516    6.5590225914
   4.6159702341    9.4850931585    5.0327281821
  10.2016445384    9.7333060534    1.7136099966
  15.8244629260    6.1746263281   19.2027366187
   7.0070066944    9.9380992959    7.2008216526
  13.2888805582    2.1155183924   14.2260128195
   0.1740343071    7.6454945845   17.7415258570
  10.6538608374   16.9814270007    3.5722728075
  -1.3803468240    8.0439058107   18.4073059477
  -0.0995515891   19.5295901187   13.7116456128
   0.5886654069    1.8835896305   12.7469154324
   0.7733343962   17.1629326356   11.4485150789
   0.2725346993    2.4659745415    9.5200257729
   1.4128951087    9.7397510063    0.6508843880
  -0.4416098614    3.8724806288    0.6023836586
   0.0446704681   11.6369577395   18.8106119259
   0.5612871710   11.5609424705   16.5906604836
  13.5714823456    1.3080537908   15.7962413637
   9.1955385850   16.5334739392    2.5202714320
   1.8752313317    9.3722145399    7.2328252241
   7.3815754383   17.3366558847    6.4724919569
   5.7330565096    8.7813981808    6.7023996090
   8.7259447496   10.6271972366    1.8627752824
  -1.5919946175   14.3903352239   15.3947661780
   5.0963067937    8.7061862157    1.3516294568
   8.6193508112   13.9507064961    7.1047762166
  12.8218361065   12.7713482194   13.9656516832
   3.4237048765    1.7245502548   16.8477096244
   1.3335555872    3.1444106537   18.6811449362
   0.6214358608    5.9034871126    6.2557288610
   4.5863371242    4.9930246697    0.8163344394
   0.2282314454    3.3889275062    4.9442389435
  11.0159951619   11.4806707677    5.8467711537
   5.4559228497   17.4853191956   10.0161247244
  16.6155374917    0.8267249970    1.9873838923
  11.4043671672   11.8125376260   16.3467965614
   3.3580747566   16.1516841503    0.4692182358
  12.1438451774   16.8529984423   16.0780888320
   5.4104243422    0.6040596049   10.0494952591
   3.1181576519   13.9400838633    2.3789208156
   7.5850434631   13.6047056932    1.5499442764
  12.8827620302   19.5825126085    4.7160614774
   5.5459717334   13.3062186383   18.6208373581
  -1.9854893351   15.9248080239   10.9450565161
   4.4955608335   18.6406211693    2.9234435416
   4.8943693693    0.9435728163    2.1937181654
  11.5264774446   16.0268142749   18.6592828507
   6.3274735830    2.4588191221    6.2690978645
  13.4937822896   18.5847827287   11.4594751624
  11.7884111514   14.6572240022   10.0120110309
   3.0416837146   15.1987974596   13.5719105824
   4.7836493532   17.5168573242   14.1051179090
   9.4935235275    3.1791402378   15.4957416238
   8.9906568336    3.1374105772   17.9123839945
  -0.0152669972   17.6337400057    7.9467606650
   9.7324422078   12.6607386658   11.1018512882
  12.9609832360   13.9477652871    4.5986883690
   1.9972687163   13.4969561222    9.5705423724
  -1.9519399776   12.3951553638    9.1651976100
  16.0700853260    9.4752960729    6.9567258453
  11.1554170880    2.4246514817   17.0133699692
   4.1037798718    5.5064282218    6.5585339391
  -0.8372448191   17.6878415262    4.4830517142
   9.1038836643    7.0982283464    3.9690863271
   7.6959264207    6.4872881815   15.2740068241
  15.9352772143   13.2808818570    3.4208185971
   2.5303330366   13.5453253035    6.6995951988
   9.0606102342    7.4251217105   11.5793392708
  13.3919951562    6.7850740663    5.4209240954
  -0.7723870701    8.2324837023    3.1682472087
   0.1312285179    6.1654126685   12.1386406508
   8.2444140844   14.3478246478   18.1962212614
  11.0716401313    6.2107982320    2.0875370570
  13.3969826182    9.4555206500    3.7095393997
   9.4023621310   17.6599933545   12.5477534309
  16.3133072604    4.8731760197   11.2911553965
  15.8158299707    6.9072111864   12.5998086236
  16.9351864173    5.4913564289    1.9004616330
   2.0481339635   11.0402188383   15.3797265468
   9.6969293765   20.0305937989   14.5342846490
   6.3204908138   10.3465591808    5.3408072676
   8.5204531814   18.7284152550    7.2226687561
  10.3456163983   11.6376653070    0.8648874888
   0.0555300882    9.7183366319   18.1408749245
   0.2938068440   19.0552522604   11.7641979459
   1.5959955977    1.5664676205   10.7972550957
  -0.6503419685   11.6385313602    0.5228766676
   9.0713256616   16.1796732706    4.5473211303
  -0.2572801296   12.9536632978   14.7200599825
   3.8887955408    9.6154398661    7.2574960091
