B2 C140 Ca1 F48 H298 O66 
1.0
1.8078337000543410e+01 -9.7224253896235254e-17 -1.9749263015378013e-16 
-2.2769390636835873e+00 1.9574781795859796e+01 1.5231581300570935e-17 
-8.6260440552638318e-01 1.0224466917460963e-01 1.9463301267761967e+01 
B C Ca F H O 
2 140 1 48 298 66 
Cartesian
  10.1157576137    2.3350071379   16.9202015925
  -1.1495847157    5.7339822626   12.0003632304
   0.0895203529    0.6885286497    1.5237954686
   7.5311027691   13.8792478901    6.6552932154
   5.4174377787    6.3812288078    1.3385420714
  12.8707404505   12.6653918040   12.5200504707
   3.8868076576    1.6357408272   16.0970931863
   1.7602045975    0.8358880761   18.8731550489
   1.5333407207    2.5271778161    5.3163034452
   2.4094865312    0.4711194556   17.4794807009
  -0.5554234555    3.1751397305    6.2870673107
   3.5396606261    5.3481857129   19.0024994629
   2.0616828344   15.3168985304   18.5341800143
   0.4223046572    2.7665304845   18.3235403937
  12.0972002865   15.1769929772   15.4684527541
   4.3909136944    9.9252587646    0.7495875811
   6.1772578210   16.6459793785    8.8805942505
  13.2323419410   11.7581946569   16.0372490785
   9.4652966940   11.6309949164    6.3006866959
   9.7844351741   13.2143525915    6.0382462943
  13.2680268282   11.4520376460   14.5231901334
   4.4530374932    7.6437446593    1.6236106276
  11.2496742810   10.6688366627   16.7024439694
  11.6203126176   11.0040956384    6.9518885411
  -0.0237636957    4.4508463128    6.9298410989
   0.0621832085    6.7414302771    6.7804869801
   5.0223615173   18.6747135793    9.5494290363
   2.5769951254   16.1427151933    1.3496931812
  16.4706572509    1.3996015115    2.9646089188
   3.8101813339   18.9804426315   10.3945651647
   2.2066947806   14.8625122597    1.9447581877
  13.3935884323   16.2206678943   17.2024580865
   5.2701456233    1.4361818013   11.1526515245
   7.9793998280   13.1062769258    3.0698128241
  15.1582874843    0.9540663738    3.7379303118
   6.7409308835   14.2009245745    1.3496738082
   5.5517201973   14.2562159937   19.3234843652
  -1.7604569398   15.1435886353   12.2970301785
   3.3075681919   12.6516391779    2.7381814780
  13.0311625553   15.3691421664   18.4283593680
   5.7316169215   12.4788144726   17.6973300554
   5.5699298062   17.7381185803    4.0002298521
   7.1455699538    0.1466138043    2.5738834982
   6.1241551071    1.2367465038    2.8563698038
   3.9903838724    2.1174559777    2.2763974187
  -1.9862035789   17.1675616393   11.0378211879
   5.9124464101    0.7929369980    6.4933320867
  12.7065835439   14.8228898732    8.8169674119
  14.5945966824   17.1421263145   10.7561471231
   3.4547762486   15.2625522356   12.2695453755
  13.0029330638   18.1855496613    4.1883184193
   7.0081596082    2.0504020490   18.1659236386
   7.9269160890    4.1211910943   19.1833262758
   8.0653603408    3.1848792244   17.9580312418
   4.2347078523   14.9373773343   14.5373688933
  12.5453238703   17.8018741905   11.9848841689
  10.5589484084   14.5161014383    9.9680345461
   9.3162932344    2.2945585019   13.2494569394
  12.9526912164   16.3566944491    0.7293420455
  13.3646897956   12.7655664246    3.7278013739
  10.0099032123   13.8270680792   11.1989654165
   5.0546944045    3.0020550199    6.4728609606
   1.9046633411   12.4445348049   11.0204902205
   4.8319079727   16.2475335559   15.1991225942
   1.2561339577   18.4211291532    8.2351914769
  10.3811444098    2.4396414285   14.3821086578
  11.4154577806    3.5569244190   14.1204396705
   5.2298686600    4.6126143386    6.3449575097
   5.2753812261   18.3958588508   14.1055257124
   9.6487279433   11.7927612662   10.0765040129
  -1.2010468237   13.2934579209    8.1560198486
  15.7680361523   11.2700823123    8.3768820617
   0.3336667862   17.1409682838    6.6565972853
  -1.3340165818   10.2192828519    7.7849267337
   5.4219190894    6.3792618181   15.4953486638
  14.5792102268   14.7666857324    4.3001421413
  -0.6950584031   17.8039259339    5.7739931347
   3.6636268411   12.6759096746    9.2243587728
  16.4982925453   10.2390751751    5.4398945943
   3.6759868756    6.3800530357    5.5120549407
  11.7090774006    1.6193037460   18.4500238457
   1.9955736364    4.6027169880   13.2162825571
   9.7185555107   19.5589249194   18.6042391756
  15.9976469788   14.3309857936    4.5425116426
   6.8125159171    6.8543694909   16.0178542142
   3.6703438437   13.6015345244    7.9821031836
   8.1666661381    7.4821603879    4.6653760362
   0.4145123607   18.1342216449    3.9116445427
   7.1278678821    8.3447537339   15.7597884358
  10.1515809064    7.4331079584    9.6827158356
   0.9855564996    7.5373381826    2.7698846129
  12.9644458609    2.5001820103   18.7599011801
   1.9389786412    5.3055343276   10.6891353632
   1.1700853657    5.0211231456   11.9902386912
  10.7366293500    5.2490870953    3.2493433246
   9.3751885480    5.7777949319    3.8079657668
   8.7597299569   15.0204734641   17.3706076791
   9.1486889237    7.9399171084   10.8007744317
  12.5513225648    8.3899256067    4.1328652415
   8.8149486607   18.6538677211   11.9078122053
  -0.3478171430   12.8875292284    3.7225685631
  14.1501661906    5.8410335592    6.6419964482
   7.7265809930    8.3820585041   10.4518826545
  13.5454679141    9.4649060146    2.1281264505
  12.3757343810    5.4014621126    1.5853811099
   2.6216120530   14.0555442958    5.9689655569
  12.9836769800    7.6922255960    5.5122911801
  16.6504833763    7.1089690882    3.1038866635
   8.9988141471   17.4989404017   13.9088238209
   9.2843571488   12.7969145892   18.3761949586
  15.2575938038    7.7543267342   14.4591609627
  16.3674558832    7.5813119480   13.3728183101
  16.2831359143    6.1285299723    1.9861460023
  15.0728889659    2.7188139924   11.2897175676
   8.6470047512   11.6002119486   19.2005459122
  15.2649071563    4.2635072929   11.3242971301
  10.0024628922   18.2343240838   14.7624103788
  14.7103143266    4.9358261307   10.0240709875
  -1.5566799622    8.9097136549   12.5296190340
  11.8236497132    0.1246285083    6.9700146236
   2.9233365412    9.6201900069   16.0022184931
  -0.5446868366   10.5099538273    0.1376846406
   1.1538564613   12.9109004834   15.6850089293
  16.0823946271   12.2750054809    0.3296042119
   4.8816761362   10.1398355457    7.2133279130
   5.5518982425    9.7623452368    4.1977045601
   9.8077857402   16.5467551816    5.7090444068
   8.6190492662   17.5724589269    6.1930710086
   1.8344548147   11.6410470852   16.2502690059
   2.3297422590    0.1088384045   12.4511008921
   1.1794064155    0.8480270615   11.8336960356
   1.2931549633   17.6549597285   12.5944463844
   0.4412436160    1.1630652609    9.4867964129
   9.7666712042   10.3282321813    1.7108528248
   2.4786494915    9.9878873845    7.0760637256
   6.2012037769    9.7268062642    6.5691776169
  13.5445504493    0.6209501608   14.9495586534
  -0.1344110515    7.9104317113   18.4599020658
  16.4618681053    4.2809252617    0.6576145202
  -1.1928737267   12.5320461771   15.6034334702
  -0.0499569885   10.1920006726   19.4121546246
   9.5813258408   16.5668265987    3.2155428604
   8.8967484246    5.9671618091   13.5709773827
   6.6744238501    1.6632594818   16.8973875888
   8.8688760657    5.0071393732   19.0867765376
   8.9441265321    3.5690115086   12.7201944741
   7.5674860830    1.0270881275   18.8392579847
   9.1321589793    3.2788150572    0.8356844089
   5.7946774649    2.3959807734   18.7690323143
   6.7722891608    4.8004141947   19.2946908327
   8.2154350941    1.6802685784   13.7662336144
  11.8272701580    3.3869700021   12.8129745963
   9.7765967607    1.6634747110   12.1007967496
  12.5373077632    3.4787380466   14.8738095832
   4.4078108112    7.0910769062   15.8762617518
   5.3684202903    5.0088260053   15.9325367481
  10.9692323273    4.8585220077   14.3176381755
   5.1672218934    6.2309543125   14.1414037487
   2.6856695261    3.5033930624   13.0929034076
   8.5441894728   18.8547266344   18.2588857696
   2.8779435044    5.5909618461   13.4191453319
  11.4592128451    7.5587097800    9.9914096574
   1.0479523143    4.9447849859    9.6972716355
   7.5158951328    8.6353209762   14.4130043565
   8.1522821277    8.7092792224   16.5122100509
   1.1278079199    4.2383024730   14.2772192909
   9.8895492728    8.2031963449    8.5447011887
  10.9423628682   19.1520813113    0.4037499260
  14.0749726614    2.1135826288   18.0766697089
  10.7274245608   19.2265277707   17.8017036698
   3.0252727744    4.5288551597   10.6331218301
   9.9834276587    6.0841740823    9.2024924044
   7.1329498899    8.8952083202   11.5628110981
  13.9663140096    2.3105063345    0.7034390012
  12.7226594021    3.7654400483   18.4313592162
   6.1254298126    9.2234235987   16.0228553884
   2.3587698059    6.6230512694   10.5736026204
   6.9106083344    7.2889352381   10.0137661044
  15.4092835077    8.7573620747   15.3835524222
   7.5955717768    9.2812776646    9.4976541710
  13.6864798031    2.5338588140   10.9927189631
  14.0741113897    7.7554558818   13.8620320101
  15.1262909438    4.4418277852    8.8132669847
  15.7636870340    2.0021825373   10.4402991550
  15.1460929277    6.2201389203    9.9820234259
  15.2332079493    6.5216553159   15.0263042819
  -0.8028406984    8.5284861583   11.5069092815
  15.2558892836    2.2709261116   12.6058492890
  -0.8043865423    9.8054104235   13.3122348247
  13.3770481202    4.8107608309    9.9744369961
  15.4286545063    9.5115747792   12.1032299607
   0.6535285684    0.3611167534   18.9299545316
  13.8438351683   12.6900968353   16.2275018110
   2.0355843706    2.2824940929    4.2902242517
   6.1304932181    6.3046405528    2.2290904443
   5.3951497650   16.5268864144    8.1263810470
   9.0545012598   11.5836419489    7.3320726808
   5.9380986714    6.6739731639    0.2900255864
   4.4065075519    2.6480854374   16.2658381788
  16.4615541550    3.3408997399    6.0155719314
   0.1299145366    1.7865410677    1.6544715409
   0.9431876621   15.4365082159   18.6190648286
   0.0470238612    0.5254476352    0.3988811216
   6.9674528984   13.7020572567    7.5291061909
  -0.0830776172    1.8878241559   17.7473127793
   1.0319876137    0.1374132676    1.8337040621
  11.7576523267   12.3956622613   12.4766703791
   0.2311956097   18.9917736933   17.3149862889
   7.3612169660   14.9464408336    6.2004385192
  12.9794257536   14.7420175449   14.8901913976
   5.0247079925   10.6780807234    0.3683291890
  13.4387090800   12.0557170941   11.7129545079
   3.0054837969    4.3444935775   18.8028073149
   2.6520899078    6.0298192759   18.7416152334
  11.7046040529   10.0045267316   17.4769726881
  11.7263052567   10.0046269478    7.3218545073
   1.6057510334    1.5931751891    5.8667684664
  -0.4788814025    2.3596246914    6.9846797731
  10.6910212419   13.6043736493    6.3018110819
   2.8761208965    1.9713788847   15.6405991956
   5.7235458706   19.4283398353    9.7441128793
  11.9784137004   14.2463541740   16.1212665694
  12.4614668357   10.7890143486   14.3085153737
   2.5330413378   14.2668341021   18.5517077747
   2.3684645043   15.8455892614   17.6505296334
  11.2669213494   15.2762583404   14.7471535532
   7.1232948944   17.0642749663    8.4381352789
   0.7588220571    3.5092573903   17.6560182416
   3.2109990433   16.7842559532    1.8813458916
  -0.9526576381    7.0055132960    6.8824299073
  13.5937317261   10.8446185175   16.5800639935
   2.1268390827    3.2629136328    5.8097604371
   6.4757735030   15.6144090399    9.2210934292
   8.5828697662   11.3203261681    5.7105603857
   3.8241017233   10.3228626030    1.6784587950
   7.2120177824   13.0238505037    6.0249778882
   2.8378861082    9.7434504073   19.3562335785
   4.3448981965    5.6477093683   18.4038445163
  13.0749825388   13.6975193860   12.2891772135
   3.2278981592    0.2951191375    0.2882145032
   4.4346084840    0.9485643960   15.4071174792
  -0.0587652936    3.1875272604   19.0758595419
   1.6606063946    0.8555463374   16.7643050371
  17.2598112832    1.5734641733    3.7083462385
  16.2025694121    2.3042976006    2.5217409823
  11.3615567883   10.3097262884   15.7690540379
   4.3172649658    7.8362282427    2.6838434068
   3.5226427044    7.4450440682    1.0963554323
   0.6786783688    7.5226965794    6.2252503774
   0.9044394830    4.3182072259    7.5018726500
   1.6540787288   16.7558463634    1.0010462314
  12.5272918314   11.2894072355    6.4582572751
   4.1274031757   18.9966329942   11.3939992014
  11.4854598069   11.5403895262    7.9143805363
  10.2586265136   10.9117487579   17.0149308205
   9.4484100700   13.5187658309    5.0204089129
  14.1723969668   10.8242169300   14.4942075060
   4.6636775098   18.8068562397    8.4919730963
   8.3394175155   14.0444599628    3.6681642224
  -0.7644052339    4.6325826928    7.6885896228
   0.6720081027    6.6751354026    7.6870466758
   6.8106177470   15.2549413088    1.7272532423
   6.2088453824    1.9720463961   11.3513482705
   1.5182734723   14.1765495995    1.5205360790
  13.6400028055   17.3380141259   17.3838647817
  14.3279903614   15.7103174776   16.7826399928
   4.5850079225   14.7226006803   19.0762993513
  15.2821739809   15.3884686752   12.6203368760
   8.7549194371   12.3587446805    3.1726045633
   4.5161037133    2.1960628034   10.9184652525
   3.0989334080   18.2184687055   10.1782180183
   6.0230183427   11.4230975528   17.6147102083
  -1.9498684873   14.0072845107   11.9565586224
  14.4303196733    0.7425232918    2.9941997930
  14.8712198954    1.7899176267    4.4803520140
   5.2197041379   16.7021773432    4.0249846642
   5.4248745115    0.5278838662    7.4165937228
   4.9896372489   19.4094028992    1.5304502612
   1.5408880357   15.1974081972    2.8431451380
   6.1043698139    1.3725139227    3.8812104217
   2.9046146416    1.9774731561    2.1228764489
  -1.6529340334   17.6793830133   12.0308683316
   2.7883355931   12.4928472365    3.7043963793
   2.8228381147   12.0072527589    1.9636213167
   7.0623657275   12.6177669611    3.2843377362
  12.8642640302   14.2801945071   18.1923799700
   5.2216619065    0.8377184492   12.0592971982
  13.9054612479   15.4572399857   19.1072020660
   6.4459401956   13.0719598398   17.1149751251
  12.3535449756   14.4222922423    7.7923198616
  14.2606542432   16.1893096640   11.1146385219
   5.9414196363   13.8921913930    1.9854575435
   2.6700191539   14.6851264488   11.6802942477
   5.8226407313   18.0219297156    5.0357790839
   4.4454047138   14.8027342228   12.0632038306
  13.7845378212   14.6390562712    8.9542155708
   4.2847740400    2.8979965571    1.5496427164
  -1.0224001407   15.1090551939   13.1600273978
   6.4584901208   14.5844639944   18.7012406082
   4.3100025959   12.2205221045    2.8467952234
   6.8475702193    0.1260112360    6.4001424657
   5.3094913922    0.4563312802    5.6534072350
   4.7267556445   12.5907792100   17.1075352662
   7.8989322245    3.7326409603   17.0254305185
  12.4720069231   18.5682791594   12.7242411841
   3.8928246203   14.1939921128   15.3031246113
   4.9731467816   14.4586544610   13.9129750321
  10.1034031181   14.2054145433    9.0205233200
   3.3801038537   16.3545488295   12.1635130047
   6.4647459129   17.8727149150    3.4023373297
   8.0737836357    0.5407964367    2.9987644351
  -1.2519192964   17.4188853009   10.2820614758
  13.5875327633   17.9051949929    3.3153250102
   6.4079682969    2.1204040921    2.3005256025
  11.9563536647   18.1654636863    3.9566256454
  13.0647670440   17.4498616484    4.9959301303
   4.0938636002    2.6423930972    3.2621143921
  12.5900801055   15.9317803142    8.9498218485
  14.4084927296   17.1164835879    9.7383597461
  10.5750987099   14.1714176473   12.1229814307
   1.2532866157   18.8320540877    9.2692371632
   2.2824896267   12.6223251977   12.1122412754
  12.6020770593   12.0501402292    3.9589407363
  14.3401399695   12.2128212873    3.7406934938
  11.7513666678   17.8483809480   11.2766229709
  12.0856976499   16.5774819811    1.3234776407
  13.7165284085   15.9388216403    1.4354764725
   0.8414525094   12.7491465030   10.8824902459
  12.5771380489   16.8144516804   12.5363331025
   2.0028242013   11.3365809086   10.8586899584
  13.0750101361   13.2254509506    2.8423416878
   4.1362096441    2.8943651543    5.8283788917
  10.4107381801   15.6520154300   10.0574401244
  15.9929658706   13.5867321980    7.5826634092
  10.0857224859   10.8450313408    9.9383884686
   4.6173640479    2.6511851198    7.4412623166
  13.4466919000   17.3334623217    0.3659767568
   5.7364091917    4.7986185663    5.4602188737
   5.9127607832    5.0030150273    7.1204051811
  15.2041631404   11.6078389980    7.5008326210
   5.5498791679   18.7809108069   13.1229213658
   1.3799940026   19.2947586160    7.4640137713
   2.2576185093   17.9893378861    8.1208750184
   8.9048141977   13.9003684687   11.2885014501
   5.5916375634   15.9372099990   16.0982626684
   4.0390543423   16.7096403998   15.8359067412
  -0.3017519447   13.1036917399    7.5382380951
  -0.3686537317   10.8298630602    7.5026035569
  11.0387933521    1.5262063690   14.3728908886
  14.4225823648   14.8790741171    3.1819656181
   5.9071844639   18.9648060397   14.8703438212
   9.7942104812   12.4336862752    9.1343548632
  15.9993246442   11.2346214440    5.2716306297
   4.2014913960   18.6763707395   14.3707403616
  -0.6017071277   18.9204481221    5.7506736310
  -1.6421925918   17.4957860801    6.3244228046
   8.5554125490   11.7343567741   10.1517282815
   3.3802046520   11.7565711782    8.8317443692
  -1.0111188412   14.1760933592    8.7320898025
  14.4823388025   15.6144455964    4.9920921798
   4.6518422089   12.7049917618    9.6695425414
   1.3095806615   17.3639300917    6.1924446577
  10.9051780944    1.8622674116   19.2075590768
  15.1988334542   10.9349060230    9.2508584511
   0.2053491546   16.0777369243    6.6206200023
  16.1771434848    9.5674157488    4.6191242334
   2.7879106660    6.2081662010    4.9202284907
   8.0506930047    8.5549263790    4.5875940709
   4.4971928810    6.4495432099    4.8697508090
  -0.9837632987    9.3121105850    8.3570741365
  16.1628605560   13.9187973048    5.5637752745
   1.3928338946    7.1370313411    3.6150582690
  -0.3981107963   10.3168039823    5.4236544998
   0.7557951084   17.7343435109    2.9505077686
   1.2717261433   18.4059694585    4.4718790605
   3.8391016660   14.5725723241    8.3950396615
   1.1423435147    6.7502318270    2.0179994556
  -1.4070642465   15.2700412703    4.3981683698
   4.5346300292   13.1782963972    7.2820548523
  11.7401626316    5.4103280019    3.8331696036
   6.7683318144    6.7411158543   17.1081164776
   3.4104821778    7.2200516340    6.1932186682
   1.4911359008    8.4369547872    2.5463559222
   7.3581428237    7.1514713699    3.9268092958
   8.5191774121   16.0143402593   17.7393079567
  10.5260703026    4.1414328409    3.1668316206
   8.0398332949    6.8759738797    5.5289704862
   0.6822249146    4.1526923001   11.8976038339
   7.7219175252   18.9557886040   12.1728868712
  11.7340441654    9.1730977843    4.4668719375
   8.1574242368   14.5713319636   16.6414823423
  13.3110424162    5.3694741851    7.0261506028
  12.0450991528    7.7248321704    3.4431364812
   9.3604916703   19.5564883814   12.1159764420
  -0.1926094392   19.0121794659    3.7459616829
  14.6311848762    9.4999169885    1.7910181029
  13.1053854427    5.7932432568    2.4082890056
   8.6458037069    5.7763465560    2.9130996430
  -0.1368573725   12.3683520637    4.7441293986
  13.0779897003   10.4929245989    2.2787634147
  12.4543753342    4.2454067436    1.7780114845
   9.7696682549   15.0350182531   17.0686065138
   9.0385317083    5.0496955442    4.5981369453
   8.8710502517   18.3178985882   10.8790662791
   2.2953751802   15.1963018938    6.0002457032
   0.3437768190   13.7555216163    3.6317336697
   9.7530040853    8.8331238997   11.0530440957
  14.3348145800    6.5996527271    7.4401943697
  -0.1587719335   12.1063290560    2.9516917709
  15.7146510329    7.7544158157    3.2432435452
   3.5875799817   13.9391778308    5.6152331601
  15.0560232333    5.1911621613    6.6969288226
   7.9575543702   17.6960263133   14.0545922184
  16.8424464833    6.5112852945    4.0833465480
  12.0090228900    7.4294865612    6.0214330737
  13.0090174298    8.7823742569    1.5098519444
   2.0049676805   13.3597629505    5.4300288585
  13.4562168284    8.5874129088    5.9112118710
  12.5225755671    5.7012988779    0.5211407285
   8.9684634815   12.6994657519   17.3576671830
  -0.7610412645    7.4674285191   13.8656439594
   8.5341954447   10.7932822630   18.3524526146
   8.9939031564   16.4137916490   14.2485290331
  10.3551446709   12.6871264787   18.4217960810
  15.2109591774    5.7714334943    2.2363877653
  10.9488645997   17.6269624858   14.7329108353
  16.3533199577    6.5831205118    1.0362231261
   8.5117676505   11.8115548806    0.1867613548
   2.1191609680    9.0753398363   16.4753330882
   0.8058573844   13.3895116857   16.6566756166
  10.8641068218   17.0864818646    5.7952467557
  11.2659421861    0.6136476912    6.2141038088
   5.0538184935   10.2069944389    8.2897375534
   5.6710477491   10.5013677531    3.3099287598
  11.7625359746    0.7286960899    7.9173006541
  -1.0818751082    9.5959934004    0.7721277329
  -1.9342871052   10.6540985408   18.6591311384
  14.7063228011    4.5577041290   12.2230053085
  15.8887408291   13.3006081349    0.6949810992
  15.2483843262   12.2451634613   18.7130455542
   0.1723870207    0.3380522384   11.7696324197
   3.1219464748    0.8748163509   12.6005749023
   0.7472085477   17.1508985020   13.4383588647
  -0.4565921866    0.6019592533    9.8990889858
   9.6786617101   18.2678534847   15.8459754933
   4.6029843106   11.1108204760    6.8610927250
  -2.0026630010   12.8054365099   14.8608564953
   8.6268045988   16.9778697689    2.8710712971
   2.2393267819   10.2130903338    8.1467404481
   3.6656364735    9.2209262415   15.3189500336
   8.3548260890   17.9624167876    5.1798783730
   0.6637286315    7.4531935000   18.9334905912
   1.8232907828   13.5782469825   15.0929975114
  10.6168668927   10.0176319141    2.3874284559
   2.5472347117   10.8614934871    6.4297429850
  11.8116602537   19.5847368347   15.7302389173
   5.8133401669    8.8011177833    3.7986276716
   2.5372895914   12.0044393828   16.9818477626
   2.1886311318   18.1415067163   13.0060899630
   0.9257986634    0.5688080981    8.7654015877
   9.8614107750   15.7695248652    6.4207853399
  -1.3358903851   11.5332651921   16.0559228895
  15.3720512483    4.5614185602    0.7129754070
   3.5299660177    9.9972320675   16.8162280533
  15.3178944384   11.5720333477    0.5721660066
  12.9230477802    0.1434058167    6.7163001360
   4.4448093833    9.6520252690    4.4306482934
   9.2156826687    9.4791286993    1.3811057230
  16.2042942810    4.5245093133   19.0984800221
   6.9082533342   10.3754955875    7.1680738095
  14.3069057908    1.1170388274   14.2892321798
  -0.2191699250    7.4926235760   17.3449832749
  10.3199534002   17.4727187087    3.2054117578
  -1.1109711623    7.6507208741   18.9513360683
  -0.3400227096   19.4404362083   13.5169038623
   1.0916630686    1.6463105782   12.6850183582
   1.3179749304   16.7998708545   11.9347167377
   0.0900721809    2.1098243366    9.0490943033
   1.1946787146    9.6218055534    0.8042096414
  16.6863216170    3.2140733998    0.8148174449
   0.5339666436   11.1627226040   19.1820749871
   1.0701384343   11.0464996287   16.8656706890
  13.0604728238    1.3815977217   15.6070778840
   9.8705977260   15.9203672047    2.3790713046
   1.6405627164    9.4813974128    6.5777495619
   7.7329469681   17.0422594063    6.5064225019
   6.2421169904    8.6084575553    6.7439919781
   9.1976070321   11.0725927025    2.2233104584
  -1.3402325937   13.3416575502   16.4502123218
   5.0980680715    8.8134568783    1.1274676518
   8.9491522552   13.9126896738    6.9668323083
  13.3864859715   12.6475759125   13.8590103310
   3.5690249519    1.2267308460   17.3766420998
   1.5444998773    2.1862595605   18.9285329713
   0.0766765835    5.4855833620    5.9962194452
   4.6847541699    5.2121776758    0.9580889920
   0.1464162315    2.8502339867    5.0190857737
  10.5858039684   10.8707964477    6.0278558668
   5.6034290440   17.4546924586    9.9599669617
  16.9277780930    0.3512152801    2.1502102060
  11.9015361815   11.9239509152   16.7290150645
   3.5367135391   15.9625111081    0.2739010697
  12.3642085392   16.2927142493   16.3297658953
   5.5267851845    0.5926640186   10.0309957220
   3.4193386412   14.0863971836    2.4623362794
   7.8284314094   13.3934299925    1.7038032630
  13.2414307297   19.4933273806    4.6155897118
   5.5904569729   12.8486424465   19.0285731034
  -1.4667184558   15.7540733462   11.0719835591
   4.5050542956   18.5530271964    3.4222806500
   4.7751733228    0.8962558138    2.3101967760
  11.7942940784   15.6691297390   19.0397801301
   6.1259888226    2.2011583441    6.0961715136
  13.8460741304   18.1445530431   11.4276730096
  11.9726324877   14.0945268158    9.8128441484
   3.0817025819   15.2296822293   13.6657582951
   5.3541415451   17.0058066035   14.1243765723
   9.7513666889    2.5871065672   15.5943065034
   9.3732425556    2.7945325918   17.9254844938
   0.1955634384   17.6428713573    7.9004856709
  10.2751073497   12.3734354191   11.1642916047
  13.5458389138   13.8191594121    4.7547738459
   2.6242249074   13.2356678412    9.9825151035
  -1.6724109725   12.3498096605    9.0875285442
  16.0286111133    9.6345593826    6.6308460289
  11.3455591678    1.8358389910   17.1264163104
   3.9623560249    5.2031019221    6.3294535212
  -0.4584088973   17.2659544800    4.4982755600
   9.4400391927    7.1462898724    4.2309258276
   7.6317053326    5.8992384565   15.4699718828
  16.3635817227   13.2666405356    3.6721437190
   2.5771562771   13.4542972908    7.3225085832
   9.0692994840    7.1768139309   11.8954227209
  13.8624299041    6.5168238647    5.3781834935
  -0.3442394908    7.9941418025    2.7737338160
   0.2122916459    6.0490683227   12.2704859837
   8.7199727601   14.1988494105   18.6871684953
  10.9833128610    5.7400126061    1.9280850939
  13.7028567811    8.9421105983    3.4706035246
   9.2154266040   17.4029529524   12.5031903826
  16.6503514357    4.5664492287   11.3632672324
  15.8968782748    6.5891216850   12.4719944636
  17.0752635650    5.0005133281    1.7257987304
   2.3545837833   10.7527807879   15.2009360769
  10.2616588473   19.5058143926   14.1869914346
   6.3789530009   10.2750643859    5.2723607136
   9.0213779588   18.4143512513    7.2095668904
  10.4232212880   11.0929751015    0.6882516284
   0.0720133448    9.2885294139   18.2301408933
   0.4874219864   18.5233573225   11.7864313452
   1.4426299524    1.5622509074   10.5859914005
  -0.6296401462   11.7437938200    0.7474845267
   9.5269328797   15.9215038751    4.5054339247
  -0.0370633810   12.7092330605   14.8395780360
   3.7102049889    9.2310279613    6.9695474715
