B2 C140 Ca1 F48 H298 O66 
1.0
1.7928350444090796e+01 -3.9538307808571814e-16 -8.1713053695423181e-17 
-2.2341375870693616e+00 1.9509668893697572e+01 2.3321481473548002e-17 
-7.4676665706167078e-01 3.3111550108328536e-01 1.9553455609000544e+01 
B C Ca F H O 
2 140 1 48 298 66 
Cartesian
  10.1293834106    2.6462456936   16.9086885301
  -1.0102377745    5.7918815846   12.0569559743
   0.1672811092    0.7430308511    1.5567483840
   7.5103854358   13.9900200691    6.7812707844
   5.2614707203    6.4108427168    1.2409216491
  12.6897428286   12.7090050609   12.6291635497
   3.9466277604    1.9997577384   16.0325429183
   1.8322032412    1.1158284055   18.8076450732
   1.5603232411    2.5660513289    5.2871109297
   2.3801009376    0.7654970655   17.5314066471
  -0.5257658863    3.3270692429    6.2602328152
   3.5843825626    5.5368944817   19.0088791971
   2.2187858108   15.5867466068   18.8519498506
   0.5319018092    2.9914571201   18.3655592587
  12.2087527239   15.2901849643   15.4998406389
   4.4067037443    9.8053288715    0.7689827034
   6.2751458642   16.7218231825    8.8721093619
  13.1673669104   11.7749899973   16.1703775262
   9.5425250804   11.7282744928    6.2872087816
   9.6290628311   13.1899732125    6.1510415645
  13.3083758206   11.4826596301   14.6888328884
   4.4670706342    7.5967064959    1.5963051010
  11.1916927352   10.6484947739   16.7992075715
  11.7510298462   11.0214199418    7.0330196809
  -0.0256125491    4.5431685290    7.0075735498
   0.1396938675    6.8495584476    6.7726244603
   5.1520280307   18.7249914154    9.5969135821
   2.6955080663   16.1463259650    1.4413393151
  16.3764400991    1.4543553148    3.1072096720
   3.9122834690   18.9093283535   10.5342658217
   2.1862734527   14.7588747755    2.1734105092
  13.4049042179   16.3044912094   17.3166152806
   5.3099131868    1.6383066439   11.0913219022
   7.9221600957   13.1153857515    2.9721414943
  15.1432819665    1.0247986516    3.8303130429
   6.5575011498   14.2295643502    1.3207390577
   5.7074084288   14.4152695895   19.3767255246
  -1.7382022913   15.1966919112   12.3186556080
   3.2121454765   12.6625154268    2.6859907167
  13.0364242362   15.4500060784   18.5113632765
   5.8613973437   12.6342368947   17.6363481060
   5.6338777910   17.8666618409    3.8574500238
   7.1083051071    0.2275997118    2.6229320584
   6.0005072088    1.2248901590    2.7510894162
   3.9779834437    2.0249573259    2.3800246562
  -1.9519769004   17.1181962844   11.0422859450
   5.8839632109    0.9327872418    6.4291099279
  12.6728220012   14.8811464663    8.9727405786
  14.4331303133   17.1637157953   10.6898174124
   3.5192750668   15.3738923748   12.3569043676
  12.9050286400   18.1542044243    4.2258168428
   7.0177210044    2.1635577854   18.2327050452
   7.9916770444    4.3077148621   19.3529280912
   7.9808129400    3.3703761654   18.1276746450
   4.3057761258   15.0781557523   14.6225135872
  12.5659693248   17.8973774627   12.0423065701
  10.4963121570   14.5253167698   10.0647118519
   9.3570378883    2.4673655862   13.2772091674
  12.8162622943   16.3055399234    0.6954406894
  13.2776387932   12.8278649849    3.6881731284
  10.0184615580   13.8440636011   11.3054156331
   4.9764392705    3.1262909495    6.5144631292
   2.0621676660   12.4713284246   10.9230635952
   4.7952387980   16.3232065054   15.2699094537
   1.4574405692   18.5631333645    8.3792637368
  10.4535421041    2.5618311279   14.4143920988
  11.4317398310    3.6435852262   14.1110312290
   5.3026273028    4.6078327123    6.4234140217
   5.2369936277   18.5324836443   14.1599594983
   9.6501012936   11.8031659074   10.0900607935
  -1.0633466522   13.3893156873    8.2140985825
  15.7555542885   11.2461043444    8.4829855248
   0.3363873778   17.1681593811    6.6121785390
  -1.2105246220   10.2195249243    7.8441301860
   5.4129994078    6.4441332259   15.6077613087
  14.4352845800   14.7523897296    4.3489409215
  -0.7513975199   17.8412407839    5.8257578058
   3.6978844425   12.8130368491    9.2679049693
  16.3655740892   10.2667980120    5.5104208579
   3.8135049074    6.3119116939    5.4950719125
  11.8411606926    1.8160944003   18.5110780181
   2.0372507316    4.7309324728   13.4157557951
  12.0642803821    0.3184809255   18.7085321238
  15.8690850048   14.2763299151    4.6523004046
   6.8099525685    7.0084667758   15.8945778432
   3.8874652884   13.6787380666    7.9575000223
   8.0461046890    7.4069982244    4.5829255592
   0.4729003109   18.1918100867    3.8856921405
   7.0870193461    8.4880805732   15.7446256639
  10.1436764784    7.3997528864    9.6603317944
   0.9381846643    7.6417935883    2.8275109389
  13.0270565649    2.6440294417   18.8476345301
   2.0487709024    5.4965115929   10.7801955375
   1.2121655338    5.1183389763   12.1082783454
  10.5858365672    5.3288565909    3.2535677467
   9.4096261172    5.8522982137    3.7470601274
   8.8879162032   15.1152283708   17.5688082388
   9.1677568479    7.9745512249   10.8292165267
  12.3999156110    8.3893228651    4.1254384224
   8.9308244555   18.6448576278   11.7379556867
  -0.3478136628   12.9924567873    3.5111274986
  14.1099343015    6.0728628458    6.6750933726
   7.6258218633    8.3651936597   10.4254085153
  13.4481749729    9.4514045950    2.2869258785
  12.2204662941    5.3977957210    1.7243323972
   2.7012040604   14.0214202409    5.9508182373
  12.8601357073    7.8463747417    5.4989225918
  16.5540474341    7.1177221198    3.2339481363
   8.9292974805   17.5253009454   13.9093817452
   9.2254018075   13.0082061219   18.3202097134
  15.1855569331    7.7921555446   14.5742420440
  16.2838218745    7.7198273254   13.3994792669
  16.1371360486    6.2411538264    2.0250869455
  14.9629317508    2.8706648422   11.3271144570
   8.7175895487   11.8258983132   19.2293586652
  15.1753574121    4.3883860441   11.2854353367
   9.9526272510   18.3507887163   14.7411480891
  14.6636666012    5.0275346580   10.0490790436
  -1.4602747895    9.0791762656   12.6664967216
  11.7241660101    0.3197464015    6.9369335936
   2.9931766737    9.6788892953   16.0320269043
  -0.5055968798   10.3436484989    0.1524051306
   1.2306274171   13.0102651384   15.7648252321
  16.0080450131   12.1691198558    0.3752473952
   4.8754619316   10.1785502303    7.2880863843
   5.4710560007    9.9162791177    4.2687889428
   9.6676399869   16.5866140240    5.8045835229
   8.6669651268   17.5656615213    6.2532364256
   1.8941091224   11.7562771062   16.3854494359
   2.4469416153    0.2763738615   12.4959541920
   1.2353709395    1.0246875677   11.9167578083
   1.3186976725   17.6499573086   12.6080752112
   0.5516470768    1.3077367989    9.6016618660
   9.8692139383   10.4102738984    1.7384395615
   2.5394705453   10.0138711188    7.2362312431
   6.2013453383    9.8394211628    6.6034301814
  13.5633730062    0.8215225542   15.0337104488
   0.0123044608    8.0761399800   18.5135132650
  16.4178361902    4.4039572273    0.6372420221
  -1.0883665895   12.8814439522   15.6050879679
   0.1603698738   10.2528595556   19.4796569735
   9.6356933578   16.6877266276    3.2811145367
   8.7887207324    6.1098278076   13.6146003123
   6.6630371374    1.7203297845   17.0312630533
   8.9448068501    5.3550312124   19.1405426282
   8.9542475207    3.7158606340   12.7525389198
   7.5929994008    1.1958438165   19.0857426606
   8.9056194077    3.2585456282    0.9579716017
   5.9107860009    2.4472462593   18.9139608678
   6.7361644425    4.8100840527   19.3230448775
   8.2562217364    1.8498318967   13.6717764890
  11.8914262821    3.6025082029   12.8542515134
   9.7242788486    1.7792580670   12.2491184214
  12.4647697417    3.7033374236   14.9742206531
   4.4207518628    7.2412599123   16.1852359857
   5.4894715368    5.1999882723   16.0828331616
  10.8455034016    4.9903067928   14.3453606676
   5.1504483647    6.3131974363   14.3293040739
   2.8087572593    3.5423696522   13.1358602307
   8.7384044596   19.0650265850   18.4024126631
   2.9374217229    5.7199921007   13.6988670272
  11.4638203963    7.5939577345    9.9794778825
   1.1884945296    5.1291893057    9.7386163402
   7.4780051595    8.7485682923   14.5265560181
   8.2683915346    8.8420535037   16.5973784487
   1.2703049514    4.4699951901   14.4726267743
  10.0247919618    8.2588571585    8.5642448995
  10.8108951222   19.0598962610    0.4046357141
  14.0860828071    2.3360899170   18.1045370271
  10.7760501832   19.3241324076   17.8174910300
   3.0819030186    4.6151371866   10.6129638523
  10.0118344219    6.1568419586    9.2276528503
   7.1255995144    9.0265401927   11.5169830899
  13.9375586141    2.2048690531    0.6610375519
  12.7725118130    3.9967090217   18.6765564533
   6.1648554763    9.4963355595   16.0846054944
   2.4061192780    6.7824622211   10.5966340392
   6.8579455019    7.3614365281    9.9947854583
  15.4235642563    8.8625786510   15.3820973266
   7.5339807476    9.4421428079    9.4502131545
  13.7422685328    2.5406665889   11.0007055013
  13.9450172489    8.0204029453   14.0804037143
  15.1136878193    4.4921233353    8.9401230479
  15.7435023533    2.2215198165   10.3157007633
  14.9239415633    6.3644776789    9.9725639895
  15.2506190596    6.6205221688   15.2636384731
  -0.7982276968    8.7543097221   11.4852759472
  15.2194696974    2.4194628075   12.5885566665
  -0.7724553189    9.9263658027   13.3940327351
  13.2300221447    5.0098224493   10.0898295886
  15.2754138934    9.6435966575   12.2974417957
   0.8947956699    0.5199767858   19.1030944744
  13.7739129830   12.7297289489   16.4877051877
   2.0060320454    2.4875685453    4.3809763228
   5.8222169727    5.9672492938    2.0986111553
   5.6057100177   16.1163374056    8.1608696177
   9.4324577084   11.5039396516    7.3506912434
   6.1605448588    6.8072220035    0.4889765807
   4.4919506705    3.0069908824   16.0425284339
  16.4058393551    3.4774911457    5.8126096337
   0.6505697599    1.7826224086    1.4542813326
   1.1410223942   15.3026035217   18.9671927073
   0.1001536584    0.1903287875    0.6226540979
   7.0053372810   14.2329275454    7.7555085699
  -0.0914278381    2.1273142916   17.7999419806
   0.8430700492    0.1473737825    2.2287786359
  11.7162676278   12.3167904699   12.8111824792
   0.3442779342   19.1826423461   17.6483045258
   7.2261850041   14.8464251346    6.0995125680
  12.9958886891   15.3204270895   14.7331160937
   5.1062180812   10.4893038225    0.3017251310
  13.2440945466   12.0972200450   11.8690948057
   3.6846671795    4.5052134942   18.6638202252
   2.7091523540    6.1780812957   18.7466855717
  11.5834417509    9.9681069704   17.5225377760
  11.8919272225   10.0161555908    7.5448902813
   1.5533675198    1.6320843562    5.9087691827
  17.3168658814    2.4283105918    6.9243224225
  10.7237116934   13.2972940914    6.2308146507
   3.0252414846    2.1238195425   15.3378304260
   5.9283779313   19.5892835297    9.6358982747
  11.9994073497   14.4029822896   15.9839250509
  12.4097579721   10.9460469445   14.2080736713
   2.6238063947   14.5154849790   18.6757857803
   2.4094422403   16.1480153311   17.8795312302
  11.1585375061   15.5139925458   15.0237452433
   6.9552378271   17.3601299927    8.3494550604
   0.7857009609    3.8022401285   17.5878681724
   3.0651911974   16.8059176246    2.1287349672
  -0.8852396455    7.0708742412    7.0742336974
  13.8315117687   11.0530941151   16.6741526768
   2.2053842752    3.3290538929    5.8855972770
   6.9133339744   15.9728639962    9.4808634390
   8.7567803359   11.2693380570    5.7467402980
   3.9266103213   10.3751828672    1.5615327199
   7.2198325970   12.9735025845    6.2121164800
   3.5569007577    9.4453347024    0.0688066996
   4.4952977662    6.0804899638   18.6071504098
  12.4410929008   13.6818623981   12.1439128518
   2.6007480349    0.9417262187   19.4181787539
   4.6608747935    1.2504582289   15.5161544122
  -0.2789094576    3.4483411297   18.9464567194
   1.8621300336    0.7500412216   16.5540417549
  17.0239226399    1.7094151452    3.9753974027
  16.1028203691    2.3682940048    2.5066725595
  11.2093487410   10.0883963102   15.8226765874
   4.1075898929    7.5659880929    2.6419991909
   3.4620409983    7.6342907074    1.0296356812
   0.4044290324    7.7180066143    6.1651233480
   0.9079206114    4.4091702904    7.5819728006
   1.7312830809   16.6499516332    1.0393954663
  12.7022004496   11.4923025544    6.6634952520
   4.2986324993   19.0116828033   11.5922683500
  11.4556757615   11.8263718725    7.5760538316
  10.1075597032   10.8298754910   16.9526644369
   9.5726404576   13.5829997724    5.0745507794
  14.2473089278   11.0000330392   14.3474085143
   4.8858901561   18.7016503299    8.4753758337
   7.9368851971   14.0467230655    3.6075297292
  -0.7916171750    4.9123356014    7.6406002543
   0.6435693572    6.8061090049    7.6661450563
   6.8613203844   15.3366931187    1.3974673598
   6.1551649737    2.3356171548   11.3285436811
   1.6952348548   14.3305918479    1.3179341848
  13.6955658041   17.2105197341   17.7103001845
  14.2678514796   15.8139114089   16.8131548020
   4.7097075102   14.8171847839   19.0370494267
  15.2919244084   15.6019435537   12.7689328264
   8.8544434138   12.6002505016    3.0029678185
   4.3736299038    2.1259158115   10.8607645965
   3.2725779169   18.1172320762   10.6248165730
   6.0962589587   11.5712902302   17.6596443035
  -1.6759668362   14.0454963885   12.2454837982
  14.2855087952    0.5275313411    3.2851905847
  14.8026936036    1.8690892394    4.3349721363
   5.3105170297   16.8102507292    3.9547996753
   5.6388226568    0.9470469765    7.4843042717
   7.2110550664    0.0649846703    1.5122260696
   1.6850571343   14.9466273713    3.0694795549
   5.8390559116    1.6415016317    3.7721599838
   2.9619476434    1.7273953673    2.1851696802
  -1.9484977166   17.5063018781   12.0216158047
   2.6361204848   12.3793309469    3.5956449043
   2.4869389249   12.1361564056    1.7743294639
   7.0887663140   12.5746990143    3.5792180748
  13.0467390373   14.4233879676   18.1452472481
   4.9424413672    1.1562191546   12.0809890023
  13.8376124124   15.4855357573   19.2592855082
   6.7881218084   13.1956705433   17.2381037955
  12.3991401772   14.7991068951    7.9152138824
  13.9306264141   16.1928187083   10.9630878621
   5.6398971065   13.9196731226    1.6416080772
   2.7450872745   14.9089570734   11.8152573396
   5.8418453549   18.3232322548    4.8280767514
   4.4964265306   14.8097610028   12.1799906812
  13.6120578008   14.5051860249    9.1675804212
   4.3470703768    2.7393461543    1.5899628138
  -0.8491874632   15.5620581783   13.0195876152
   6.5136919882   15.0019279604   18.8652199718
   4.2778555943   12.3691024440    2.7450515720
   6.8251334422    0.5463235045    6.1847985636
   5.0629994091    0.4358143674    5.9503849171
   4.9288624314   12.7450285047   17.1099414076
   7.4822533334    4.0311597893   17.3567590025
  12.2176828283   18.5013489860   12.9833482168
   3.9574133229   14.3627045002   15.4032560689
   5.2429654001   14.6760470363   14.1609757014
   9.7845530453   14.2702130558    9.1240890863
   3.7449761394   16.2866436198   11.9088331794
   6.5481463840   17.8553831751    3.2681336818
   8.0223074975    0.6991836958    2.9539080041
  -1.5084714473   17.8406990347   10.3880848703
  13.7606679478   17.7750274060    3.6651127854
   6.4443285614    2.1565753317    2.3225678996
  12.1539984047   18.1839075540    3.5102130105
  12.6460507752   17.5929614994    5.1663102112
   4.2039920872    2.4719910006    3.4054388919
  12.6909928876   15.9986157562    9.0654181306
  14.1997260363   17.4343271417    9.6721458138
  10.4102679859   14.2243855693   12.2024831852
   1.2514865306   18.7124152746    9.4069949612
   2.4984474639   12.5854194338   11.9322002098
  12.5380459179   12.1987196820    4.1826174192
  14.1207618538   12.3023432131    3.3540649828
  11.7260131087   17.9353366938   11.3148294890
  11.8225847555   16.6306786087    1.0374111693
  13.2957372641   15.7019008584    1.4111031164
   1.0055039067   12.7377121231   11.1146436770
  12.6066428236   16.8206116317   12.3193579455
   2.0687862767   11.3742393998   10.6167409440
  12.8728594799   13.2056329891    2.7168596515
   4.2319872607    2.8170793061    5.8139275733
  10.3720500134   15.6167501003   10.1531312742
  -1.7178538800   13.6387441981    7.3969117634
  10.1973457182   10.8464314584    9.9086113614
   4.7290535417    3.0260707059    7.5839711753
  13.4456565690   17.3223120558    0.5046678240
   5.8650715721    4.9576060101    5.5569026008
   5.8233714251    4.9363730933    7.3310368430
  15.1168416826   11.6273012977    7.6123554125
   5.5596554809   18.7114993511   13.1244102666
   1.4142597509   19.5687213548    7.8016590162
   2.3810439501   18.0375561417    8.2557610229
   8.9666995350   14.1151288648   11.3747770308
   5.6744233479   16.0142605905   15.9277075250
   4.0406158049   16.9205966052   15.8387932254
  -0.3048679546   12.8411812105    7.7224959265
  -0.2896336886   10.7276516991    7.4329038715
  11.0208718376    1.5907784226   14.5081611858
  14.3117762739   15.0630864840    3.2523857483
   5.8959648043   19.0658683902   14.9350354533
   9.7233995949   12.3964406491    9.1457470319
  15.8483710971   11.2757873933    5.4540952724
   4.2160718825   19.0215312111   14.2483762336
  -0.6377996595   18.9080820581    5.7895308747
  -1.8757659749   17.7183425652    5.9926592219
   8.6665821851   11.5639308911   10.3090003698
   3.6038165462   11.7606508695    8.9267236324
  -0.6550480652   14.1881009523    8.8507684742
  14.1002213318   15.7072256109    4.7645729252
   4.6704261401   12.8589495464    9.7940867442
   1.3664553852   17.3687410889    6.2003710560
  11.0273965892    2.1940966400   19.2128427516
  14.9285153041   10.6528767737    8.9793270266
   0.1791720232   16.1312176241    6.5883028714
  15.9967403399    9.6945620990    4.6967395756
   3.0287451564    6.0377859586    4.8748546805
   7.9316450573    8.4970601804    4.8714766434
   4.7059010501    6.6418979023    4.9475835252
  -0.9966795253    9.4302140479    8.5390801245
  15.8152332572   13.8224557341    5.6628153658
   1.0824779559    7.1695654505    3.8337434690
  -0.4732790750   10.4295873470    5.4790265258
   0.7149108183   17.8335700358    2.9196058585
   1.4469401468   18.0143169604    4.4339101120
   4.1616890887   14.6800169707    8.1381104488
   0.9062214112    6.9145671929    2.0381573782
  -1.2843612635   15.0912639703    4.5753685177
   4.8288291963   13.3340801098    7.3993652303
  11.3882255498    5.7345843636    4.0316987061
   6.8191547310    6.9724948628   17.0473922842
   3.6550178424    7.2277796134    5.9925122659
   1.6761774625    8.4117185004    2.5992957507
   7.4697711668    7.0499735308    3.7564642341
   8.3535764674   16.0178856784   17.6898523774
  10.6984835477    4.2376371200    3.2434397297
   7.7559739862    6.9902903307    5.5658517833
   0.7467675256    4.1583721261   11.7596577554
   7.8197216711   18.6803110181   11.7999727154
  11.6665361902    9.2871477836    4.2861740061
   8.4171581143   14.7756635521   16.6257384031
  13.3512591305    5.3071991066    7.0783498239
  11.9926286076    7.5975491682    3.5067842019
   9.4147697070   19.4938682037   12.2755159421
   0.1367307888   19.3079566529    3.9534194952
  14.3679861151    9.8758196535    1.9426530397
  12.9776652293    5.9671696390    2.3358050150
   8.5081224148    5.6756702440    2.9897491552
   0.0051298540   12.3686187279    4.4303008819
  12.7481258002   10.3019518601    2.0076596970
  12.3511677988    4.2491354127    1.7515777190
   9.8997190101   15.3470348908   17.1726891738
   9.1053370046    5.2510381420    4.6458151993
   9.2476626764   18.5179637636   10.6624851618
   2.2085321146   15.0167733450    5.8515519915
   0.2078403525   13.9033226862    3.4238529096
   9.4850255753    9.0122448448   10.8693008758
  14.4550266494    6.8602856701    7.3678025379
  -0.2873797995   12.4826638126    2.5217565072
  15.5492402354    7.7223089117    3.4308294748
   3.7014970301   14.2675818780    5.5348498080
  14.9006269029    5.4932645629    6.2816578201
   7.9656622009   17.9518078059   14.1823633867
  16.7491611830    6.6231200325    4.2128445839
  12.0113187813    7.5713765139    6.1561491551
  13.1256568496    8.6273657827    1.5722684762
   2.1482609497   13.4107905368    5.1618829113
  13.4800412571    8.4722331336    6.2065645496
  12.5796409399    5.6574796359    0.7142337582
   9.1319194147   12.5745780475   17.2741075404
  -0.6540051343    7.5139724441   13.7523603469
   8.5084298074   10.9252942084   18.6487790304
   9.1004686498   16.5408973116   14.2784601353
  10.3409317531   13.0353588891   18.5170279539
  15.1584414186    5.9347404448    2.1589530679
  10.9580724567   17.9624505981   14.6981764965
  16.0112180615    7.0200819161    1.2937660772
   8.5683551465   11.8028067791    0.1911428201
   2.2781257947    8.9074780551   16.3019389913
   0.9486300926   13.7346484566   16.5934410841
  10.6505495602   16.9795210129    5.7896584979
  11.2599731376    0.7321502084    5.9778877138
   5.0386943805   10.1880679097    8.4013641743
   5.3761095575   10.7420227409    3.6512869969
  11.4967850923    1.0591642924    7.7231521633
  16.7884345674    9.6090647570    0.9098150228
  -1.7870445039   10.6192974218   18.7054334786
  14.7494779110    4.8448296005   12.1056969884
  15.9377542172   13.2069218224    0.8665647686
  15.1956086778   12.6867215861   18.8892845520
   0.3392495822    0.3122079408   11.9051682507
   3.3239271630    0.8384044728   12.6263125413
   0.7814886158   17.6060550159   13.5981721947
  -0.2803570051    0.6415210629    9.9809868235
   9.5210968247   18.2759664811   15.7882303323
   4.5863147603   11.1815130383    6.9760720231
  -1.9537210232   12.9936757650   14.9504686192
   8.7490141318   17.2831095896    3.0574025400
   2.3124932463   10.0760214062    8.3392500704
   3.6268389605    9.2266334129   15.2502164350
   8.2763284656   18.2314714866    5.4269155520
   0.6910320607    7.6370154976   19.3337664369
   1.9769912391   13.6669729228   15.2299177087
  10.6404980547   10.1376869175    2.4842119055
   2.6977959759   11.1329621291    7.0277768980
  11.9199509135   19.5344457145   15.3814983904
   6.0317666823    9.2029939867    3.7653437847
   2.7974851205   12.0983368307   16.9413873943
   2.3798401659   18.0320434742   12.8283534400
   1.0977982303    0.7648555717    8.7873571491
   9.6843238264   15.6868244542    6.4352233850
  -1.2868003939   11.9152724319   16.1701554007
  15.2987521897    4.5245976855    0.4619564041
   3.6343908638   10.0089715201   16.9675548252
  15.1737211163   11.6175199278    0.8349146566
  12.7992536605    0.1990144283    6.7233330383
   4.5355387756    9.7212485008    4.8126454340
   9.4411330115    9.4839260146    1.4125138835
  16.0143461709    5.1128496062   19.2419361923
   7.0445883860   10.1993802624    7.2424031266
  14.1143848008    1.3261050876   14.2388660158
   0.1894709936    7.5185837331   17.5650102582
  10.5061596485   17.2373868690    3.3489389221
  -0.9966321149    7.8564784176   18.9650144835
  -0.1911253677   19.3899196330   13.4209836234
   0.9667090146    1.8744487653   12.5901959882
   1.5060168876   16.7303303053   12.0812129865
   0.0962796106    2.2425879644    9.2329178598
   1.5008012249    9.4193768358    0.7685796172
  16.6198907771    3.2683302173    0.7990768019
   0.8405244030   11.1096076317   19.1243050355
   1.1342450282   11.3353066815   16.9870714974
  13.3232712644    1.6140319392   15.9186614068
   9.7734785740   15.7793224241    2.5832332808
   1.7999464028    9.3813375042    6.7762436824
   7.8440270631   16.9463693688    6.6935065316
   6.4584521483    8.6919573048    6.5879113326
   9.0456829098   10.8867829023    2.2550936385
  -1.0659896245   13.7483836580   16.3495127575
   5.2674747154    8.7199187709    1.2026799243
   8.8648085257   13.9079795756    7.1388622176
  13.4272371241   12.7021641147   13.8543081456
   3.6737196267    1.3949402162   17.3888143388
   1.6776370062    2.5591750155   19.0684943777
   0.3149901668    5.6552509524    6.0753823271
   4.5948828393    5.2755810372    0.8690897088
   0.2469787481    3.0013646448    5.1111782222
  10.7198548212   10.9744286121    5.9733338832
   5.6651799051   17.4166558083    9.9373768859
  16.7802491479    0.5438966875    2.1600668105
  11.9439972465   11.9426043511   16.7371945993
   3.5098703049   15.9139257922    0.3553791167
  12.3632003238   16.4848938658   16.2558094466
   5.4964771947    0.6619376919   10.0705103993
   3.3287127244   14.0301353035    2.3734373640
   7.7863963078   13.4876374917    1.5705113471
  13.2333810036   19.4987043203    4.7782897857
   5.6961434258   12.9826479446   19.0113659344
  -1.3583730512   15.8221160024   11.0721010314
   4.5451296784   18.4977216890    3.2553441366
   4.7538445807    0.8199665397    2.2344402545
  11.8123845855   15.8238165159   19.1082223136
   6.1995895234    2.3281387539    6.2620998696
  13.8177676828   18.2525058792   11.4979895423
  11.8298694237   14.1881865962    9.8758067011
   3.1940123111   15.2616046954   13.7926841832
   5.3455078261   17.1007874623   14.2055228801
   9.7008601184    2.8787154856   15.6302196614
   9.3773171984    2.8630971727   18.0256659065
   0.4019003170   17.6211186629    7.9933984539
  10.2501309232   12.4407661016   11.2021981938
  13.4278498889   13.8060099279    4.6513749551
   2.5847892483   13.3238085432    9.9938226119
  -1.6929721428   12.3819808366    9.0999086900
  16.0978801415    9.6158342119    6.7172117191
  11.4840121298    2.1070336095   17.1908470019
   3.9538628252    5.2627600432    6.4310640904
  -0.5306959411   17.2518953656    4.4752334752
   9.4151954871    7.1580272130    4.1763850416
   7.7617049765    6.2353924251   15.2701901336
  16.1681128878   13.2895230401    3.6080264223
   2.5820974849   13.5098098136    7.1978662086
   9.0972999007    7.3493974172   12.0281199518
  13.7142534756    6.6533885213    5.4216006722
  -0.4206268913    8.1855591670    2.9444636497
   0.2819681966    6.1068708889   12.3737604078
   8.7363942437   14.2645880964   18.6294529398
  10.9685183333    5.8713243254    1.9517173720
  13.6438568580    8.9543267387    3.6360985939
   9.3250692336   17.5080468386   12.5639728846
  16.5558737468    4.6719444355   11.3817391081
  15.9273742843    6.6601421133   12.5508974012
  16.9422965505    5.1187128345    1.7887647938
   2.3878719484   10.8210174045   15.4846490079
  12.3431915082    0.2740985763   14.4031434445
   6.4447703255   10.3191299453    5.2656966341
   8.9204645067   18.5645326686    7.3668098829
  10.4548296245   11.1259233252    0.6936966824
   0.1761215301    9.4810940337   18.3002177029
   0.6507225749   18.5612466046   11.7925578527
   1.4431184517    1.5959168260   10.6081198017
  -0.7121320854   11.6520051814    0.7679344336
   9.4860993012   15.8568514221    4.4745241014
   0.1262512079   12.7948040030   14.9188828806
   3.7950690986    9.3229789579    7.0407709859
