B2 C140 Ca1 F48 H298 O66 
1.0
1.8139522275617381e+01 -2.0052202046589258e-16 1.1270043917380902e-16 
-2.2784354474829334e+00 1.9543934032851801e+01 4.6456279469556047e-17 
-8.6559256524170114e-01 4.7814261644078065e-02 1.9425246397855954e+01 
B C Ca F H O 
2 140 1 48 298 66 
Cartesian
  10.1026612219    2.2784744873   16.8455464009
  -1.1202120598    5.7045398398   11.9979955031
   0.0795016286    0.6914883881    1.4696300390
   7.5692137197   13.8239808922    6.5963660780
   5.4393481478    6.3956530501    1.3070601002
  12.9609414699   12.6160703341   12.4855497231
   3.8531757573    1.5980482615   16.0506178123
   1.7776061914    0.7092431699   18.8256969860
   1.4913252969    2.5043924419    5.2939433756
   2.4296924292    0.4336796570   17.5103748978
  -0.5500635427    3.1801690881    6.2766245550
   3.4904257462    5.2540147744   18.9970294116
   2.0752515591   15.2423014877   18.4849012425
   0.4275077323    2.6807517477   18.2775732003
  12.1224472921   15.0878985394   15.4563992521
   4.3677622109    9.8993309596    0.7352734070
   6.2028706788   16.6181095863    8.8717638929
  13.2571479435   11.7127513079   16.0150163999
   9.5037923675   11.6303764399    6.2618970400
   9.7804829254   13.1452918948    6.0330113903
  13.2727076792   11.3937183267   14.5543111065
   4.4744606869    7.6236103917    1.5937728326
  11.3038693713   10.6749036682   16.7055732168
  11.6617258405   10.8993986846    6.9555665648
   0.0124968594    4.3774244942    6.8852785857
   0.0834403917    6.6646697465    6.7483361902
   5.0264824275   18.6153089315    9.5162056223
   2.6072275637   16.0662739691    1.2719007351
  16.5448038921    1.3895263114    2.9554883819
   3.8206406557   18.9219805076   10.3567281864
   2.2204049316   14.8362249078    1.9380680827
  13.4689446492   16.1423988285   17.1572379714
   5.3366732742    1.3761189469   11.1342241160
   8.0232368053   13.0765995892    3.1005090224
  15.2292023027    0.9897399580    3.7025090994
   6.8087858571   14.1713495768    1.3940778934
   5.5828444272   14.2134832279   19.3230981389
  -1.7979549028   15.0474509767   12.2717531613
   3.3362954236   12.6214085177    2.7573938594
  13.0827138945   15.3118178179   18.4013440473
   5.7085660019   12.4079898615   17.6904210052
   5.5434970376   17.6763584828    3.9866615632
   7.1667693837    0.1047869223    2.5823951503
   6.1419438196    1.2008292651    2.8390141411
   4.0311688906    2.1390819751    2.2952432823
  -1.9582277265   17.1396980769   11.0462750832
   5.9098164700    0.7678696669    6.4570230019
  12.7120436430   14.7785746782    8.7775651841
  14.7004572757   17.0566687292   10.7548954787
   3.4808212345   15.2038159548   12.2350515103
  13.0705246786   18.0971781822    4.1874886897
   7.0250563222    2.0488845653   18.0624086705
   7.9265702086    4.0216807393   19.1250258542
   8.1056118676    3.0999484594   17.8834580398
   4.2527761069   14.8936629383   14.4879886312
  12.6260748035   17.7712380324   11.9723059294
  10.6209627891   14.4672756414    9.9238842142
   9.3216524354    2.2379100301   13.1951791183
  13.0328702127   16.3547782181    0.7106698605
  13.4137943678   12.7372585592    3.7986330348
  10.0961203975   13.7922713100   11.1661354638
   5.0233486173    2.9568873544    6.4631644168
   1.9369312614   12.4107885333   10.9916255553
   4.8960308328   16.1880870276   15.1518407886
   1.2525502502   18.3932879171    8.1937366787
  10.4038364656    2.4049288263   14.3397008435
  11.4642496613    3.4678852103   14.0722463111
   5.2693024918    4.5503440879    6.3097223809
   5.3175470250   18.3296637791   14.1192920958
   9.6895348901   11.7782919222   10.0479764922
  -1.1972151935   13.3145399604    8.1527010706
  15.8119459074   11.2321557512    8.3775929883
   0.3545053832   17.0784846056    6.6189366270
  -1.3125740849   10.1931204394    7.7530239263
   5.4621851475    6.3131200322   15.4080109291
  14.6617384649   14.6989478695    4.2971482603
  -0.6674914896   17.7263898496    5.7881122109
   3.6850180700   12.5933240798    9.2660985394
  16.5453768147   10.2185638788    5.4201940444
   3.6634340398    6.3174792092    5.5548497440
  11.7460497737    1.5323589076   18.4053389606
   1.9741978099    4.5915137510   13.1582464979
   9.7539297235   19.5113163322   18.5878491797
  16.1034550137   14.3560241082    4.5023548329
   6.8448267890    6.7742533264   16.0291741588
   3.6651108615   13.5432211688    8.0177452546
   8.1771888346    7.4980289993    4.6677484309
   0.4019441392   18.1393477709    3.8731794986
   7.1562518594    8.2458177970   15.7198813938
  10.1733094116    7.3888520881    9.6799698526
   1.0111549206    7.4846122932    2.7074399126
  12.9645628201    2.4144015499   18.6908671067
   1.9342108301    5.2606617585   10.6444113760
   1.1469502089    4.9779262419   11.9279072701
  10.7518570056    5.2072485006    3.2846798207
   9.4360532267    5.7477240565    3.7826217604
   8.7996811639   14.8985486181   17.4053269333
   9.2025443224    7.9126992303   10.7951461278
  12.6117008973    8.3514059628    4.1000516765
   8.8111989069   18.6166039417   11.8942169822
  -0.3218593169   12.7888768455    3.7927155624
  14.1739120152    5.8052003443    6.6300817313
   7.7526187546    8.3284019211   10.4908466270
  13.5552160795    9.4469287050    2.1309612252
  12.3656491364    5.3726663538    1.5503378869
   2.6015553651   14.0242040810    6.0192201798
  13.0336739471    7.6500262417    5.4702933695
  16.6891981957    7.0860882558    3.0762084022
   9.0381080548   17.4220598299   13.8850850462
   9.3220372226   12.7976526176   18.3729183020
  15.2965298630    7.7128471687   14.4371180626
  16.4187716477    7.5381316049   13.3544587233
  16.3878133779    6.0919492794    1.9598365189
  15.0742949572    2.6743990148   11.3256807790
   8.6656953473   11.5325654663   19.1426769290
  15.3084675315    4.2057386012   11.2566109298
  10.0756888677   18.1319585852   14.8007987622
  14.8254033637    4.8513395360    9.9877576879
  -1.5119772733    8.8598370146   12.5482940387
  11.8758530841    0.0896732207    6.9977316889
   2.9381169220    9.5853326781   15.9646569439
  -0.5822923153   10.4691612702    0.1504746845
   1.1744711784   12.8238574713   15.6410814226
  16.1707288627   12.3049113086    0.3174420123
   4.8898215454   10.0964924888    7.1990958126
   5.5577178026    9.6841801284    4.1807503868
   9.8383964438   16.5662113953    5.6976239215
   8.6813667202   17.5048449443    6.1285481171
   1.8090757690   11.5540698577   16.1759256342
   2.3279180891    0.0855484526   12.4639424625
   1.1562527206    0.7700875772   11.8398008542
   1.2877788770   17.6230296414   12.5571777632
   0.4445676363    1.1374831318    9.4523722046
   9.8119606780   10.3206983348    1.6962861111
   2.4714780882    9.9543946095    7.0200625319
   6.2213560098    9.6620096137    6.5568099737
  13.5763274757    0.6030529699   14.9231179972
  -0.1620171117    7.8654850534   18.3994018566
  16.5008547211    4.2154465665    0.6712616835
  -1.2092410108   12.4244104559   15.6110507659
  -0.0612311998   10.1539313625   19.3556720025
   9.5942297940   16.5375243116    3.1860377768
   8.9607286667    5.9180554820   13.5415071670
   6.7302154784    1.6418102987   16.8730219024
   8.9313533293    4.9415138760   19.0553635151
   8.9730546641    3.5211133185   12.7213244067
   7.5926396829    0.9867390103   18.7521528056
   9.1904370153    3.2699292340    0.7980731578
   5.8142411983    2.3832982707   18.7250647620
   6.8342924272    4.7815711963   19.2781057946
   8.2531425049    1.6468982995   13.7669152669
  11.8480478533    3.3351201522   12.8130658281
   9.8253585819    1.6192038896   12.0793839482
  12.6104463883    3.4147884598   14.8362605247
   4.4189267013    7.0382268431   15.8285745133
   5.3514249430    4.9922850316   15.8777853972
  11.0121687164    4.8333872725   14.2946148716
   5.2360593752    6.2118766525   14.0648281069
   2.6962696828    3.4567769723   13.0494222706
   8.5483018138   18.7760494311   18.1892913139
   2.8705718696    5.5743020097   13.3704436945
  11.4462574361    7.5285491832    9.9860070417
   1.0483362140    4.9176170124    9.6922927003
   7.5580589456    8.5809559474   14.3830948502
   8.2165860846    8.6705760914   16.5101243971
   1.1410134640    4.2083562319   14.1999645834
   9.8964735616    8.1790467069    8.5337934724
  10.9959140438   19.1395496825    0.4030693512
  14.1043341047    2.0639924872   18.0973665337
  10.7560443083   19.1541067715   17.7887029369
   3.0373993871    4.5085894501   10.6199057613
   9.9952170302    6.0866868962    9.2141107142
   7.1722949915    8.8367027180   11.5411074197
  13.9924595053    2.3421912685    0.6804037013
  12.7523813779    3.7157486926   18.3502429494
   6.1355049211    9.1386432954   16.0024874991
   2.3561822149    6.5220908048   10.5659859632
   6.9888848030    7.2955306448   10.0162762846
  15.4440287233    8.6662160534   15.3231307739
   7.6372471971    9.2307914934    9.4775442068
  13.7311951000    2.5189314480   10.9913513668
  14.1104471293    7.7091115615   13.7751695282
  15.1600364251    4.4042648852    8.7981806741
  15.7945840970    1.9477252799   10.4853463873
  15.2265790053    6.1836510149    9.9893618117
  15.3053479452    6.4787124420   14.9795246885
  -0.7652899356    8.4525078518   11.4762791457
  15.3188991633    2.2247319370   12.5590416733
  -0.8176146467    9.7462577456   13.2762082902
  13.4128173442    4.7673734434    9.9425166709
  15.4859620238    9.4692493720   12.0395077427
   0.7762115000    0.3779467678   18.7836718947
  13.8325266717   12.5292342681   16.2449007403
   2.0248257390    2.2039310238    4.3108238862
   6.1113239958    6.3308792255    2.1679690170
   5.4439843336   16.6081309827    8.1207992184
   9.0655219054   11.5531193929    7.2586281204
   5.9649930473    6.6356615896    0.4723794979
   4.4607312345    2.4402144013   16.1955869386
  16.5080224754    3.2160424458    5.9534606500
   0.1820571050    1.7342513174    1.7644343684
   1.0014071773   15.3502642074   18.5579953194
   0.0795925752    0.5866743805    0.3628312809
   7.0158884798   13.6567949056    7.5824859784
  -0.1021276952    1.9787495643   17.7842116662
   0.9903192311    0.1464700550    1.8172717611
  11.8919003391   12.4261069668   12.3307736393
   0.1934768931   18.9198357496   17.0875198455
   7.4344571220   14.8008695634    6.2888593297
  13.0551387230   14.7827864482   14.9725680023
   5.1174482765   10.7446008678    0.3706652709
  13.5518524036   12.0526472511   11.7667253370
   3.0014418544    4.3178310268   18.7866447469
   2.7488499308    6.0702891077   18.7986830687
  11.8882910612   10.0816857256   17.4814394665
  11.7754540938    9.8865654660    7.3216838850
   1.5919795515    1.5859082705    5.8780934915
  -0.3968175595    2.3219014505    6.9990852943
  10.8734311734   13.5438061499    6.2299107787
   2.9835125612    1.9651901540   15.5786819214
   5.8352190886   19.3625506150    9.6617745210
  11.9023489511   14.1547429026   16.1118978077
  12.5040649791   10.7029816586   14.2092897542
   2.4004799507   14.2217684047   18.4928865022
   2.4785107172   15.6809396387   17.5509053470
  11.3308608585   15.2410591293   14.7724944260
   7.2299482474   16.9856278953    8.5123640535
   0.7211162206    3.5378771988   17.6079699468
   3.2510212831   16.7399261547    2.0010482920
  -0.9562039818    7.1305514997    6.9144650960
  13.7739234363   10.8701471957   16.5483834320
   2.1339168493    3.2791560769    5.7557729763
   6.3246786574   15.6281265269    9.2713179483
   8.5335688476   11.4070134322    5.6993565782
   3.7821109434   10.2880645669    1.6222987440
   7.3029632148   13.0424668168    5.9543170270
   2.8477533895    9.7703740471   19.3193750767
   4.3827276751    5.4750819279   18.3522362596
  13.1389039101   13.6391458310   12.1200326809
   3.2346593187    0.3014822227    0.3820722617
   4.3697481287    0.8212755195   15.5131691580
  -0.1138585601    3.2487371903   19.1638884351
   1.6551708263    0.7700029677   16.8359687751
  17.3043128335    1.6362030385    3.6927951499
  16.2555088843    2.3666673798    2.4561308336
  11.3371375350   10.1477687975   15.6719225941
   4.3360947953    7.9214732092    2.6541252692
   3.5204712671    7.3240540796    1.1740644305
   0.6307353256    7.4333480957    6.1915256580
   0.9951001543    4.3824710419    7.4057351385
   1.7370586994   16.6347705668    1.0398357177
  12.5495182022   11.3737912453    6.5024102918
   4.1897280243   18.8376893050   11.4199529230
  11.5041449695   11.5921202707    7.8927401886
  10.2703116708   10.8120242555   16.9921712889
   9.6461774049   13.3975969265    5.0049800216
  14.1309886094   10.7533424635   14.3537134555
   4.6983802378   18.7098758985    8.5128696591
   8.2679166560   13.9566556816    3.7294725101
  -0.7804016991    4.6229318810    7.6886171076
   0.6315401248    6.5698364225    7.7588233026
   6.9186029398   15.2038880887    1.6751569737
   6.2695465651    1.9069628644   11.3829337460
   1.5879380971   14.0593845083    1.3864049736
  13.6315015570   17.2831452379   17.3713421314
  14.3474336185   15.6921253522   16.6565340263
   4.5955799974   14.6015324316   18.9836074117
  15.3416916197   15.3334235014   12.6142368855
   8.7652026009   12.2868304681    3.1594789603
   4.4573045981    2.0797256500   11.0016062101
   3.0187187240   18.1437393448   10.1349931433
   6.0146196945   11.3713439938   17.5520768051
  -1.9130132859   14.0603163688   11.9819904771
  14.4418971319    0.7328523663    2.9582331366
  14.8594869294    1.8115143894    4.4037474266
   5.1775914340   16.6409010219    4.0203326273
   5.3477151140    0.5430359983    7.4303412523
   5.0216685895   19.3157482572    1.5569646826
   1.5875646714   15.2671914856    2.8537874413
   6.1644590878    1.4762200532    3.9525164518
   2.9329542509    1.9064076633    2.0382719226
  -1.6012891735   17.6383115302   12.0531095694
   2.7523300795   12.3712544328    3.6930436225
   2.7971524170   12.0979736001    2.0750420675
   7.0300571526   12.6850337779    3.3268546876
  12.9860737338   14.2656882865   18.1056204077
   5.1866510611    0.8435456388   12.0585744716
  13.8964960960   15.3472055171   19.1734009509
   6.4907356998   12.9990225279   17.1900891195
  12.3907398063   14.4197772623    7.7895018657
  14.2817529399   16.1128432795   11.1644245719
   5.8115331821   13.6984258763    1.9812811221
   2.6981567254   14.6902104784   11.6344762891
   5.7752090929   17.9507855323    5.0499188609
   4.4727331762   14.7941624116   11.9940550436
  13.8786777881   14.6893581879    8.9319718430
   4.3376400011    2.8386696278    1.5077527843
  -0.9821910061   15.0131750613   12.9694356305
   6.4233229406   14.5099847329   18.7087728247
   4.3693767874   12.3236859235    2.8373039405
   6.8800217290    0.2170324802    6.3861165430
   5.2743677896    0.3518379310    5.6048811432
   4.7073148828   12.5273142847   17.1421208134
   7.8201049184    3.6584490187   16.9630298667
  12.4320431666   18.5253429462   12.7342016862
   3.8813868747   14.2051675628   15.2653719161
   5.0684757623   14.3720718050   13.9123304043
  10.2946991823   14.2584995102    8.9550903652
   3.3796162354   16.3533987354   12.0290245921
   6.4792053184   17.8665616434    3.3802847769
   8.1563116631    0.5218605772    2.9787840560
  -1.3518156831   17.3576552792   10.1327156923
  13.4879886579   17.9746722072    3.1289811808
   6.4757745976    2.1512325320    2.3666681904
  11.8553044929   18.0954547912    3.9593995359
  13.1040866888   17.2849406720    4.9283667172
   4.0583492491    2.6272054531    3.2592214743
  12.6948031632   15.9090811504    8.7305910828
  14.5464965321   17.0108988661    9.5920380430
  10.5995504445   14.2448187743   12.0688008431
   1.2923192406   18.7594709281    9.2361230817
   2.1742726955   12.6617009245   12.0895757692
  12.6180991369   11.9976982153    3.9790199123
  14.3933282945   12.1769356164    3.7120295669
  11.7890894115   17.7257023049   11.2291297870
  12.1177603085   16.5323475598    1.3162384447
  13.8377904812   15.9924584754    1.4520497271
   0.8737641265   12.6836309521   10.9249805503
  12.7336326026   16.8621807673   12.5191030399
   1.9894356438   11.3559563266   10.8850206658
  13.1895419496   13.1624168430    2.7557878245
   4.1313822452    2.9101040003    5.7765000082
  10.4679697642   15.5166261883   10.0776161038
  16.0566114883   13.5478847788    7.5047121605
  10.1543822001   10.7593424122    9.9521899310
   4.6995318030    2.5944723797    7.4417836961
  13.4163344032   17.2725072070    0.4866106145
   5.8561155579    4.7812406103    5.3217647287
   5.9528974711    4.9991632386    7.0549005306
  15.1636572575   11.5181330345    7.5671047239
   5.5249954310   18.7035224746   13.1015255086
   1.4033246456   19.0672479664    7.4024844829
   2.2655786032   17.8937637393    8.0877754919
   8.9958358144   13.8635442817   11.2365300680
   5.5171078586   15.9406014312   16.0249152852
   4.0743641832   16.6311902093   15.7575662889
  -0.3183750640   13.0754069229    7.4677603673
  -0.5068598639   10.8329387127    7.4792354450
  11.0817298126    1.5305575391   14.3530812453
  14.5092470426   14.8139210755    3.2810268721
   5.8715680023   18.8632807417   14.8617008736
   9.7851577740   12.2972004552    9.0838385417
  16.0965726331   11.1882056081    5.1748768512
   4.3084209840   18.6345453393   14.3812807698
  -0.6340892978   18.8564714583    5.8150170187
  -1.5888386857   17.4425395876    6.2263413743
   8.4936652125   11.7142427178   10.1767568555
   3.3945832553   11.6159107479    8.7938734837
  -0.9977417901   14.2486885302    8.6826807157
  14.6058602830   15.5829178930    4.9617379445
   4.7250590687   12.5621632280    9.6816767302
   1.3824782066   17.2885551353    6.2985926403
  10.9978266962    1.7040681925   19.1282177152
  15.2111914920   10.7734874046    9.1557715268
   0.1857319526   15.9239094432    6.6369705644
  16.1768537462    9.5631516249    4.5361515300
   2.6955490840    6.2074561283    4.9262489954
   8.1434193405    8.5892479704    4.6345888706
   4.5616312953    6.4792223353    4.8538990653
  -1.0621852532    9.3485788475    8.4567266602
  16.2261176940   13.9211768573    5.5420083386
   1.3032357677    7.1208695802    3.7570702907
  -0.4638467655   10.2756781162    5.4892417668
   0.8284788734   17.5911782560    2.9817786520
   1.3427195985   18.3991704000    4.4139577606
   3.8739318084   14.6859976159    8.4195605573
   1.1907462769    6.6927921793    1.9581165771
  -1.4789232135   15.2938626432    4.3968988536
   4.4957160516   13.2615509127    7.3773061799
  11.6668941591    5.3984257831    3.7342203964
   6.7524046549    6.7117831569   17.1030513298
   3.4838541668    7.2575960723    6.2250302330
   1.4685941238    8.4710190733    2.5038351892
   7.3612697142    7.1692324226    3.9758876364
   8.5410925974   15.9176901843   17.7943864267
  10.5921656125    4.1214192791    3.1585156232
   8.0960907074    6.9257064804    5.6197322233
   0.6129221639    3.9565518145   11.8614500236
   7.8247911966   18.9293360532   12.2622331064
  12.0353627747    9.0649161042    4.5272157074
   8.0976296345   14.5115867554   16.6091343407
  13.2473503971    5.2555071723    6.9754000926
  12.1168885112    7.5842973554    3.4789133626
   9.4469288900   19.4888710960   12.1479844864
  -0.2604432795   18.9637807542    3.6235372283
  14.5767491050    9.3976165781    1.8057635615
  13.0967063833    5.7946441820    2.2742937615
   8.7382908123    5.7181626338    3.0107454320
  -0.1985471365   12.3682165887    4.7489301278
  13.2345266568   10.5154076269    2.0662837509
  12.6059163301    4.2937137688    1.6574832779
   9.8181282444   14.9923482932   16.8214727889
   9.0855496822    5.0464340504    4.5375839576
   8.7609443433   18.2287520514   10.8844194933
   2.3871116597   15.0709455389    5.9995104928
   0.3748729422   13.7378733902    3.6315373576
   9.7675484708    8.8406482006   11.0691884480
  14.3834979162    6.5694866468    7.3723303042
  -0.1505141996   12.0371668650    3.0398129484
  15.8979141264    7.7472324067    3.3602403708
   3.6287659018   13.8485752275    5.5248776794
  15.1180303771    5.1211437592    6.5759682762
   7.9730417898   17.7421495279   14.0963356440
  16.8512397112    6.4275932082    3.9851248432
  12.0585900416    7.4620963670    5.9560317686
  12.9589607273    8.8422781063    1.4148932110
   1.9768928701   13.4144640494    5.3656922984
  13.5732400200    8.4796436681    5.9612107385
  12.7015706028    5.7531572951    0.5370585437
   9.0972902507   12.5334601145   17.3190952752
  -0.7729280328    7.3294273009   13.9591996766
   8.5353162496   10.7507725284   18.3049924685
   9.0813837708   16.3444808691   14.2767206940
  10.4268698376   12.5842558954   18.3375404589
  15.3155135846    5.6250473167    2.2632819977
  11.0460634173   17.5857018413   14.6917006002
  16.3419669028    6.6011633017    0.8869766672
   8.5669109625   11.8135137424    0.1353887189
   2.0946806140    9.0697074301   16.5064673099
   0.9056577469   13.3725037635   16.5895189131
  10.8328116264   17.0635124109    5.7588091601
  11.2530328416    0.6660512929    6.2649203148
   5.0159059297   10.1804600086    8.2841810469
   5.7706100198   10.3848742133    3.2567256589
  11.7962311042    0.6851335414    7.8994396213
  16.9644775147    9.7998411975    0.6704574218
  -2.0098265705   10.5587556109   18.6181097141
  14.7535564386    4.5174997364   12.1878078902
  15.8956799358   13.2502985757    0.6777315128
  15.3248975645   12.1651476797   18.6109729301
   0.1715693716    0.3756782478   11.7795267319
   3.2386208831    0.7884982831   12.5558260047
   0.7424919362   17.1666455876   13.3372817824
  -0.3642665678    0.6418650229    9.9543340927
   9.8260724072   18.1747972212   15.8274123390
   4.5977515711   11.1157752433    6.7654864844
  -2.0084086911   12.6346405934   14.8825537796
   8.5749025069   16.8810791537    2.8250077375
   2.1624469509   10.2679911750    7.9846637561
   3.6846595358    9.0868993515   15.3807249586
   8.3913336167   18.0611078539    5.2265622989
   0.6802903619    7.2415656119   18.8800000133
   1.8020355414   13.5328028660   15.1739001607
  10.5381029851    9.9618614326    2.4014645465
   2.6982492246   10.7994536810    6.3823153024
  11.8156120882   19.4939465510   15.7265143225
   5.9734602925    8.5937354697    3.8299901553
   2.6492015363   12.0012051201   16.8452405952
   2.1300869909   18.1060820854   13.0175237648
   0.9624666558    0.4604720107    8.7078513911
   9.9514376045   15.6822594340    6.4043123826
  -1.3602298562   11.3815557285   15.9725131668
  15.4672496367    4.5361618745    0.6241243370
   3.5471109510   10.0033466361   16.7223823934
  15.3831534230   11.5683660249    0.6160504889
  12.9270077483    0.0780955641    6.6752826022
   4.4182322622    9.7602155848    4.4325285737
   9.1309924836    9.3971417834    1.3592981588
  16.2045037543    4.4956662256   19.0858308144
   6.8886744299   10.2459734913    7.1776475990
  14.4065497124    0.9721713409   14.2670660599
  -0.2698351837    7.5466020706   17.4017243345
  10.2630478826   17.4559853512    3.1266532536
  -1.0559548257    7.6136304335   18.9846687067
  -0.3831100891   19.3540277673   13.5062939021
   1.0633604027    1.6122185928   12.5881489890
   1.4117961145   16.7880112710   11.7997586717
   0.0297749174    2.0673179701    9.0177887499
   1.2420929951    9.5988556877    0.8296342000
  16.7827207264    3.2153997537    0.8802160864
   0.5624846737   10.9307792963   19.0572402452
   1.0175925168   11.0270668511   16.8099784350
  13.2046330570    1.3477658484   15.5551288836
  10.0024570550   15.8397878875    2.4937877679
   1.7245650316    9.2681068354    6.5367100044
   7.7931316453   16.9066910369    6.4197880103
   6.2877488035    8.6133217336    6.7610773456
   9.1363570554   11.0389073774    2.2497552882
  -1.3731299557   13.1690910441   16.3622308704
   5.0988125642    8.8008303447    1.1107913651
   8.9623488599   13.8929019285    6.9211661972
  13.4494736082   12.6194400113   13.8492849025
   3.5673572401    1.1309074250   17.3981830013
   1.5532268990    2.1044820655   18.8987102508
   0.0400713026    5.4497856097    6.0096784958
   4.7481866468    5.2165465235    0.9718485482
   0.1603821100    2.8089364328    5.0265505173
  10.5786852358   10.8108430306    6.0146061785
   5.6137366891   17.4077190703    9.9834718520
  16.9541851134    0.2884026687    2.1537628155
  11.9821375165   11.9047366525   16.6737711335
   3.5162050447   15.9479956514    0.2421916201
  12.4035969475   16.2224908141   16.2652892301
   5.5309744346    0.6064898935   10.0085568152
   3.4463417611   14.0955738775    2.4474194703
   7.8748889805   13.3433428161    1.7183949627
  13.2633546197   19.4581112684    4.6048011008
   5.5848738235   12.7683808091   19.0108414967
  -1.4766207592   15.7208604944   11.0734001354
   4.5190943981   18.5096706764    3.4904068153
   4.7952587898    0.9346105136    2.3118857597
  11.8555489845   15.6024545466   19.0145708114
   6.1492295834    2.1763819635    6.0997619097
  13.9050279652   18.0552674830   11.4087008006
  12.0372844043   14.0314701228    9.8121235293
   3.0728592585   15.1720672988   13.6735892044
   5.3857521110   16.8924849012   14.0942073876
   9.7747152041    2.5093819108   15.5914327678
   9.4347910385    2.7591828004   17.9025345273
   0.1828961911   17.5886889626    7.9208672739
  10.2904700110   12.3320843571   11.1307325067
  13.5872346092   13.7861993368    4.7695900022
   2.6401761645   13.1883446496    9.9805237179
  -1.6380590650   12.2839968212    9.0696223670
  16.0769854568    9.6383533316    6.5990921681
  11.3305499151    1.7368709651   17.1210526956
   3.9544932514    5.1840812718    6.3083627827
  -0.4426709069   17.2181277033    4.4855649266
   9.4545171411    7.0688424778    4.2309308409
   7.6835996444    5.8347985219   15.4784253518
  -1.6905390350   13.2046111288    3.6558291812
   2.5520195015   13.4179746988    7.2869763591
   9.0995168548    7.0924294346   11.8446503886
  13.9347196787    6.4887151479    5.3627429332
  -0.3066922223    7.9311216460    2.7430422261
   0.2424347947    5.9986340677   12.2359583618
   8.7519187654   14.1250139835   18.6406412053
  11.0468479719    5.7182471054    1.9310690936
  13.7595754398    8.9275427270    3.4613084622
   9.2584522121   17.3511572184   12.5112120995
  16.6992803451    4.5348792051   11.3745320783
  15.9526438287    6.5768386754   12.4708738641
  17.1239523199    4.9692796451    1.7366350955
   2.3745502170   10.7454134153   15.1857921739
  10.3619437591   19.4182960363   14.1151267458
   6.3882733276   10.2336081453    5.2427782759
   9.0917174520   18.3338781439    7.1700722842
  10.4182208459   11.0534505098    0.6897916676
   0.0978346304    9.2645436690   18.1962871298
   0.4914592061   18.4822514796   11.7948980949
   1.4487052480    1.5576576979   10.5529734423
  -0.6454704108   11.7429083004    0.7388751855
   9.5674555663   15.8579164691    4.5073308825
  -0.0169586646   12.6572551342   14.8176848108
   3.7247681390    9.2310595680    6.9472501179
