B2 C140 Ca1 F48 H298 O66 
1.0
1.7771152464780847e+01 2.3162485152323139e-17 -7.9449842489347610e-17 
-2.9765780340083738e+00 1.9226799170001147e+01 3.0180660058235584e-16 
-6.2360943412137648e-01 1.5250100139273453e+00 1.9472723321136648e+01 
B C Ca F H O 
2 140 1 48 298 66 
Cartesian
   9.9327168951    3.7080609451   16.8306794998
  -1.0832847199    6.4854193494   12.1476927487
  -0.1129925901    1.5561091155    1.5331497356
   7.0602917564   13.7090960721    7.0797574351
   4.7462539581    6.5395167113    1.0426586260
  12.5241637982   12.6384000332   12.3940073524
   4.3298294816    2.9967331472   16.3105547884
   1.9567386160    2.0334161000   18.2528968042
   1.3541349953    2.7788808113    5.4399456754
   2.5089644847    1.5395573773   17.0191852719
  -0.5888223728    4.1364110928    5.7925129797
   2.9526425236    6.5476896748   19.0594509500
   1.8630084211   17.3355939038   18.3306463306
   0.6371277761    3.9866812516   17.5494468186
  11.7401442003   15.9193184454   15.1746678118
   4.8697071296    9.9411939123    0.7353093330
   6.1157985743   17.1612100999    9.3913676089
  12.2865314794   12.1277223009   16.1033020459
   9.5730169940   12.0911251274    6.6868119326
   9.2860998415   13.6809864140    6.5401570619
  12.6700408623   11.8828192764   14.6731396187
   3.9196166142    7.8525842808    1.1310777939
  11.4839956079    9.9738332385   16.7699376297
  11.7686164974   11.7142665680    6.1590347708
  -0.0890319660    5.1602449998    6.7105739860
   0.8997206422    7.4379832385    6.9872043097
   4.4232902334   19.0111351629    9.6401627695
   2.1051182623   16.3883578427    1.2125752344
  15.8380909728    1.6920772389    3.0095668206
   3.5526505771   19.5599014770   10.8146578610
   1.3254104076   15.1547025508    1.5381733783
  12.9618304050   17.0230303544   16.9955861284
   5.3150689553    2.5259339534   10.8764166884
   7.4050235462   13.8560533011    3.0387226891
  14.6174550406    0.9575868627    3.4760331415
   5.8972430549   13.6227810106    1.1149427278
   5.3498400554   14.9943352134   18.9809523491
  14.8092141622   15.3728789174   12.1369610688
   2.0788319822   12.8547863960    1.8266196764
  12.6063570204   15.9147635259   18.0983640633
   5.4631724463   13.6862753154   17.1163164004
   4.9652536080   17.8296505140    3.9843193622
   7.1832396282    0.4501523845    2.6701308289
   6.2454132905    1.6269890028    2.7049921574
   4.0514058590    2.3826552865    2.2686869021
  -2.6998558450   17.1708994607   10.4841078604
   6.9252690729    1.2912885432    6.6275593124
  12.1006464065   15.1425155150    8.8957756991
  13.5899301404   17.7105875377   10.3455585553
   3.5472038202   16.0200480941   11.7928841322
  12.8705244735   18.4565010621    4.3830449308
   7.2226357478    2.7358468954   18.2130485084
   7.4819437707    5.2118748386   19.1695083143
   7.8557685946    4.2060242149   17.9216575162
   3.6492343024   15.7195524483   14.1966879056
  11.8647523125   18.8999114121   11.6916488465
  10.0578782923   14.9494146899   10.1375594759
   9.3426815516    3.4986041980   13.2525469659
  11.9733876442   15.7365601060    0.2737404695
  11.9390909858   13.5155047169    3.2542105553
   9.4291064541   14.6222698888   11.5005768677
   5.4128641300    3.2248072839    6.4951511539
   1.4039947697   13.0535604978   11.0421236768
   3.5320323296   16.9988220584   15.0994424541
   0.0156108507   18.4910758408    8.4885839650
  10.3053611734    3.7280759730   14.4262082641
  11.4183826707    4.7321914500   14.0133782867
   5.3686484381    4.7318604916    6.0570053078
   4.3466250121   19.2547257916   15.0859862880
   8.4964440638   12.5467463349   10.7168709738
  -1.5158141790   13.6007741398    8.7613675971
  14.9093536087   11.5565381679    8.7911477664
  -0.7218000110   16.9347564367    6.8405847273
  -1.7368971653   10.6639252415    8.1573732624
   5.6688995512    6.8749876184   15.5204576464
  13.3778778815   15.0549474113    4.4651521582
  -1.4648391941   17.8672946988    5.9259956649
   2.7476744827   13.6856107023    9.2216872628
  15.8272603587   10.2896006915    5.7751280459
   3.5562567910    6.3152341821    5.3614233142
  11.5930139290    2.8545464890   18.3117390346
   2.0256003798    5.6795355963   13.4068307744
   8.8067168175   20.5535628864   18.6208599269
  14.3666572163   13.9782882101    4.8886913507
   6.7632120628    7.6108011052   16.2099927380
   2.6702176124   14.5790920815    7.9111455683
   7.4713457471    7.3700400896    3.9971061093
  -0.6331411797   17.8786307326    3.8015373913
   6.8479198451    9.1351419717   15.9968730362
   9.4408291193    7.7349067987    9.5466791996
   0.2547324787    7.6938606626    3.3417856440
  12.8082164652    3.6755908253   18.6467484862
   2.1333870551    6.0808530308   10.7426877663
   1.2306983689    5.7874140074   12.0870977417
  10.6517687833    5.9701453446    3.0346919782
   9.3180479031    5.9491367278    3.7201819477
   8.5697472753   15.9534591835   16.9682194757
   8.5183873006    8.4757694370   10.4851403901
  12.0235326684    9.2679629839    3.8772561002
   8.4285393382   17.7540861420   11.8371708582
  -1.4983402702   13.1283896704    4.1180867895
  14.0315433050    7.1339882332    6.0702285391
   7.1144646855    8.7280187278    9.9817533307
  12.5940764997    9.7761731637    1.5726084178
  11.8458914320    6.3327503315    1.0948745760
   2.7647203218   14.4268853973    5.4928088170
  12.5873747947    8.6766819857    5.0529459781
  15.7900083039    7.2305281127    3.3414434975
   7.8462020577   18.6482626588   13.9267192238
   9.1111099930   13.9405040369   18.0224819767
  14.7229462964    8.2913841008   14.5723028926
  15.7705070614    8.3302267864   13.4432604436
  15.5854079222    6.1983093711    2.1967596977
  14.9688865956    3.4627230780   10.9920252270
   8.6164533828   12.8832309788   19.0966773391
  15.0290279998    4.9474282200   11.2074002008
   8.5317675072   19.4727973072   15.0427558972
  14.2988842052    5.6569132907   10.0241523876
  15.7324755817    9.7137082356   12.7005506849
  11.0040012731    1.2292055732    7.1636179822
   2.3340109575   10.4739633199   15.6504205935
  -1.8527628410   11.6338451269   19.2271689284
   0.8942871315   13.7338794821   14.8787284573
  15.3977479359   12.1735307507    0.7230699773
   4.5115464591   10.9285628687    7.3421318974
   4.8132595385   10.9424908418    4.1851429999
   9.1448653094   17.3026939521    6.0647125458
   7.8879696008   18.2724178521    6.0173115744
   1.4199121111   12.6593302376   15.8205486417
  -0.9377188891   20.1842302290   13.1282235048
   0.8958131016    1.6596715316   12.4902105197
   0.6912515605   18.3373869770   12.6117272067
   1.5794612711    2.2726525725   10.1668896621
   8.9500687700   11.0717450140    2.0460693623
   2.4350880362   10.2390336012    8.2783521561
   5.5695830783   10.3995038302    6.3558389597
  13.6257183954    1.5698140414   14.6361436967
  -0.7853252054    9.0212706888   18.4971985371
  16.6282571958    4.7089743961    0.5819207342
  -1.3334949550   13.3488924730   15.5423439336
  -0.3237867015   11.1963546375   19.3413564125
   9.6405770251   16.7298935190    3.7229529196
   8.2788613682    7.0274052159   13.5923346273
   7.1778767745    2.1348246915   17.0106007000
   8.1834392420    6.3029906409   18.8647518209
   9.1515534549    4.6694733557   12.5605237297
   8.0991819415    1.9923422857   18.9809240334
   8.6279637227    3.1557824087    0.8377817786
   5.9836796961    2.7819634628   18.7409431993
   6.1992220009    5.5293756516   19.3566855050
   8.1037088550    3.0919777343   13.7651270197
  12.0248706522    4.5189787224   12.9189636486
   9.6972950356    2.6095573015   12.4118176655
  12.2747352836    4.9461540130   14.9905874600
   4.4100723436    7.2148117366   15.8574988652
   5.8126051232    5.5291318081   15.6012366895
  10.7364494607    6.0356772172   13.7978004736
   5.7961985537    7.0813417746   14.0938575685
   2.8588407846    4.6337204253   13.3935042643
   7.8455008539   19.8265806448   18.0058281434
   2.7468674862    6.7514777519   13.5510399129
  10.7069015338    8.0152692450   10.0059070524
   1.2690215156    5.7132918437    9.6679218389
   6.7184098317    9.4911417674   14.6016318367
   8.0205688765    9.5187280278   16.4772798881
   1.2255256443    5.4871408356   14.5771904358
   9.5370024731    8.1075410147    8.2944608432
   9.2192638168   18.7963409739    0.4423303828
  13.7724772045    3.4458298873   17.6305906262
  10.0176391035   20.1161106041   18.1096384350
   3.1531809299    5.2043237827   10.7585578087
   9.0983776105    6.3802253454    9.5598626651
   6.3746891843    9.2876856976   10.9815015928
  13.9367395229    1.8206978398    0.3791912020
  12.4678512198    5.0115395638   18.7049317482
   5.8373938099    9.8505095838   16.5854371861
   2.6575256000    7.3844684693   10.5279896188
   6.4545345448    7.6390586992    9.4388098908
  15.0056648715    9.2032389726   15.5632649620
   7.2087161705    9.6105828333    8.9242739061
  13.7787821100    2.8407997214   11.1846364961
  13.5481989769    8.5793241401   14.1959159738
  14.4761483220    5.1556253410    8.7086741791
  15.4324935273    3.0561252304    9.7466748388
  14.7125296644    6.9950593192   10.0769360027
  14.6554485003    7.1001725830   15.2548368417
  -1.3474832889    9.4841745370   11.5883786906
  15.8656886555    2.9350956961   11.9615788977
  -1.4216784967   10.6265660137   13.4348068715
  12.9625495532    5.6961591425   10.1459198762
  14.4493389979   10.0509185082   12.3326101858
   0.9079362570    1.7293672505   18.4605448958
  11.8979716557   13.2000751567   16.1161259526
   1.7381787003    2.1582767266    4.6302577322
   5.2118798400    6.4241042340    2.0093953612
   5.6228828414   16.7895800754    8.4517034461
  10.0171448661   11.9723270121    7.6906087992
   5.4897765797    6.4399336870    0.2393460344
   5.0948164633    2.9694908572   15.5340473680
  16.3612216636    4.4502063746    5.1486317106
   0.0884233323    2.6499437368    1.8036512668
   0.9140927386   17.9510221632   18.0868419157
   0.0452586475    1.3633795706    0.4494713186
   6.4221081717   14.2392633784    7.7156541889
  -0.0737130523    4.3616229181   18.2622219815
   0.6087285199    0.9156468241    1.9552525662
  12.3059970677   11.5904223134   12.2041699750
  -0.7625991113   19.7068822615   16.9024998489
   6.8304394850   13.8866120576    6.0279652557
  12.7123691150   15.6661461742   14.7841786123
   5.7228192239   10.5637481431    1.0977814291
  13.6268870301   12.6929243581   12.0928790827
   2.4587246135    5.5394355154   19.0362274630
   2.1563919562    7.2060044676   18.7495963241
  11.1931368850    9.7780874018   17.8390176731
  12.1424050966   10.8984233327    6.9364659891
   0.9712313515    2.0736037327    6.2075671711
  16.9683237495    3.3026994174    6.5561833994
  10.2170793411   14.1974955283    6.6450322120
   4.7676306300    3.5056473476   17.1503314140
   4.7776069473   19.9105513243    9.1222080300
  11.2331762490   15.0538192934   15.5749857511
  12.2807409200   10.8805630211   14.3527083593
   1.5964466311   16.2354527404   18.1776865722
   2.6827485300   17.5542067832   17.6291776425
  11.1139274463   16.1651557532   14.2587696239
   7.1221913723   17.6209794513    9.1131731672
   0.2626799954    3.2606718254   16.8455569689
   2.8042936098   16.6974770156    2.0525444692
   0.9645056371    8.4339319812    6.4469780510
  12.9647879687   11.8989305203   16.9737087254
   2.1763428674    3.3000705936    5.9183444438
   6.3589652191   16.3963692959   10.0674798101
   8.6374989331   11.6294411722    6.6428705414
   4.0360992835   10.5839856854    0.9937874163
   7.0313122490   12.5764235214    7.2927807543
   4.3147048996   11.3989033573   19.1149820219
   3.7911687627    6.6544967434   18.3183455406
  11.8536405708   13.2098212778   11.7555155822
   2.5989799189    2.0026751262   19.1121192280
   3.4548450721    3.5593768235   15.8224890435
   0.9211318894    4.9721492045   16.8747852557
   1.8242528916    1.9027120858   16.2355162252
  16.5227262100    1.7135917492    3.9354214710
  15.7308165181    2.7294961264    2.8725293189
  12.6699589773    9.5809986403   16.7741931428
   3.1177557518    7.7573519210    1.8840221251
   3.4581224746    8.0835202871    0.0192412676
   1.8625676515    7.1722148839    7.3393729082
   0.6541904333    4.5400309208    7.3691046013
   1.4156486303   17.2320570041    0.8757553414
  12.5588141135   11.6736511684    5.4591482245
   4.2427215026   20.0069743037   11.6344794335
  11.7889509395   12.6846141251    6.5685793759
  10.9408490130    9.3234260046   16.0653522782
   9.1099311624   13.7378098346    5.4914172421
  13.7109588072   11.9012950816   14.7086908792
   3.7971540781   18.5244601609    8.8288721862
   7.1808083950   14.8559261572    3.3866099665
  -0.9651037115    5.4586843138    7.3483895917
   0.1399898413    7.5674577426    7.8129971006
   5.2312506993   14.5287212809    1.3275510845
   6.2244977748    3.2974607058   10.9398358950
   0.8612847977   14.7959747333    0.6295716810
  12.9614914847   18.0133183570   17.4440836360
  13.9909526322   16.7212927177   16.5070433267
   4.3859774921   15.4479177591   18.5741103524
  13.8472497984   15.5692910832   12.5297050702
   8.5276971662   13.6549498416    3.1876717340
   4.5358340335    2.9360883569   10.1737821553
   3.0433788559   18.7668785420   11.3339902347
   5.5408727690   12.6896352846   16.6548872012
  15.0518457544   14.3517994905   12.2146415159
  11.1846785440   19.4234493047    2.7205321194
  13.8992505559    1.7780704533    3.6479090779
   4.4795411038   17.0080427374    4.4301625400
   6.0339686113    1.0091842887    7.2525367583
   4.0690186911   19.0504002045    1.8174722951
   0.5132073174   15.4961072382    2.2590599787
   6.1902384090    2.2322986927    3.6771766100
   3.0280988185    1.9415493890    2.0010217332
  -2.1618306526   17.6945445990   11.3158345009
   1.1011336209   12.3507115373    2.1076573425
   1.9131702662   12.7242803375    0.7526036614
   6.8407297554   13.0882669797    3.6238441241
  12.4187485731   14.8981677860   17.5716936538
   4.8859005827    2.2724157131   11.8784628532
  13.5242734682   15.8346584387   18.7055182390
   6.3190925574   14.2577420074   16.6202982859
  11.8289469797   14.1897430980    8.3071808726
  12.9103835097   16.9037771873   10.4995625620
   5.4134865381   12.7068723642    1.5959724950
   2.9503329371   15.7692354342   10.9443088409
   5.8171052590   18.1501007243    4.6588473551
   4.5002471043   15.4262708113   11.7147545094
  13.1971751328   15.1027987587    9.2006615953
   4.2896819090    2.9145471292    1.3713086085
  -2.1494938537   15.8412757475   12.7993924816
   6.1972045603   15.6529215534   18.7390875864
   2.8788908176   12.3406702381    2.3195850234
   7.9531620617    1.1350630372    7.1555110963
   6.8958517406    0.5161656018    5.8509333185
   4.5259694982   14.1434147718   16.8206132538
   7.4220700945    4.6091123797   17.0210960488
  11.5871138122   19.9419958985   11.6483043916
   3.2146999465   15.0015541639   14.8930508398
   4.7344632095   15.4339534054   14.0019019823
   9.7068625816   14.1830102301    9.5148988447
   3.8218235734   17.0332300106   11.9239691283
   5.2475438725   17.6041961298    2.9617002417
   8.1077270426    0.9910802113    2.8075190212
  -2.1795998410   17.2727707723    9.4667177152
  13.8491300249   19.0167590911    4.3817177432
   6.7050516078    2.4015606357    2.0128405247
  12.7311000402   18.0313554280    3.3621880312
  12.8773130953   17.7265021492    5.1843007496
   3.9645258965    2.9402053040    3.1865130799
  11.8391742900   16.0988418188    8.2398283181
  13.3728699659   18.0464783358    9.3596601903
   9.9173082669   14.9634560205   12.3539992879
  -0.1074122743   18.8932398444    9.5233288149
   1.7690256182   12.0328100799   10.8820277404
  11.9505523486   13.9676047635    2.2640808718
  10.8943841831   13.0586626811    3.3924355952
  11.2039834675   18.3309165164   10.8976586481
  12.7255114939   16.4290547073    0.0158333126
  10.9898082725   16.1959919290    0.2125434460
   1.9894971870   13.3732070774   11.9005396793
  11.7706405510   18.5072944137   12.6992213553
   0.3459125823   12.9292665168   11.3104542755
  12.7034024851   12.6924434776    3.3487756949
   4.6467519660    2.8410280558    5.8513003592
   9.6285659277   15.8616538070    9.7809623741
  -2.0803983440   13.8545522970    7.9004020542
   9.0015831624   11.6414640992   10.3409167546
   5.1029340175    2.9907815200    7.4838034926
  12.1737543343   15.4292675251    1.2880857122
   5.7742799773    4.6481989867    5.0178783260
   6.0941074700    5.3614287155    6.7039292931
  14.3503670045   12.0248636984    7.9297668706
   4.9769095465   19.9333330176   14.5547617696
  -0.1090141245   19.4072812923    7.7694192901
   1.0787008226   18.1899066168    8.3983488465
   8.2728393190   14.9555133505   11.4232992770
   3.9614949554   16.8452142060   16.1070212318
   2.3867078221   17.2906780855   15.1182358193
  -0.5712155225   13.1548230969    8.4275122116
  -0.9486348975   11.2894215901    7.7332658830
  10.7537973713    2.8022325647   14.6564674473
  13.7808415105   15.6774003886    3.5906736377
   4.4801009391   19.1138450531   16.1001200687
   8.0040488656   13.0537263501    9.9191954158
  15.1867920230   11.1616555865    5.5165074575
   3.4534696668   19.7209057688   14.9025027821
  -1.1450581892   18.8987289171    5.7207600371
  -2.4819502399   17.8329173881    6.3558118544
   7.6962653695   12.0827185073   11.3889304647
   2.9310094391   12.6648718122    8.9070019870
  -1.3756613379   14.4711375092    9.3859838236
  13.3462506078   15.6996334542    5.4536633738
   3.6822974961   13.9119860472    9.8778423988
   0.3997304624   16.8342532142    6.4474568483
  10.8673431617    3.0768572993   19.1195801853
  14.1487908267   10.9981009349    9.4239992039
  -1.1305347313   15.9442364943    6.7229293781
  15.7707882761    9.5012629050    4.9696371849
   4.1915556868    6.4277833946    4.4162581536
   7.2134637310    8.4436566950    3.8386516179
   3.5721067568    7.2454102898    5.9838375346
  -1.1584679070   10.1095523391    8.9466326358
  13.8790289307   13.3263208482    5.6531295748
   0.2511320250    7.1779839845    4.3740530953
  -0.9474782354   10.7216310645    5.7115130071
  -0.9330130392   17.6370294334    2.7375839244
   0.4623709332   17.6228879722    3.9964772868
   1.7000009999   15.1412732069    7.9715196109
   0.5045741163    6.9330205227    2.5670531766
  15.1395039732   14.4886538245    5.4238617730
   3.5592493682   15.3442617740    7.9275425569
  11.4024596642    6.6925344773    3.3958904496
   6.8143200086    7.3216366572   17.2899539830
   2.5554053762    6.0962074618    4.9464399699
   0.9848348840    8.5892337496    3.4126945588
   6.7769277385    6.7383444131    3.4364257401
   8.1887478785   16.9519631353   17.1018877861
  11.1250211737    5.0445000409    3.2797201879
   7.3004480428    7.1738149603    5.0085865276
   0.7885606285    4.8452211753   11.6648607964
   8.1002617578   18.6342331786   11.3662852974
  11.4405875104   10.1638275408    4.3308086663
   8.2994314890   15.6510360965   15.9607666367
  13.4876540145    6.6809221114    6.9609796178
  11.3261445755    8.6036311440    3.3586174428
   9.2511471227   17.1452932285   11.4712761696
  -0.8509266340   18.9943099427    3.9883693297
  11.8103212661   10.5036696412    1.4159392301
  12.5216672669    6.7312769606    1.7865220088
   8.5617340577    5.2103931858    3.2983243157
  -1.4175283382   12.6722764697    5.1430280955
  12.1013409333    8.8816012147    1.4396706962
  12.1433303883    5.3647386247    0.9254329208
   9.7174473037   15.9832793148   17.0078474769
   9.4183643356    5.6766690250    4.8808177466
   7.5167266852   17.1319746779   12.0117932611
   1.8075184308   14.9094782186    5.1664018857
  -1.0095188855   14.1176838976    4.1166795132
   8.9003984635    9.5645012458   10.4619775155
  14.8113799146    7.8964770936    6.3683231657
  -1.0109798806   12.6100847369    3.3038966763
  14.8905988497    7.7466822293    3.5193171665
   3.5476086996   15.2779783619    5.4792268164
  14.6208736128    6.2526166249    5.7806625962
   7.2011942528   19.3922182663   13.3293541401
  16.1323282816    6.5214796146    4.0708958354
  11.6915625871    8.6363364343    5.8029285398
  13.5729227246    9.8666767344    1.0554101718
   3.0958178687   13.7696484694    4.6997090754
  13.2886879211    9.4480797841    5.5937035990
  11.7923014187    6.7951742343    0.0596829832
   9.2064389920   13.5308128137   17.0586432320
  -1.0058124636    8.3449973537   13.8982427673
   9.3388750333   12.0459928393   18.7669414072
   7.3568591639   17.7201178386   14.3218597988
  10.1512663711   14.2554504726   18.3120076765
  15.0754748378    5.3847777258    2.7501928015
   9.2566288746   18.7816892807   15.4996550308
  15.0208444335    6.6852693056    1.4492922469
   7.5957727934   12.6517127736   18.8242335077
   1.7431685840    9.9773918814   16.4875675127
   0.9032370012   14.6775328779   15.4963637574
  10.0748941385   17.7870579719    6.0768356182
  10.1494932365    1.8119057056    6.8093468729
   4.9108770674   11.1061660324    8.3623677002
   3.8422962101   10.9812329000    4.6871729323
  11.2810759226    1.4382359208    8.2294323170
  15.9816658541    9.4406064136    0.3549099397
  15.5328875225   11.6289545547   18.1678682407
  14.2140572822    5.1795947277   11.9783211728
  15.5519998306   13.2066413581    0.6130604079
  14.5040082288   11.9783441059    0.1048105265
   0.1768178588    0.9970094416   11.9992004274
   2.6311382654    1.7184866193   13.7661992614
   0.0968699178   17.6151715053   13.1382236085
   0.8713537241    1.5248823286    9.8737630641
   7.8295845398   19.7912648866   15.7501451958
   3.9070936122   11.8050218879    7.1548007217
  -2.2653478617   13.8725544547   15.2445328299
   9.6136412709   17.8672655356    3.5418421925
   2.8584497222   10.3750903901    9.2503451766
   2.5535263579    9.7301346422   14.7704782997
   7.8903616615   18.9264826316    5.0906478490
  -0.3241654595    7.2438239962    0.1540122994
   1.5193653389   13.8104154596   14.0102103770
   8.9540119765   11.7721906892    2.8517935990
   1.9604709150   11.2114216524    7.9823914266
  11.3069988271   19.9471979932   14.3676113707
   5.1061249680   11.7306545366    3.4476574410
   2.3704341434   12.9660119932   16.4002822217
   1.4680497785   18.7793608255   13.2306690209
   2.6105881580    1.9041846162    9.9039815543
   9.2473573818   16.7138642426    7.0520083647
  -1.6745190771   12.3082392382   15.8365378162
  15.8407541912    3.9264036649    0.8018930690
   3.3832110086   10.7684322004   16.1213487288
  15.2506611789   11.7902897192    1.7940661567
  11.7797944959    1.4680662709    6.4267508201
   4.6071283831   10.0552404450    3.7106636940
   9.4583792928   10.0589625002    2.2783808986
  15.6352587096    6.9090343820   19.2135935006
   6.5853333069   10.3056015903    6.8484138248
  13.9826854106    2.3417318316   13.9683495627
  -0.2803930379    8.2561697700   17.9479213890
  10.7066330972   16.5137975611    3.6676279348
  15.8901561985    9.1212417418   18.1470175012
  -1.4092083688   19.3652040754   13.7415052247
   0.2802252719    2.2528087596   13.2055773163
   1.1973058837   17.8871430053   11.6576242662
   1.3696586793    3.1745990456    9.6114726189
   0.3878541825    9.3580513118    0.9042980306
  -0.2938814254    4.0453080957    0.1443147037
   0.3107379294   12.0829598560   19.1607942633
   0.7811429563   12.6189098638   16.7710935452
  13.7824476072    1.7653564446   15.6795203833
   9.0081231468   16.4689027604    2.8969668350
   1.7574571251    9.3703221781    8.4133200546
   6.9679873977   17.6346708676    5.9296797102
   5.3747535682    9.4638285178    5.9881995867
   7.8403883368   10.7872071015    1.8354229630
  -1.0221481105   14.0179935274   16.3795256696
   4.9025842178    8.8274374984    1.5098094345
   8.3513809070   14.2811325263    7.3730616707
  12.2567780393   13.0010539913   13.8223500380
   3.8913269813    1.6094863005   16.5451327155
   1.8130197573    3.5247556569   18.2219417041
   0.4657765845    6.3609009513    6.0847252965
   3.9634544546    5.3690042131    0.9683167636
   0.3588711780    3.5926793946    4.9276361937
  10.4226696238   11.4838295539    5.7828176099
   5.4078026622   18.2070776206   10.2177112829
  16.4598802173    1.0715402935    1.8641349195
  11.0954731296   11.3602825086   16.4144605161
   2.9670480014   16.1209907532    0.1322882424
  11.9118837317   17.1067381252   15.9271252282
   5.5720223274    1.2820263837   10.1400445619
   2.1945208996   14.2511565432    2.1080557534
   7.2446963094   13.7679497371    1.6510813574
  11.8143011149   19.4280053995    4.6390689164
   5.5784336412   13.6703430472   18.5182189935
  15.0314639919   15.7376549706   10.7349056614
   3.9065326292   18.9027703783    3.7950485476
   4.8943405082    1.2637980597    2.2891499807
  11.3752835026   16.2593355133   18.7447317186
   6.7000542688    2.5785357948    6.1912269628
  13.2397231820   18.6594755277   11.3740973525
  11.4607594781   15.1519098411   10.1206843994
   2.7435089284   15.7195478211   13.1296970600
   4.2647370460   18.0230937749   14.4482748049
   9.5002320598    4.1333170214   15.5598686509
   9.2019516238    4.0250299735   17.8823594430
  -0.7914456412   17.3633165353    8.2371110968
   9.3623473446   13.2054535658   11.5768312160
  12.1256055715   14.5259693644    4.2909204122
   1.5920430792   13.9798253837   10.0045178857
  15.5089179352   12.6085638166    9.4359698334
  15.6473580331    9.6996141178    7.0824722010
  11.2248810197    3.1810613396   16.9687902756
   4.0244641059    5.1486305844    6.1263349934
  -1.6051301745   17.1653112292    4.6855226264
   8.7861343329    7.2994166388    3.5538048995
   7.8864322136    7.0301007120   15.6822122112
  14.9342936624   13.2305839093    3.8198878929
   2.6979161467   13.7402978084    6.7895325986
   8.6372158765    7.8418488995   11.7092393389
  13.2192821027    7.4824920720    4.9185824725
  -0.9901966916    8.2136450632    3.1316487832
   0.2334111138    6.7411045278   12.4730049742
   8.1284835129   15.0330260136   17.8722744020
  10.5822585384    6.2534402478    1.6531377717
  13.0476822797    9.7051009837    3.0160887884
   8.9130312677   18.1262659980   13.1058346491
  16.3792413879    5.4359159651   11.3177596298
  15.6263092119    7.2252604017   12.5680103662
  16.8358275599    5.4610014160    1.8061576859
   1.5842215995   11.4685901413   15.0644910968
  12.2806341920    1.2746364646   14.2986038861
   5.7625427637   11.1808906201    5.2072705912
   7.6907776371   19.0346663939    7.1472789768
   9.5753361359   11.7218361870    0.9085614668
   0.0377573215   10.1656755411   18.3773819398
   0.0139763023   19.5503788269   12.1555833556
   1.3894647432    2.6195127864   11.4885545751
  -1.1943828521   11.4634869478    0.2200710557
   9.0615270616   16.3314650150    5.0308735322
  -0.4192354128   13.3163898762   14.4849905051
   3.4746782847    9.9064781955    7.3657083669
