B2 C140 Ca1 F48 H298 O66 
1.0
1.7863037757413316e+01 9.2812541447163595e-16 -4.1546488770951291e-18 
-3.0981406203409123e+00 1.9428049642824238e+01 2.5127311733414063e-16 
-1.4519038678581345e-01 1.1969844764819912e+00 1.9557834724813802e+01 
B C Ca F H O 
2 140 1 48 298 66 
Cartesian
  10.5642024741    3.5419969895   16.8031008289
  -0.8425293791    6.2831022428   11.9728443427
   0.3210239736    1.6432575841    1.6355775361
   7.0871595195   13.7391016732    7.5713895681
   4.5814233407    6.6365025817    0.9470916270
  12.6533737850   12.5961736598   12.6049688314
   4.3883673648    2.7912173826   16.6986749893
   2.2881343155    1.7896726165   18.3274403757
   1.8062002166    2.4545246667    5.7263167550
   2.8280102958    1.1032228774   16.9828553067
  -0.2231668100    3.7768868657    6.1041177041
   3.0705465615    6.3835360821   19.2189148575
   2.2817584160   17.7105597473   18.3105326691
   1.0117177801    3.4427081855   17.3819230394
  12.1103446271   16.0243479511   14.9141866646
   5.4498524106    9.9735000064    0.8960046107
   5.8842242624   17.2056867512    9.4941290211
  12.0988176037   11.6909022640   16.2396372587
   9.6737321477   11.8675600325    6.8851200748
   9.4037579231   13.3708389251    6.7539012416
  12.8958898635   11.7295430582   14.8524440486
   3.9794584722    8.0461186293    0.8604588941
  12.2314212586    9.4450619352   17.0328931513
  12.0348396088   11.8899223832    6.5436417377
   0.0614115466    5.0262663761    6.9995030803
   0.5924360074    7.4501133140    6.8685757443
   4.7939034752   19.2435419355    9.6685155963
   2.0318061782   16.6308364356    1.2081877410
  15.9455870137    1.7877252205    2.7225637718
   7.2009199527    0.7873306621   10.5586694699
   1.4100457314   15.2782496098    1.4845390033
  13.2598069164   16.9309857212   16.8438673012
   5.5180393235    2.3155768154   10.5958756101
   6.9566375661   14.1020319682    2.9030357753
  14.8144024998    0.8413631604    3.2090338200
   5.8418911557   14.0062068233    0.8507504704
   5.7040607801   15.0478210804   18.9785232380
  14.8526514268   15.2871839299   12.1859565924
   1.8695416191   13.0144270689    1.9920540122
  13.0335241470   15.8231040003   17.9124119695
   5.9841576232   13.2655238234   17.4136872303
   4.7984417611   17.9154558899    3.9156653719
   7.2733248535    0.3243559906    2.5366054411
   6.4770282988    1.6913783005    2.5913025099
   4.2912142061    2.6517426010    2.1624086732
  14.9868568799   17.0812107045   10.5123089134
   6.8654756818    1.3489968417    6.9963131283
  12.3273926935   15.0727371940    8.7252371420
  13.5512722172   17.6718075838   10.3810156474
   3.6365955216   16.3605924132   12.1030527023
  12.9870367340   18.5416718959    4.4251816922
   7.9870046332    2.3862907340   18.2978553142
   8.1907250331    4.9524852620   19.1843753824
   8.4250136955    3.8575512962   18.1603262605
   4.0377572315   15.3479061294   14.3224722547
  12.0206899780   18.9508040089   11.6651088736
  10.1936939916   15.1105241108    9.8655199309
   9.7255424017    3.3664275177   13.2825901840
  11.9272930391   17.2356745763   19.5303124740
  11.8986797012   13.3229436068    3.3132632379
   9.5350925116   14.7510224052   11.2936168765
   5.4212673797    2.9491788097    6.1154035912
   1.3759881703   12.8456452586   11.0024921730
   3.9459983302   16.5954586024   15.1709318135
   0.2954598445   18.6572781617    8.7990190270
  10.7109183484    3.7317830542   14.3851425297
  11.7382035876    4.9063174571   14.0154256720
   5.3378770720    4.3735426520    5.6842294756
   4.7145166923   18.8247397130   15.1528233105
   8.6454779069   12.6083554942   10.8846779033
  -1.8229874150   13.4744672463    8.8494666835
  15.3054414999   11.1769230365    8.9205042075
  -0.5193195361   17.0510671869    6.9340051465
  -1.3903546697   10.5045396592    8.0811282451
   6.1258108020    6.6881334639   15.6477689567
  13.3194363100   15.0949660254    4.4613697905
  -1.5049025947   17.7785085281    6.0161563414
   2.9581347140   13.6422403100    9.4449626027
  16.0202830409   10.1675332940    5.8014200721
   3.9287822212    6.1418708602    5.3470791113
  12.1416647212    2.5643041819   18.3813736629
   2.2134795579    5.4173668078   13.4536087356
   9.0272532262   20.4149522275   18.7443345948
  14.4464332319   14.2332917713    5.0802897322
   7.2971377631    7.4798950194   16.2776558370
   2.9921077875   14.5100802084    8.1853542043
   7.5550193523    7.4250140881    4.1538543092
  -0.5938018209   17.9229779224    3.7494666947
   7.2795314673    9.0025642153   16.1862679408
   9.7317149790    7.5930077975    9.5399072368
   0.6528190600    7.7024809491    2.8206861321
  13.3237670292    3.3956392815   18.7177167115
   2.2409594693    6.1659658514   11.0280366913
   1.4812067201    5.7050307123   12.2297112703
  10.9004893200    5.9423370191    3.1396922553
   9.3204162893    5.9688897622    3.5462229579
   9.0772463088   15.6979482634   16.8753977763
   8.8204895054    8.3388877295   10.5307300068
  12.0090725555    9.5390198429    3.7394848808
   8.4513127536   18.0003573153   12.0487976927
  -1.4435112420   13.3710258681    3.9602120795
  13.6586913560    7.0638542390    6.0928663113
   7.3392895457    8.6484027011   10.0439854246
  12.4018856428   10.1141848082    1.4100865006
  12.2339459324    6.3170846331    1.1887335519
   2.8890947056   14.5136896838    5.7800122707
  12.7436167570    9.0140518178    5.0427155494
  16.1438754500    7.1149024029    3.0489338253
   8.0326790329   18.7143473083   14.2889759457
   9.7986292074   13.6562101561   18.2073191989
  15.0503634845    7.9996619131   14.5942031298
  16.1784444832    8.0812708538   13.5426137625
  15.6152339656    6.2824318453    1.9656264958
  15.1929479572    3.3255276869   11.0420438867
   9.1881977872   12.7428806320   19.2165205544
  15.2797671328    4.8569473806   11.1761625417
   8.7660015090   19.5621540312   15.2082822601
  14.6960456421    5.6763371142    9.9922002819
  16.1400570228    9.3876502039   12.6915546489
  11.5723616929    1.0081297087    7.2064997807
   2.5754916198   10.0709817197   15.7997748983
  -1.5493526257   11.5808363827   19.5500869881
   1.2339875908   13.5809135050   15.2113009357
  15.0955251819   12.1471093596    0.8127894563
   4.6498260306   10.8272947982    7.3248844007
   4.4317872236   11.1495862074    4.3365082092
   9.4773682985   17.8611376810    6.2430828226
   8.0284727791   18.3066487257    6.2884484600
   1.7497350410   12.3037898181   15.7891021353
  -0.7493680933   19.9466924410   13.1445365452
   1.0203179991    1.1482539612   12.6304924952
   0.9637460753   18.4602267648   12.8063718859
   2.0396384675    2.4264342179   10.8634873948
   8.9288872660   11.2691911493    2.0438689972
   2.7665773234    9.9840561479    8.4967614000
   5.5762509576   10.2898113070    6.1465687784
  13.9146182218    1.5302219029   14.7846629540
  -0.5396593940    8.7588914561   19.0169603366
  16.3894947745    4.6149070417    0.4011416717
  -1.1660371003   13.3007832539   15.5033132665
  -0.0577439876   11.2285876801   19.1782120431
   9.8017095815   16.8116987089    3.9546858715
   8.8155036637    6.8471083374   13.6625752750
   7.9708324622    1.9073422683   17.0304709718
   8.8783506794    6.1398035332   18.7940918979
   9.1415533340    4.5075703964   12.6641128284
   8.7170032336    1.5644961346   19.0799267403
   8.8377964581    3.4136504364    0.8289278027
   6.7515937726    2.3318945568   18.7707704885
   6.8552112323    5.1661977704   19.3743949716
   8.7989479164    2.6332486416   13.8419817685
  12.4015730279    4.5372866899   12.7959026745
  10.4157378113    2.7309058969   12.3079489561
  12.6914460348    4.9807236011   15.0094472827
   4.8873522463    7.0526381604   15.9029498256
   6.3078078733    5.2613694196   16.0651441769
  11.1742338828    6.1362367071   13.7262877329
   6.1977982691    6.5618353789   14.2910063521
   3.0562542906    4.3844403652   13.3905114444
   7.9839090764   19.9781529681   18.1292106480
   2.9870926621    6.4881962744   13.7308632492
  10.9950060108    7.8399447264    9.9612416537
   1.6275698459    5.7485546153    9.9368921153
   6.9217907960    9.4072610257   14.9571666287
   8.3750304797    9.6878350587   16.6551329551
   1.2621886041    5.3789264678   14.4322728365
   9.7816104489    8.1401787375    8.2653970645
   9.0199374411   18.9240607944    0.4970746155
  14.4090021493    3.2660844880   17.9718784933
  10.2147145804   19.7521194377   18.3154905294
   3.5170220793    5.7947194401   10.8782259571
   9.6015541746    6.2578133677    9.4102492122
   6.6566193425    8.8952470229   11.0938177657
  13.7800982544    1.7503274040    0.3980479206
  12.9633777885    4.6935086547   18.7711756204
   6.3063630935    9.5555498711   17.0486515477
   2.2701877907    7.5272882868   10.9763872048
   6.7082944582    7.7453994277    9.1888907491
  14.9745484776    9.2046694961   15.2151185372
   7.2784528718    9.9168668521    9.3100380004
  13.8913794107    2.8872874414   11.2077443058
  13.7782228560    7.8523516329   14.0557353462
  14.6423909878    5.0966127773    8.7835054549
  15.5942358264    2.9052115733    9.8194660201
  15.3086088651    6.9282395920   10.0375108627
  15.3481588039    6.9267719473   15.4668021565
  -0.8955785137    9.3574975225   11.5828086501
  15.9297336751    2.7734936765   11.9990484214
  -1.2694518690   10.5301152040   13.3007330009
  13.3122939859    5.9783041672   10.3392388570
  14.8548770072    9.6549676325   12.2388146230
  -1.7193567789   20.4764393644   18.5671950737
  11.3972104445   12.5374410672   16.0963952606
   2.6785223178    2.2965477698    4.9840839759
   5.2698486417    6.6916678760    1.8708031691
   5.1983877720   16.5869443101    8.8547423155
   9.8392435527   11.6732880479    8.0305143450
   5.1710491647    6.3343185171    0.0888834988
   5.4523007827    2.9174306260   16.6601654051
  16.8916243011    4.0751283980    5.2906911030
   0.4618776914    2.7392769234    1.8670280153
   1.4120046755   18.3547991025   18.2515321442
   0.7416625847    1.4963089875    0.6030341527
   6.8001985088   14.2061689621    8.4785309337
   0.8421080148    4.5301159441   17.4638257706
   1.1449950166    1.1299654666    2.2320282221
  12.2045425132   11.8217762700   11.8855048743
  -0.3992856077   19.4401069989   17.0577816098
   6.6515617938   14.4130949531    6.7769146616
  13.0513646464   16.1471941586   14.3253190870
   6.0734024528   10.3685826270    1.7302616380
  13.7554073930   12.4198276231   12.5354650522
   2.0568091719    5.8871869015   19.2667843529
   2.8314356103    7.3207989794   18.6513937432
  11.6558264334    8.7639776245   17.6932245114
  12.1632822686   11.8907522225    7.6578141257
   1.0922575167    1.6048818545    5.8294637617
  -0.3812389522    2.9260066153    6.7657373806
  10.2824571634   13.9955368398    6.7663451137
   3.9017298560    3.1639962052   17.5742567665
   5.7735054450   19.8037712759    9.3129979700
  11.9282946985   15.0004400425   15.3562722784
  12.7728670785   10.7106640894   14.3852968186
   2.0306245851   16.6927970191   17.9836437953
   2.9447888133   17.9646688936   17.4922021005
  11.1695624052   16.3361301055   14.2671941821
   6.5390442166   17.9244412067    9.0802606062
   0.1706790197    2.7738619746   17.5550567449
   2.7258436660   16.8728153539    2.0586603210
   1.0318605551    8.1475073591    6.1031499631
  12.8614252344   12.0255202313   17.0003488372
   2.2191984922    2.7259391575    6.7170646670
   6.6760047076   16.6248329191   10.0566439763
   8.8276135816   11.2997298907    6.4086243831
   4.8302703896   10.7799591730    0.5186149882
   6.5684425048   12.7656770133    7.4735937019
   6.1098703857    9.5466274740    0.1236475072
   3.7855884239    5.8161335359   18.7269713074
  12.3776249281   13.5824169503   12.2639935215
   3.0893643238    1.6248004665   19.2190782506
   3.8490902723    3.4383526371   15.8630345113
   1.3997816805    3.1681672670   16.4442822788
   2.1431556936    1.5018954455   16.1307826934
  16.4389932137    2.2462105666    3.6759592185
  15.5141865832    2.6883327038    2.2321631630
  13.2051426979    9.8884062696   17.3995906368
   2.9649146918    7.7780203841    1.2065545478
   3.7472011495    9.4821396674   19.3747115242
   1.4519537165    7.3025598132    7.4643969967
   1.1431553314    4.8633532592    7.2372306027
   1.3056369412   17.4153011771    1.0732714017
  12.8428643228   11.1870618861    6.1561096402
   7.9480442825    1.4959948832   11.0088888264
  12.0930802747   12.9566563977    6.1795905370
  12.5400726930    8.7756589636   16.2325848955
   8.9712229820   13.6346528482    5.7776509096
  13.8834622671   12.1488869187   15.1014873079
   4.2227473815   18.8072908709    8.7939352012
   6.0220622731   14.7915630656    2.9783427592
  -0.5305501324    5.1204298647    7.9248082625
  -0.2289363995    7.9789450016    7.4916160125
   5.4579700669   14.9479060936    1.1743240112
   6.1537137959    3.0430350095   11.1850945223
   1.0412592273   14.6932010750    0.6280718959
  13.3825488768   17.8609318936   17.3750764262
  14.2680169481   16.6392717367   16.4447210550
   4.7616835880   15.4722695737   18.5687761491
  13.9103643376   15.2657453668   12.6743197040
   7.8835569220   14.4751391728    3.4566712555
   4.9039849467    2.8549925891    9.8697187241
   3.5872025139   19.6857969057   11.3433726060
   5.5035794455   12.2950499676   17.2974888298
  15.2606448351   14.3141594374   12.0656301163
  14.6764653048    0.1640562489    2.4174558988
  13.9477991600    1.4520090426    3.3758166029
   5.0902584853   17.5883695248    4.9586646126
   6.5682871840    1.4971382284    8.0190097015
   3.7918333293   19.0817387934    1.6560508939
   0.4646433033   15.2798156903    1.9409331809
   6.7841501584    2.3162081341    3.3825690592
   3.1895978961    2.6107701901    2.1752934349
  -2.2127559686   17.4817355054   11.2115756221
   0.7593254878   12.8599847040    2.3034121267
   2.1166774781   12.8758010437    0.8438574874
   6.6493621480   13.2507406936    3.4797240805
  12.8298410961   14.7795355002   17.4835578398
   4.8927770294    1.8763021750   11.3220524704
  14.0112693795   15.7926366483   18.4173947352
   7.0333585335   13.0791015556   17.2270956199
  12.2429852264   14.0179028788    8.2672998678
  12.7316447271   17.0054081289   10.3154662297
   5.2900167206   13.2547371656    1.3768227473
   2.9992197013   16.3585045835   11.2794167529
   5.8610205914   17.9819066782    3.4008137436
   4.6611568006   16.0831923928   11.6654603686
  13.4661819400   15.1240232724    8.9738132644
   4.6325185034    2.9184781814    1.0958926331
  -2.2831475727   15.8739087544   12.8937680525
   6.5478754273   15.6736641468   18.6186631551
   2.4369515102   12.2804356304    2.5736071676
   7.9150590016    1.1489628385    7.0065588521
   6.4114831000    0.6410010702    6.3851499292
   5.5934001415   14.0176930878   16.6242285935
   7.9615037210    4.2715768661   17.2692319117
  11.8590454935   20.0289823025   11.6917196390
   3.5546012457   14.6070713462   14.8856443656
   5.0632169926   15.1257287085   14.1465090242
   9.9300617752   14.2496385169    9.3748550443
   3.7756687406   17.2962047082   12.6558175608
   4.3842984775   17.0887050709    3.3525127289
   8.5139830591    0.5456870899    2.3239048179
  -2.4987279999   17.1076477570    9.4588969814
  13.8927669694   18.8234937602    4.0121646338
   6.7405536155    2.2532706247    1.6210926226
  12.7323631162   17.5914199985    3.8840766588
  13.1489640453   18.3261123149    5.4484784100
   4.5973035447    3.5014838248    2.7971018535
  12.2060679125   15.8986469544    8.0192685665
  13.5140358120   18.1462078616    9.3127560049
  10.1210178761   15.0742796808   12.1816345443
   0.4850630701   18.5788206169    9.8574122610
   1.8720362369   11.8597146412   10.8229142497
  12.5351135718   13.5260275594    2.5079772614
  10.7740941013   13.4473885870    3.1513919014
  11.3005781536   18.4580082674   10.9720428588
  11.6811177972   18.2543250697   19.1580974556
  11.3610701635   15.9075150161    0.8386083104
   1.8284114822   13.3021544276   11.8550535892
  11.6159440570   18.6530053395   12.6225656992
   0.3005538882   12.5865198243   11.2889555338
  12.0060830297   12.3074626179    3.6980903020
   5.0277044652    2.2417763922    5.2827121049
   9.9193128472   16.1813568794    9.5035477057
  15.3770285260   13.5229364169    7.9613777506
   8.9151718102   11.6204731708   10.5115151681
   4.7655174624    2.7436225301    7.0228510670
  13.0973798986   15.9998314558    0.5213932289
   5.8198561077    4.5974951183    4.7008267396
   5.7981092220    4.9393319616    6.5023379414
  14.4303295815   11.4399032653    8.2629093526
   5.4676191145   19.5489046222   14.6296855552
  -0.0497092678   19.6734783525    8.5593213084
   1.2016734413   18.4437781986    8.2192970299
   8.4933300335   15.0046907905   11.3351408792
   4.2690381981   16.3749630227   16.2872300683
   2.9396926609   16.9649199469   15.2293872556
  -0.8327745160   13.1985318435    8.4469568566
  -0.6039522041   11.1828007855    7.6904823964
  11.4064438159    2.7840186202   14.4258586783
  13.5942555611   15.3342239574    3.4805019375
   4.7719521440   18.8588644105   16.2679274706
   8.3365856298   13.1978381991    9.9929599934
  15.6647110447   11.2126886274    5.5689702442
   3.7035918839   19.2490829187   14.8866768701
  -1.3976417527   18.8740742047    6.1413743120
  -2.4785380418   17.5006260130    6.3349410388
   7.8118100083   12.7234817140   11.5245206531
   3.2415659515   12.6126661858    9.2150098392
  -1.7145263615   14.4831398043    9.3698102974
  13.0789744232   15.8876898804    5.2308015714
   3.6865518917   14.0830495275   10.1271952929
   0.4459226518   17.2877956953    6.5028091844
  11.4445912736    2.9346340890   19.1116003441
  14.9247193863   10.3916452932    9.5602853421
  -0.9020326172   16.0729999486    7.2503854802
  15.4687144006    9.4597393434    5.0703944061
   4.4344869346    6.3286574687    4.4489841576
   7.4820023802    8.6029867813    4.1747348352
   4.1930788019    6.7747515955    6.1847344509
  -0.8417564707    9.7786878285    8.7124791627
  14.2394331791   13.6719109976    5.9986489411
   0.7552468356    7.2672244339    3.7251071898
  -0.7067878401   10.0927194170    5.6075623222
  -0.5677657989   17.3025086617    2.8657571516
   0.4073516539   17.8956136520    4.1828276252
   2.0345180701   14.9788122743    8.2095015132
   0.8935565845    7.0296976213    2.0122858220
  15.1568568039   15.0766089098    5.3840140901
   3.6092424191   15.4119537909    8.3228954133
  11.5226221477    6.6046331056    3.8571343279
   7.3312051942    7.3162569219   17.4276435564
   2.9536463768    6.5194426809    5.3136559579
   1.2923174704    8.5178691037    2.8217675304
   6.6741875104    6.8745172685    3.6554911388
   8.1905593836   16.3294185218   16.6895213691
  11.2548847864    4.8842257454    3.0808027036
   7.5614688341    7.0286584454    5.1560331499
   1.0400946552    4.7016178262   12.0859551990
   8.3510494888   19.1141317684   11.9153555256
  11.3412910213   10.3925443210    3.9879090006
   9.4763669159   15.1346436858   15.9746082845
  13.0020234711    6.8590192365    6.8820087352
  11.2522562650    8.9018179967    3.3424491211
   9.3980807533   17.6591658340   11.4949854910
  -0.7727101839   18.8723460555    3.2242323257
  11.5760711934   10.9191605080    1.5432168463
  13.0870422657    6.9145675616    1.6523651886
   8.7695672911    5.1259362400    3.1732876119
  -0.9801520612   13.2019264064    4.9472655200
  11.8716421673    9.1828740468    0.9999206992
  12.3850055536    5.2110808096    1.1557720817
   9.8733958125   16.4643006219   17.1209786394
   9.2883879812    5.8044931476    4.6223873747
   7.4996995586   17.4527469583   11.7093248388
   1.7531430277   14.6802480699    5.5564472529
  -1.1019168679   14.2718587955    3.4365522356
   9.4544272586    9.2942404819   10.5708141915
  14.3658008156    7.7031558242    6.5567321432
  -1.1380634677   12.4630602783    3.4365171852
  15.3099808171    7.7009645635    3.4320706893
   3.2794365675   15.5204023852    5.8774127382
  13.9376816472    6.0596120479    5.9165248018
   7.4115004358   19.3771239416   13.6803833974
  16.6588435735    6.4427021419    3.7793459038
  12.1050254461    9.0345531555    5.9646385663
  13.1232708664   10.5972223471    0.6990672798
   3.4749814431   13.9272843835    5.0818417409
  13.7026553785    9.6984336574    5.1226066443
  12.0601260563    6.7284649062    0.1494664855
   9.9436215459   13.1766110311   17.2089886246
  -0.7837539431    7.9873446362   14.0627243011
   9.5538210245   11.6049965346   19.1382304597
   7.2846805988   18.0972090115   14.8834388197
  10.7688934014   14.1734964515   18.4093321455
  14.7095867587    5.6736218475    2.1787298318
   9.4354458479   18.9459770052   15.8176372833
  15.1406800671    7.0016076423    1.1950882672
   8.0902873457   12.6981312322   19.0364378209
   1.9518913161    9.9893739562   16.6714412244
   1.2709038805   14.3631348928   16.0035227156
  10.2078135755   18.5315426688    5.7371337560
  11.1559087672    1.5838584934    6.4039841081
   5.3092739855   10.5591234257    8.2079055716
   3.8256508280   11.3445971412    5.1895810820
  11.4126483327    1.5380142127    8.1317911192
  16.1150349542    9.7073791757    0.8232976453
  15.6753568866   11.3910606735   18.6521358383
  14.7641410336    5.2647910499   12.0973038793
  15.3806273441   12.9028721488    1.5841469083
  14.5558304173   13.8062391795   19.4371238175
  -2.7829519907   20.0935828248   11.9079722503
   2.7869941554    1.5835751190   13.2898301023
   0.6548846426   17.5173791618   13.3031899233
   1.5733004272    2.0771193396    9.8677033624
   7.9953429538   20.0969227499   15.8382086743
   4.3521666139   11.8720988498    7.2287634844
  -2.0537764866   13.9234962956   15.3918249738
   9.3299778526   17.7519044621    3.7754571880
   3.4473304739   10.1716192213    9.4392139159
   2.4086854692    9.2170472986   15.1887447360
   7.7291359337   18.8211580518    5.3315276392
   0.4141420594    7.2156790137    0.1858415042
   1.8493323751   13.8751410744   14.3701030161
   9.5850446463   11.0994805864    2.8687309651
   2.0548420593   10.7728140550    8.3704761125
  11.3395744317   20.1047721391   14.3866578071
   4.3742900401   12.0016739092    3.5713512922
   2.7435170379   12.6628980767   16.0365679871
   1.5787761003   19.1132763264   13.4846820103
   2.7449416901    1.6052700312   11.0439472656
  10.0581665241   17.4579262460    7.0897314064
  -1.3894063837   12.2473940014   15.3141273589
  15.5374740312    3.9815442583    0.5581959826
   3.6272711865   10.3094337176   15.9489045860
  14.3894157475   11.4159174081    1.2188528080
  12.6366598199    0.8178427531    7.0069916368
   3.9680630372   10.2590214028    3.8984634358
   8.5115866697   10.3353613820    1.6972743998
  15.9231063657    6.3902339289   19.0904442663
   6.6558618737   10.0734525198    6.4828119853
  14.1059754262    2.3511848641   14.1353407467
  -0.7599016589    8.0528609242   18.2378608369
  10.9075719146   16.9528014465    3.8426581002
  16.5846195191    7.7944636515    0.1312485956
  -0.9239109505   19.4453403659   14.0911929394
   0.4615147145    1.4181410403   13.5155026997
   1.5963605052   18.1593346745   11.8725500739
   2.4964904847    3.3407976964   10.6475782219
   0.7259921403   10.0685763089    0.5215854206
  -0.4188361540    4.1414768419    0.1123920024
   0.3638309086   12.0672653158   18.5307169893
   1.0065263894   12.0367796366   16.6857851730
  14.2912108024    1.6790886335   15.9185283169
   9.4126312648   15.9940066773    3.2782709475
   2.1689350476    9.0706766251    8.6484155063
   7.3479133112   17.4487896781    6.4968141129
   5.3060942470    9.2833017057    5.6881823511
   8.1060394756   11.7751355223    2.5840293766
  -0.8888460643   13.4518683159   16.5627655826
   4.6265039041    9.0697691722    1.6285276826
   8.4396720272   13.9633836086    7.8108142666
  12.2763941094   12.6901166711   13.9742717898
   4.1625105913    1.4495745155   16.4532123580
   1.9840258320    3.1669511349   18.3564090793
  -0.0206959837    6.2705827392    6.3097168337
   3.5463026814    5.6183933128    0.9725325833
   0.9658040570    3.5925182718    5.2755697610
  10.7853538780   11.3367549304    6.1304014469
   5.1979466629   18.0551156768   10.5097100495
  16.8902201904    1.0396559247    1.7386754197
  11.3666995755   10.5706666625   16.5765521057
   3.0031802525   16.6260043052    0.0509574177
  12.2538945628   17.1402389943   15.8096715881
   6.1802434210    1.4172490297    9.7608253675
   2.2592812209   14.3717144391    2.2813884183
   7.0934879265   13.8500112830    1.5137420614
  11.9774016740   19.4550754727    4.4059077366
   5.8079508885   13.6760282947   18.7606679549
  14.9482103382   15.6109556515   10.8001605146
   3.9830622601   18.9953047312    3.7284549964
   5.0168949143    1.4049530778    2.5322382771
  11.8600958524   16.0468973542   18.7266997397
   6.7824121361    2.7196268318    6.3964441579
  13.3478988510   18.5824125865   11.4102035548
  11.6343713470   15.1933566276    9.9833480907
   3.2245472822   15.3693184368   13.0137987584
   4.8620633452   17.5889393243   14.6087460329
  10.0920178537    4.0436015145   15.5458584723
   9.8649404228    3.7997540956   17.9715884632
  -0.7393079387   17.7544127156    8.2725468928
   9.6510998903   13.3536504267   11.6166889820
  12.0695482664   14.2909432520    4.3900082129
   1.5865783321   13.7837372174    9.9492119875
  15.5914353192   12.3807443540    9.7263433626
  15.8405094674    9.7111258218    7.1001894681
  11.8026713516    2.8471406235   16.9672245935
   3.9710043183    4.7619042599    5.5732776918
  -1.7532052113   17.4438521280    4.6270871447
   8.7745841467    7.3546658346    3.4500243135
   8.4249608144    6.9979832113   15.7651194817
  14.9743110845   13.3080646590    4.0346282584
   3.0698014152   13.7571750966    6.9710309227
   8.7745499929    7.8557284650   11.7909221204
  13.0861305369    7.5792962492    4.8120402370
  -0.7585108996    8.1095289680    2.5798272792
   0.4969610997    6.6678334214   12.3282611063
   8.7796750005   14.7559652917   17.9857392883
  11.0208637276    6.5303848448    1.8333369363
  12.9978932354    9.6976261524    2.7021972698
   8.6759077626   17.7917870922   13.4345887298
  16.7354385418    5.1374137757   11.3545738806
  16.0337312282    6.9790436851   12.6960883225
  16.6603600535    5.3378342037    1.6016026000
   1.8482993513   11.1350187095   14.9825800100
  12.5007249123    1.2386188135   14.6291949507
   5.7334078449   11.1504128975    4.9895196327
   7.8054323444   19.1974925516    7.3767798583
   9.7176386279   11.8877758201    1.0385210979
   0.0597143137   10.0002599979   18.3800939320
   0.0028555039   19.2035963717   12.2234477299
   1.2274250553    2.5039698295   12.0005476202
  -1.4902598905   11.6912257475    0.4250593312
   9.6421330612   16.5935373463    5.3719358634
  -0.0916449472   13.6661090355   14.5861596275
   3.5160125734    9.8799139798    7.3013507367
