B2 C140 Ca1 F48 H298 O66 
1.0
1.7827250712361248e+01 4.7247062892190891e-16 -1.5773708595038542e-17 
-3.0590711731674580e+00 1.9250723694678754e+01 -2.7164171172660954e-16 
-1.8744253678334014e-01 1.4287952942327886e+00 1.9415416671322710e+01 
B C Ca F H O 
2 140 1 48 298 66 
Cartesian
  10.3826499526    3.8246350023   16.7640517153
  -0.9291040934    6.3178355565   12.0753092403
   0.0396582345    1.6216014939    1.5570553984
   7.2346765486   13.6758436349    7.2996225897
   4.7090142239    6.5840498640    1.0308992782
  12.8385000359   12.6629673301   12.3502132827
   4.4605925561    3.0212425451   16.4738090707
   2.3545613946    1.9463275537   18.1544294492
   1.5669843523    2.5817790993    5.5158832238
   2.7802203463    1.3492448362   16.8632450482
  -0.3362596809    4.0421023867    5.9096176388
   3.1859845587    6.5054074190   19.0425345507
   2.3049483722   17.4565267283   18.2200654280
   1.0015196545    3.7345328431   17.3370861442
  12.0855173942   15.9409125561   15.0763067885
   5.1697789257    9.9456833572    0.8126000601
   5.9971624460   16.9892362491    9.4184137877
  12.3758260922   11.9168417591   16.0261995735
   9.6118598206   11.9905819123    6.8285570405
   9.4186341347   13.5055985706    6.5564448715
  12.9415555366   11.7652368247   14.6390373505
   4.0142464626    7.9494301296    1.0220020143
  12.0591142655    9.6194854132   16.8016879949
  11.8888564220   11.8364813040    6.2688535460
  -0.0572181961    5.0584357131    7.0334293217
   0.7995969759    7.2688804818    6.8138642086
   4.7491236492   19.1001918931    9.6599998637
   2.0503196786   16.4523094255    1.1525247637
  15.8910100342    1.6993505715    2.8178119795
   3.8173749009   19.8863706390   10.6080027959
   1.2416020884   15.1697020560    1.5030793033
  13.2587478544   16.9016371376   16.8006459288
   5.4250851790    2.5239904001   10.7511000104
   7.3450822154   13.9532176190    2.9747860359
  14.7966942100    0.8520074794    3.3126089301
   5.9003986020   13.6730002776    1.0857098290
   5.7079708761   14.8854856617   18.9769010799
  14.9431665568   15.3576303750   12.1197561501
   1.9363361886   12.7901889888    1.9395752654
  12.9286217852   15.8265738948   17.9114622878
   5.9247116013   13.4266285793   17.1180126643
   4.9128604832   17.8566580960    3.8870923499
   7.2623134515    0.4432795920    2.6185915256
   6.3850296799    1.6261573242    2.6615830225
   4.3149246643    2.5137148282    2.0916120608
  15.0799785696   17.0977449061   10.4049143287
   6.9813227542    1.3535469754    6.6875140348
  12.3516148467   15.1648206832    8.8522321535
  13.6605652713   17.7569069897   10.3083082806
   3.6817023470   16.1742003744   11.8939661358
  12.9628865941   18.4088637294    4.3685114547
   7.7253496860    2.6352524751   18.1214185048
   7.9742866810    5.1267009240   19.1009474977
   8.2367704342    4.0749301683   18.0180324250
   3.9624284789   15.5627850585   14.1094372181
  12.0868152844   18.8643395856   11.5701144531
  10.2173683881   15.0424487767    9.8547747760
   9.6444848863    3.4936269036   13.1729664896
  12.0322819893   15.8347990107    0.0109664467
  11.9396762560   13.4017739170    3.2769908300
   9.6527983723   14.6892306122   11.2416558005
   5.4735890969    3.0600949519    6.3021290161
   1.4811052074   12.8825949992   11.1691983499
   3.7730656998   16.7972605846   15.0225620384
   0.1023559794   18.5240208769    8.6022947564
  10.7083713564    3.7197085325   14.3255491490
  11.7669764292    4.8334167844   13.9124041135
   5.4047939522    4.5182456818    5.8235217396
   4.5746666295   19.0098216377   15.0721382950
   8.7592094616   12.5649676587   10.7201693139
  -1.6017361613   13.5340779010    8.7456777619
  15.1524560198   11.3519075536    8.8871093386
  -0.6261512462   16.9455142770    6.8424382504
  -1.5013368129   10.6468401524    8.1497208274
   6.0048606782    6.7702903271   15.4636475970
  13.2418291867   15.1148648093    4.5491455051
  -1.5141050099   17.8104878423    5.9676701712
   2.9028467038   13.7050898197    9.3083401777
  15.9652635435   10.2664388547    5.8408401182
   3.8431964987    6.1981382586    5.3540135836
  12.0121328236    2.7352251411   18.2575975981
   2.3153012869    5.6893833045   13.3452006543
   8.9882441427   20.5499764658   18.5101118331
  14.4122380666   14.0159412195    5.0262916421
   7.1864412874    7.5300406784   16.1536190600
   2.8258047768   14.3989544947    7.9860192429
   7.5582685623    7.3336345430    4.1086025982
  -0.5476238326   17.8114819058    3.7333935483
   7.2257108570    9.0778235554   16.0930108107
   9.7462092842    7.5947438744    9.5453887093
   0.5163361264    7.6784576891    3.0152286598
  13.3371682138    3.4916049958   18.6089787982
   2.2737047174    6.0979159468   10.7604181579
   1.5019816730    5.7838273261   12.0803895357
  10.7662632270    6.0069175967    3.0487075526
   9.3484813156    5.9806464588    3.6724162762
   9.0221844132   15.7713188778   16.7575616343
   8.7503708652    8.3980696704   10.4217296196
  12.2490508796    9.4187627602    3.7222496080
   8.4942465036   17.8255536015   11.8537391655
  -1.3337415878   13.1169000157    3.9962461468
  13.9610583102    7.1678835067    6.0119328446
   7.2571833961    8.6949933540   10.0230088392
  12.3769710289    9.9097171753    1.4903483268
  12.0167373047    6.3373144630    1.1166697210
   2.8313192240   14.4534303395    5.6605554918
  12.6874707631    8.8321579677    5.0060023492
  15.9062593059    7.2030269977    3.1816581153
   8.0941306700   18.7203885117   14.0012266901
   9.5747292409   13.7761527472   17.9840187471
  14.9317780314    8.1562343073   14.4648918958
  16.0824783006    8.1995803087   13.3537716433
  15.5782671226    6.1804234144    2.0736987947
  15.2405599697    3.4458989031   10.9191849737
   9.1317655243   12.7849864866   19.1282833684
  15.2865979508    4.9732875519   11.1533973144
   8.8505030305   19.5391001867   15.0162488516
  14.6299150656    5.7269941678    9.9175812492
  16.1195004761    9.5567896174   12.5894273397
  11.3347239625    1.1746181955    7.1127857877
   2.5834808591   10.3268866343   15.6006783350
  -1.6231541066   11.6641811247   19.2202236778
   1.2833000335   13.6580732592   14.9507555157
  15.2933973591   12.0697771147    0.8131451552
   4.6666569309   10.9541826832    7.2831125337
   4.6819920509   11.1147315264    4.0471311361
   9.3898716740   17.6236949979    6.0686573618
   8.0045864397   18.2689994001    6.1111985843
   1.7990610464   12.4675891651   15.7089893821
  -0.7240364673   20.0161013460   13.1010667182
   1.1700383431    1.4192710112   12.4817245040
   0.9156970305   18.4539324925   12.5345356075
   1.9061997053    2.3186677835   10.4398754606
   8.7977397189   11.1976752890    1.9354772869
   2.5702625650   10.1043283767    8.3421336450
   5.6183829638   10.3516490815    6.2608908374
  13.8074561890    1.5392646204   14.7341478058
  -0.5022426851    8.8912802730   18.6233184019
  16.5841155484    4.6554094643    0.5153373228
  -1.0239932631   13.2940292189   15.5216340366
  -0.1049605215   11.2256181080   19.1412496145
   9.7651231279   16.6438991444    3.8468216945
   8.6586733153    7.0750078287   13.4602396799
   7.7859377543    2.1158632658   16.8980634830
   8.6499766083    6.2820478615   18.8293683281
   9.1939123459    4.5922434329   12.4609490813
   8.5737108718    1.9034849103   18.8885242261
   8.7023936779    3.2475358185    0.8589683282
   6.4459176369    2.5995847013   18.6858261792
   6.7451905683    5.4728922488   19.2682663358
   8.5008420717    2.9464217065   13.6862324012
  12.3214324909    4.4352100274   12.7859964571
  10.1582314730    2.5907033680   12.2729785830
  12.6403054503    5.0817586157   14.9347712752
   4.7220116340    7.0260169536   15.7530629351
   6.1761639900    5.4512699994   15.7300390543
  11.1893493660    6.2164484400   13.7789475691
   6.1264299284    6.9054790450   14.0035916517
   3.0423207839    4.5253121070   13.3366968497
   8.0039031823   19.7144705245   17.8580028389
   3.0394108752    6.7101162770   13.6363504390
  10.9777872460    7.7994194728   10.0793499142
   1.5583381883    5.8321574339    9.6146715846
   7.0922034064    9.4659756972   14.7640138279
   8.3811173066    9.4876919305   16.4258982172
   1.4840325614    5.4572524758   14.3745467374
   9.6461833587    8.0524665469    8.2783383006
   9.1334097179   18.9395660880    0.4026255127
  14.4062788074    3.4663616565   17.8092408551
  10.2713688722   20.0654173849   18.0766878841
   3.4735281067    5.4441651657   10.6936146571
   9.6314272461    6.2800280921    9.4969562937
   6.4716627349    9.0812065574   11.0187937301
  13.8910370744    1.6780346588    0.4541472180
  12.9727981436    4.8019236751   18.5810612829
   6.1620030495    9.6711101942   16.8495943244
   2.5285922045    7.4214466064   10.6561737672
   6.5174923861    7.6358457854    9.4454325547
  15.2041318355    9.2545265890   15.3045749274
   7.2538509739    9.7172540966    9.0499650356
  14.0091588439    3.0424525364   11.2936850159
  13.6775498568    8.1970046771   14.0650374747
  14.7023025033    5.2225921573    8.6570880630
  15.6422701428    2.9685364325    9.7256015880
  15.1570944564    7.0020629616    9.8142174175
  15.1676197055    7.0052868071   15.2254154797
  -0.9938177171    9.4477013325   11.4306805286
  16.0870583551    2.8079623393   11.8579875840
  -1.3886370176   10.4714783788   13.5169782781
  13.2754268458    5.8074830987   10.2007101142
  14.8313864562   10.0104968615   12.1445782662
   1.7109577183    1.4284142813   18.7664307901
  11.7146106006   12.7963910279   15.9286367296
   2.0772128020    1.9444834756    4.7759463377
   5.1330109229    6.6231804399    2.0599223847
   5.3444009242   16.6066547109    8.5780611963
   9.9474541103   12.0072422126    7.8808017910
   5.3847137346    6.4465659096    0.1765109440
   5.4312855357    3.0776610892   15.8368570378
  16.8134903174    4.4851831003    5.2248068570
   0.0994975045    2.6826933372    1.8065736086
   1.3213384374   18.0132224928   18.0695672815
   0.3177058748    1.4058783076    0.4632837834
   6.7388593680   14.1895033063    8.1634415489
   0.4277297947    4.4149535859   17.8905145601
   0.8583503568    1.0517549937    2.0561571076
  12.3916408711   11.7484405956   11.9459080661
  -0.4360865457   19.5163673717   16.8659413093
   6.9491007787   14.1766802335    6.3830129401
  12.9289078428   15.9735521622   14.3516837300
   6.0112098902   10.4441642678    1.2558842138
  13.9152927035   12.5567203277   12.3270342299
   2.3722884329    5.7180435544   19.1277078229
   2.5874776623    7.2919401988   18.6489397944
  11.7528963241    9.3041562511   17.7896514970
  12.1779210691   11.3857083532    7.2264150039
   0.9308504451    1.9010735371    6.0976005576
  17.1411648614    3.0920215803    6.4481299055
  10.4693950464   13.9653416156    6.4567579375
   4.6991368523    3.4642189012   17.4405379991
   5.2845980390   19.7811854862    9.0898038626
  12.0348016775   14.9119575671   15.5137924331
  12.6667219615   10.8336871530   14.1066864229
   2.1269902390   16.3474757122   18.0492054254
   2.9886436244   17.6956977096   17.4490204024
  11.2003826322   15.9789042362   14.5240417881
   6.8992674925   17.4823883643    8.9611328581
   0.4431218835    2.9023443156   16.8859659254
   2.6991817176   16.6131405564    2.1010505564
   1.3875266194    7.9393605054    6.1767412314
  13.0546461972   12.0603720690   16.8514352917
   2.3121841313    2.9188347391    6.2112391539
   6.3931165008   16.2419461758   10.0086578441
   8.7012376057   11.4754007304    6.7106047493
   4.3962288799   10.7436588610    0.8121787531
   6.9746376434   12.5660939755    7.2264816505
   5.2178448807   11.2004430349   19.1592636748
   3.9502480475    6.2656514092   18.2308617006
  12.4306685619   13.5615309835   11.8941310874
   3.2640633262    2.2471312946   18.6048558797
   3.7131693262    3.5281316681   15.9276748853
   1.3748991727    4.4241020468   16.3945287511
   2.2546991908    1.5302166083   15.9563764919
  16.4858514429    1.8795423948    3.7649931223
  15.7110287150    2.6977605723    2.5384105224
  13.1979837329    9.6320074162   16.8910690416
   3.0086795431    7.8031919951    1.5309890298
   3.7236984125    9.6463093963   19.3427076368
   1.5576408027    7.0067070636    7.6300520091
   0.7519464157    4.7406389946    7.7591933982
   1.3912989870   17.3422856034    0.9477236690
  12.6556551287   11.4884720369    5.6432400664
   7.4534402460    1.2744727825   11.3669386825
  11.9153834032   12.8920203470    6.2945545978
  11.8416459211    8.8716196962   16.0366005938
   9.0034869391   13.6947758786    5.5571432310
  14.0053009326   11.9966227113   14.6712862186
   4.0717952681   18.5790511623    8.9251287966
   6.9163130583   14.8596414444    3.3751847982
  16.8651607490    5.2923871524    7.6773319767
  -0.0883749821    7.7586609432    7.2298516009
   5.2818266162   14.6057504076    1.1341938144
   6.3542184138    3.2083419500   10.8247537818
   0.5905466712   14.6263759661    0.7759706398
  13.4274213892   17.9968404823   17.1587765034
  14.1989848119   16.5291275967   16.2811313689
   4.6486351862   15.1663582952   18.8143832427
  13.8838188090   15.2533737247   12.4868551887
   8.4559961462   14.0934611124    3.0518608353
   4.7002130366    2.8834257157    9.9818724533
   3.3637237900   19.0725837361   11.2422177410
   5.9623565969   12.3406741032   16.8209472317
  15.3745310477   14.3548335396   12.0711300228
  11.4849035854   19.2543637415    2.5640516015
  13.9192279437    1.5497666567    3.3836579492
   4.7141929606   17.1288912435    4.6569313445
   6.2178877806    1.2220168566    7.5088997841
   3.8640342161   19.0163144207    1.8547135619
   0.5034691363   15.5165053108    2.2633265904
   6.3578556050    2.3881176760    3.5564967813
   3.2175610812    2.4078895370    1.8675586347
  -2.1538598034   17.5015603550   11.2651840441
   0.9698953246   12.3543808291    2.1391915776
   1.8895302411   12.5992250841    0.8945225981
   7.0234548468   13.1256397100    3.7048972408
  12.9193342655   14.7698823080   17.5705070327
   4.9111241599    2.2898936442   11.7787707604
  13.8523573041   15.9785691878   18.5820806477
   6.9197271129   13.7700233217   16.7086081179
  12.0376684913   14.2268979257    8.3853018219
  12.7407853931   17.0238867563   10.3436151900
   5.3598958502   12.8359416374    1.6070167530
   2.9170155679   15.9662782085   11.0349867937
   5.9070719173   18.2240009882    4.0556278665
   4.5873579758   15.5878827164   11.5942426779
  13.3947157126   15.1984086048    9.1075804121
   4.6659545892    2.8696039698    1.1344177509
  -2.2758501315   15.9813062976   12.8372215256
   6.4110624207   15.6149113710   18.5360693448
   2.6855459971   12.3221245460    2.5390637060
   7.9951290680    1.1574004433    7.0543460167
   6.7544889290    0.5509022614    5.9242716957
   5.0840223093   13.8281027051   16.5948498313
   7.8345656094    4.4593729067   17.0963780694
  11.7882361295   19.9186323876   11.5498909234
   3.7354319114   14.6866912503   14.7770185165
   5.1210627000   15.4677621416   13.9019568464
  10.0712252601   14.0961621974    9.2046513249
   3.8925055303   17.2218240820   12.0835618410
   4.8670246154   17.4214906460    2.8933616310
   8.2130612944    0.8432747721    2.4790772631
  -2.2669714288   17.2692979946    9.3488438380
  13.9204087846   18.9278549545    3.9933630640
   6.6700588500    2.3479932422    1.8920115018
  12.7125348799   17.6695876640    3.6045200795
  13.1136111908   17.8980762256    5.3538415712
   4.4502738717    3.2239114067    2.8948780558
  12.0180598034   16.1227416770    8.1634706527
  13.5404640219   18.2121345615    9.3400473046
  10.5247292146   14.8388911750   11.8928935745
   0.3064562908   18.7076676134    9.7052275959
   2.0142860120   11.9166739725   10.9972880404
  12.4139026461   13.7050254327    2.2596406402
  10.8846864233   13.2648229036    3.0597884466
  11.4855095893   18.3700614535   10.7142419873
  12.3003573186   18.0913285066   18.8976407831
  11.0795895355   16.1160983170    0.4185779471
   2.0566250561   13.3045824035   12.0740221679
  11.8021369803   18.4055147452   12.5495629675
   0.4757587592   12.5771328668   11.4098968261
  12.3623243919   12.4412908895    3.6415187319
   4.8273399470    2.4005882139    5.7406272682
   9.8655203882   15.9080874524    9.3602123538
  15.4948188810   13.6645209864    7.9664399381
   9.2572968807   11.7101957158   10.2528938137
   5.2167753656    3.0869720346    7.3679676524
  12.7408744530   15.5206565766    0.7257038004
   5.8894210727    4.7018345332    4.8370884044
   5.9396779649    5.0075090136    6.6617744068
  14.4119117247   11.6541391619    8.1301326147
   5.0979180778   19.6923147836   14.5237243126
  -0.1250597481   19.5298064472    8.1049575097
   1.0822257652   18.2118492698    8.1874808421
   8.6409081779   15.2583068409   11.5395066426
   3.9991161143   16.5525196671   16.1344396431
   2.6427685595   17.1790016232   14.8193567668
  -0.6475960086   13.2171495836    8.2676919315
  -0.7219971964   11.3571760246    7.8216635268
  11.2524587881    2.8196397771   14.5190634080
  13.6573546490   15.4409770242    3.5091001767
   4.7241489192   18.9269919996   16.1297874719
   8.3616712748   13.1839572450    9.9563597336
  15.4146308466   11.2165139408    5.6144226771
   3.5874023999   19.3366452044   14.8945607516
  -1.1644210172   18.8639470928    5.8621050852
  -2.5566344670   17.6313460179    6.3484544133
   7.9286700000   12.1902220845   11.3864628768
   3.1831217309   12.6073538895    9.2168091705
  -1.4309469997   14.4551726438    9.2900873208
  13.0947207726   15.9825766331    5.2447167610
   3.7685159577   14.1710738160    9.8895810317
   0.4377125174   17.0811031316    6.3597963125
  11.3328556550    3.1498869139   19.1200518384
  14.6453745990   10.6907514736    9.6232680976
  -0.8849541210   15.8634799648    6.8389362376
  15.7482071710    9.5282199741    5.1009779074
   4.6043104646    6.4099027479    4.5472873884
   7.2798544322    8.3789582518    4.1814667924
   3.8589575658    6.9654946622    6.1694366555
  -0.9286489136    9.9861741898    8.8134608045
  14.0470858026   13.2784685812    5.8285890824
   0.5977737691    6.9528279503    3.9881346474
  -0.7838925887   10.4838281874    5.6825338494
  -0.5256732449   17.2268063113    2.7113299846
   0.4451532747   17.7305385435    4.1653069542
   1.8925205366   15.0234922895    7.9789502088
   0.8943628962    7.1387423472    2.1714227285
  15.0954913009   14.6539601630    5.4950823111
   3.7338287049   15.0877515388    7.9752720093
  11.5336459068    6.5158292466    3.6093451907
   7.1094517656    7.2918786081   17.1802423740
   2.8880016858    6.2515090502    4.6636465767
   1.1539549743    8.6048031711    3.1714826909
   6.7103695184    6.8146918508    3.6856034820
   8.4088101633   16.6817228992   16.7297864343
  11.1038472465    4.9487429301    3.1544360469
   7.5436965497    6.9741834207    5.1745159025
   1.1227316382    4.7076798466   11.9922336377
   8.2929217052   18.8042832342   11.5010956290
  11.6426561796   10.3538138652    3.8588336334
   8.9078556297   15.3456523150   15.7673037438
  13.4250229047    6.8260605985    6.9616330906
  11.4924389670    8.5987224034    3.3897348195
   9.3437633279   17.3708045683   11.3728225100
  -0.8568514857   18.8580723433    3.5318253225
  11.4405532862   10.3477254561    1.8267304311
  12.7112483639    6.7710692735    1.7848263736
   8.7368009465    5.0977115190    3.2777621755
  -1.1432615532   12.6215014443    4.9656058371
  11.9926732721    9.0014795902    1.1769131504
  12.2478923453    5.3141869747    1.0388579967
  10.0495857484   16.0389964866   16.8701776315
   9.3175842649    6.0151446809    4.8290096404
   7.5859225666   17.2737970842   11.8150907618
   1.8492862610   14.7636230959    5.3124310080
  -0.8227556110   14.0990488663    3.8368798600
   9.2298904852    9.4256536456   10.4530289564
  14.6644027205    7.9741871406    6.3230341667
  -0.9948989199   12.4851568563    3.1667961569
  15.1190541923    7.8662922139    2.9395285551
   3.3895572216   15.4841941639    5.8516075641
  14.5780068124    6.2589444202    5.7864702968
   7.5795390004   19.5796353127   13.3727190702
  16.0497855132    6.6698646070    4.1219975824
  11.7862746317    8.6912325674    5.6544970133
  13.0517547130   10.4299894331    0.7710196514
   3.4396675386   14.0492313744    4.8637305326
  13.3677565708    9.4279482356    5.6446093832
  11.9193547650    6.7380878726    0.1043529594
   9.7101536934   13.3470277723   17.0161807472
  -0.8576520003    8.2164068025   14.0328327542
   9.5488194796   11.8229589485   18.8637451850
   7.3786923879   18.0483902762   14.4464269972
  10.5586185490   14.1131800539   18.2658103814
  14.8318567014    5.4934987544    2.4440409997
   9.6557227913   18.8138310202   15.4274761029
  15.2119440547    6.9027893153    1.3207428470
   8.0212292541   12.7768401138   18.9340363310
   1.9666055467   10.1002669354   16.5263898287
   1.4529368121   14.5532193756   15.5694220131
  10.2161079912   18.3044182824    5.8935744300
  10.5397755249    1.7366432471    6.5302578418
   5.1442642669   11.0932655940    8.2736508362
   3.7899079224   10.8199031499    4.6092212845
  11.5501215758    1.5305594474    8.1793531382
  15.8071908942    9.7458142459    0.5496220796
  15.7404637245   11.6220935661   18.1959768451
  14.5188268823    5.2831556514   11.9199471694
  15.4996508959   13.0897607093    1.0419430691
  14.4914740152   13.4785018593   19.3275560328
  -2.2495893482   20.0354034757   11.7375822496
   3.0105155798    1.4424630947   13.6120327883
   0.4226608606   17.6579040182   13.1340128002
   1.3363369655    1.6579351896    9.8323729288
   8.2039463078   19.7177747810   15.8487748620
   4.1053093245   11.8641836558    6.9716897503
  -2.0032133241   13.8057621813   15.3309877962
   9.5223196050   17.6841987759    3.5279228177
   2.9904502658   10.3194790801    9.2829702541
   2.6114635696    9.4559275925   14.8063575894
   7.8066678887   18.9390818971    5.2749325024
   0.0993328167    6.9572560052    0.0970071176
   1.9080704006   13.7161541247   14.0285986639
   9.0438302923   11.6495626099    2.9772708115
   1.8560309368   10.9166656120    7.9977760110
  11.2981634157   19.7771900214   14.5151267486
   4.6989082082   12.0167007291    3.4808360879
   2.8059206200   12.8478625076   16.1905864728
   1.6076456441   19.0561202058   13.0998042550
   2.8242782412    1.7029881182   10.6519202723
   9.6628892940   17.1764876797    7.0765707630
  -1.3229954603   12.2404711079   15.6064273551
  15.9125379185    3.7799027292    0.8210325041
   3.6602152609   10.6038567427   15.9813526404
  14.8564139641   11.3143768750    1.5437600738
  12.2265769838    1.1565429238    6.4739866491
   4.5813534296   10.3051840971    3.3573117706
   8.7471158342   10.0680236303    1.9150878474
  15.9594848501    6.7353821863   19.0293920189
   6.6487139444   10.3595258713    6.7462439820
  14.3780976458    2.1095604661   13.9646978041
  -0.3841296829    8.2113877602   17.6744894263
  10.7927815453   16.5410625684    3.7888538697
  16.2227796604    9.0292113991   18.7857871563
  -0.9992579703   19.1694768087   13.8270110920
   0.3206731349    1.5940797647   13.1942825371
   1.3792626426   18.0843828660   11.6331871121
   2.1671840001    3.1836129627    9.7508808375
   0.5212065033    9.7599386369    0.7427945045
  -0.3164112590    4.2415140607    0.2692421612
   0.3522827941   11.9719447188   18.4825328806
   1.2739481831   12.4529461886   16.6854668664
  14.0940252543    1.7674491165   15.7061870125
   9.1934679053   16.0943736516    3.1262804650
   2.1251193408    9.0866405794    8.4862802701
   7.2468968415   17.5105203021    6.2139996111
   5.5493587302    9.3605001899    5.9942642302
   7.7495929713   11.4854076947    1.7167796385
  -0.7957992062   13.7646128106   16.5482515288
   4.8783183283    8.8645873034    1.6302873502
   8.6721228904   14.0084431481    7.6166526073
  12.4481610039   12.9009756278   13.8002355174
   4.1849113634    1.5804925060   16.5075123645
   1.9957175204    3.3267470316   18.1509074375
   0.2967252926    6.1972473633    6.1543094082
   3.9123058820    5.3902435787    0.9379759342
   0.7889423195    3.7059471341    5.0565308766
  10.5687729072   11.4883097054    5.9639595862
   5.5463359082   18.1473310580   10.3959233877
  16.6400768360    1.0321647621    1.7440023588
  11.4563233912   10.9298839703   16.4543830383
   3.0602290816   16.3412425755    0.0865149304
  12.1682718169   17.0877777465   15.8481435697
   5.7661951197    1.3357177853    9.9905940505
   2.1163989517   14.2664034006    2.0857220244
   7.1872193365   13.7666910399    1.6695347364
  11.9310374594   19.4293583673    4.5138928014
   5.9518947279   13.5654178013   18.5364697249
  15.0930851766   15.6670612675   10.6960052945
   3.9994918995   19.0020100283    3.8274288149
   4.9657495212    1.2755181550    2.4189859916
  11.7055025015   16.0970386184   18.6091510058
   6.8432246579    2.6334334416    6.2236124776
  13.4421667223   18.6655636212   11.3261322361
  11.6554680523   15.1848024815   10.0569078426
   2.9844901364   15.5646484299   13.1385518301
   4.7039740215   17.7617652072   14.4655728745
  10.0011936445    4.2832264276   15.5336685665
   9.6310150583    4.0772714082   17.9646577461
  -0.7852763063   17.4837216486    8.2631147982
   9.5453257768   13.2884132409   11.5736161052
  11.9574625400   14.5013874923    4.2779182656
   1.6477229311   13.8452205215   10.0992916585
  15.7123337882   12.4380843641    9.5129230843
  15.8183154183    9.7570416404    7.1412264828
  11.5360767425    3.0144720171   16.9610841567
   4.0709579472    4.8780950563    5.8477071848
  -1.5996113374   17.2068998465    4.6412049942
   8.7898943737    7.3004258418    3.4582937887
   8.3650983599    7.0274361410   15.6730643670
  15.0608333349   13.2665181795    3.8867396617
   2.9026974958   13.6187528834    6.8229071848
   8.7784208848    7.8035401684   11.6619836541
  13.1702013003    7.5155913023    4.8269301638
  -0.8056085339    8.0758959624    2.8671975823
   0.3818961484    6.7329243807   12.1474462969
   8.5846821198   14.9204121839   17.8252352476
  10.7122096635    6.3878158313    1.7002344703
  13.2056167702    9.6403604340    2.7084154319
   8.9819944848   17.8938936072   13.2179518611
  16.6273725117    5.2203005784   11.2840765159
  15.8897578116    7.0989428706   12.5380832354
  16.7298044267    5.4040484055    1.7179971912
   1.8877437335   11.3927237852   14.8536902385
  12.4224895606    1.4376849644   14.4692216866
   5.7033940793   11.2228973834    5.0987916337
   7.8460352180   19.0117348010    7.2811026830
   9.7640783487   11.7362954460    0.9982413857
   0.2690408647   10.0310379441   18.2883698437
   0.0776227923   19.4371143169   12.0830236094
   1.3610117179    2.6667689789   11.6604879512
  -1.3000095408   11.5298992309    0.3150012190
   9.3773590376   16.4417603047    5.2260965676
  -0.0537148150   13.4328609989   14.5145244262
   3.6572052611    9.9531834763    7.3797911264
