B2 C140 Ca1 F48 H298 O66 
1.0
1.7861075150710541e+01 2.3654628952426180e-16 -3.7726395457844720e-17 
-3.0168838540310383e+00 1.9234670380038750e+01 5.2586301962315521e-17 
-9.0625481557887438e-02 1.3790625165662689e+00 1.9387716667358710e+01 
B C Ca F H O 
2 140 1 48 298 66 
Cartesian
  10.5271776779    3.7620527304   16.7435924405
  -0.7836505256    6.2635826582   12.0621708811
   0.0664282271    1.6281657521    1.5516676147
   7.3654611535   13.6566135107    7.3839348309
   4.7302411547    6.5703572104    1.0480061202
  12.9489459289   12.6410029456   12.3352484963
   4.5656441374    2.9699485440   16.4492318176
   2.4388657073    1.9945206696   18.1046027705
   1.5872663160    2.5240467357    5.5811842135
   2.7919483278    1.2401624560   16.7888510106
  -0.1852402440    3.9998421380    5.9403501851
   3.2799061824    6.4732989298   19.0611828955
   2.4294813793   17.4567984131   18.2181670744
   1.0993710147    3.6973229188   17.2609770312
  12.2147418330   15.8585486742   14.9840925441
   5.2641082773    9.9273204420    0.7958080874
   6.0632109366   17.0084376410    9.3632485614
  12.4021188505   11.8332356051   16.0480779905
   9.6283011166   11.9733887295    6.8483658308
   9.5175118148   13.3930823267    6.5345767975
  13.0800985364   11.7053212282   14.6375345263
   4.0440442096    7.9629444617    0.9596580447
  12.2448377087    9.5429671107   16.7957331760
  12.0277025887   11.8417421475    6.3025219940
  -0.0158705643    4.9906114571    7.0488999261
   0.7896667489    7.2562156230    6.7590559694
   4.8600586842   19.0945792848    9.6128573848
   2.1169986581   16.3819433043    1.1517655115
  15.9859767161    1.7006560085    2.7857134528
   3.9691842677   19.8723641611   10.6029352236
   1.3467000616   15.1734248056    1.4956896866
  13.4125399275   16.8618508629   16.7404177303
   5.4957885216    2.4748640808   10.6618168726
   7.3729430495   13.9688395955    3.0022065809
  14.8346784106    0.8123813470    3.2281790919
   5.9636578330   13.7025596175    1.0072791672
   5.8294345433   14.8660483712   18.9562832562
  15.0387742594   15.2976442689   12.1084979395
   1.9017560179   12.8238313532    1.9445791249
  13.0992041882   15.7840572750   17.8823172261
   6.0977476184   13.3192671912   17.1207135187
   4.9528847363   17.8849037254    3.8530590413
   7.2301486629    0.4228547393    2.6152484413
   6.3628670900    1.6320144069    2.6290789870
   4.3767830087    2.5302875284    2.0809884191
  15.1763654094   17.0936395397   10.3834962423
   6.9756886301    1.3277965296    6.7437352630
  12.4375494277   15.1072446678    8.8343715413
  13.7353770267   17.6886309990   10.2957504193
   3.7308943488   16.1098897441   11.9182334845
  13.0655968442   18.3903401737    4.3667239823
   7.8875099177    2.5807875599   18.1321710523
   8.1855392414    5.0107360761   19.0583082082
   8.3552827503    4.0310741229   17.9796772489
   4.0951346626   15.4752067333   14.1576009770
  12.1765942799   18.8142209865   11.5144557634
  10.3076677244   14.9373331962    9.7851426810
   9.6993827741    3.4705295419   13.1830144983
  12.0532832629   17.1573918716   19.3656760162
  11.9886465823   13.3862300288    3.2438155914
   9.7693521112   14.6577222544   11.2189403988
   5.4849962198    3.0409786429    6.2670568697
   1.5867660867   12.8525524141   11.1221518021
   3.8633383919   16.7247881955   15.0006854497
   0.2358941615   18.5246905925    8.6081680669
  10.7619585038    3.7534552442   14.3431714724
  11.7861411849    4.8382957951   13.9444072757
   5.4787108378    4.4529597707    5.7947009513
   4.7012058896   18.9106891610   15.0339550557
   8.8161768656   12.5610902313   10.7139755763
  -1.5990349982   13.4468817073    8.7035681706
  15.2917418807   11.2946593213    8.8838902648
  -0.5730730709   16.8871553939    6.8164254519
  -1.3973756126   10.5698146002    8.1854669805
   6.0677246535    6.7661883312   15.3982894650
  13.3296873545   15.0841426938    4.4924104530
  -1.4206214334   17.7263565210    5.9604452660
   3.0029656183   13.6530256984    9.3448021562
  16.0552649493   10.2537497731    5.7792153228
   3.9400381743    6.1750160886    5.3016678218
  12.0970553117    2.6991293672   18.2359043702
   2.3447955296    5.6001044990   13.3164964296
   9.1250710861   20.4406297420   18.4704291446
  14.4757751384   14.0099013232    5.0483293844
   7.3669885605    7.4365819003   16.1715295781
   2.9346456237   14.3702525136    8.0236820166
   7.6060803563    7.3452997880    4.1247696488
  -0.4530921840   17.7778689400    3.7345175860
   7.3333754670    8.9987952759   16.0413432167
   9.8139713908    7.5739797409    9.5205060436
   0.5944716200    7.6494057748    2.9770161271
  13.4527190240    3.4600952394   18.5752630963
   2.3472362345    6.1130192795   10.7190618505
   1.5624057200    5.7497615816   12.0117778890
  10.8501919036    5.9390767759    3.0834021900
   9.3970004709    6.0303720423    3.6667556672
   9.1432583558   15.7136305712   16.7316769190
   8.7953447176    8.3929804738   10.4293282741
  12.3171039663    9.4069735017    3.7034614598
   8.6168331299   17.7989559409   11.8598361624
  -1.3037691797   13.1463398136    3.9852761737
  13.9952847227    7.1372820020    6.0071430341
   7.2808459975    8.6516334616   10.0048809385
  12.4342328813    9.9242455843    1.4848412731
  12.0814044440    6.3056360536    1.1056492997
   2.9481289324   14.4524507534    5.6714291358
  12.7784613577    8.8561430664    5.0238363285
  16.0331224604    7.1784788886    3.0896371746
   8.2584838582   18.7048763182   14.0221827189
   9.7536680678   13.7476664878   17.9874178762
  15.0822229213    8.1314112603   14.4251533718
  16.1346773492    8.1991938222   13.3015072370
  15.6242551331    6.2241285936    2.0315144444
  15.3531719688    3.4030884162   10.9153709674
   9.2236517907   12.7715487923   19.0661432153
  15.3605418840    4.9281034710   11.1230099987
   8.9610676989   19.4582086979   15.0577602131
  14.7326585044    5.7077009112    9.9097285781
  16.2003058540    9.4931778953   12.5543731097
  11.4603829050    1.1389665316    7.0995435488
   2.7011495889   10.2277596070   15.5810042274
  -1.4827659433   11.5606786761   19.2329583605
   1.4090912715   13.6050043340   14.9786374459
  15.2948736694   12.0377884219    0.7778523615
   4.7070562773   10.9288298735    7.3075547248
   4.6707076800   11.0814143506    4.1022464018
   9.5013230442   17.6559843436    6.1235250457
   8.0710978504   18.2369611418    6.1062721794
   1.9620488457   12.4269996371   15.7012749383
  -0.5698474570   19.9870179343   13.0902024750
   1.1546130389    1.3715090150   12.4719513407
   1.0169315758   18.4165193877   12.5257401744
   2.0427701870    2.2904167054   10.5192728997
   8.8397428152   11.2113843111    1.9278898001
   2.6479840336   10.0715491642    8.3248336793
   5.6958877215   10.3447839566    6.2208932406
  13.9644654050    1.5127705633   14.6791217594
  -0.3977426461    8.7844986791   18.6085287586
  16.5837395262    4.6071926477    0.5002951872
  -0.9191899510   13.2329442894   15.4825049751
  -0.0110332684   11.1574162696   19.0615583030
   9.8456720030   16.6600837225    3.8591691801
   8.7652509482    7.0231582575   13.4569609622
   7.9065262639    2.0992334109   16.8751246425
   8.7940301920    6.2285257809   18.7841082762
   9.2276496154    4.5126834130   12.4481735414
   8.7378557071    1.8016210428   18.9031797148
   8.7814341387    3.3063880918    0.9204831032
   6.5532735769    2.5287442832   18.6477275334
   6.8638790198    5.4365846970   19.2322920173
   8.6599372015    2.8921704224   13.6474184597
  12.4501402812    4.4061380482   12.7300715216
  10.2739159577    2.5969200765   12.2597797104
  12.7399168963    5.0529120365   14.8768572254
   4.8142163086    6.9648528645   15.7449068529
   6.2681991800    5.4054671048   15.7679639791
  11.3232388297    6.1808535503   13.7406779103
   6.2173474566    6.8239204732   13.9910190474
   3.1076113047    4.5014892972   13.2927906054
   8.1761689956   19.7006616511   17.8443815250
   3.1933156066    6.7046709212   13.6327935064
  11.1049855358    7.7583619939   10.0553371026
   1.5829604342    5.7563265356    9.6449372907
   7.1757560213    9.4298475707   14.7465476254
   8.5279167853    9.4790566363   16.4450597774
   1.5073886507    5.4029282761   14.3412154118
   9.7207069063    8.0503203396    8.2497180385
   9.1954926346   18.8802060754    0.4129959437
  14.5419004178    3.4299940501   17.8335297723
  10.3761648631   19.9693860354   18.0830369769
   3.5779343138    5.4568441350   10.6996068775
   9.7424617994    6.2113340448    9.4448518022
   6.5390317148    9.0067886311   11.0403846252
  13.9110683512    1.6366524334    0.4491361484
  13.0797571951    4.8027206930   18.5406362904
   6.2698369975    9.6354337431   16.8822027551
   2.5221601204    7.4810882900   10.7281149053
   6.6478882572    7.6486676547    9.3930222080
  15.2799543813    9.2193973030   15.2482853433
   7.3229391283    9.7244989777    9.0793139655
  14.0740077056    3.0102931366   11.2742642906
  13.8067857037    8.0583171706   14.0484191229
  14.7778264718    5.2692797446    8.6883841505
  15.6953745777    2.9714282001    9.7297321566
  15.3075808077    6.9359948576    9.7643729620
  15.2773656887    7.0111999801   15.1820086611
  -0.8892656665    9.4138563082   11.4395785079
  16.1286620710    2.8091432611   11.8159469716
  -1.2571047611   10.4486990446   13.4756440599
  13.3502427984    5.7757249827   10.1938257181
  14.9374098367    9.9019149266   12.1102605414
  -1.1899218072   20.4365574170   18.7420113547
  11.8064634776   12.7126246264   15.8764731121
   2.0800570428    2.1453930663    4.6453288955
   5.2450652062    6.6473722840    2.0300779334
   5.2499680677   16.6047942097    8.6967586277
   9.9248459057   12.0217282361    7.9332346453
   5.5249541801    6.4638622622    0.2574063301
   5.4696042846    3.0752418582   15.9446688525
  16.9150041060    4.5119953682    5.2640715046
   0.3488835720    2.6803623686    1.7694316691
   1.5432512120   18.0507432554   18.1201861890
   0.3533630814    1.4587796425    0.5690163613
   6.9091768781   14.2042233784    8.2080299285
   0.4421871500    4.4719954522   17.7874318215
   0.9004331852    1.0213176635    2.0271259151
  12.3819384400   11.7449695019   11.9640895650
  -0.3063189163   19.3775845165   16.8894370564
   7.0159852851   14.2460859977    6.4751116018
  13.0689312937   16.0153706013   14.3367601700
   6.1151290077   10.3813586731    1.3497738089
  14.0490654217   12.4127886857   12.3084720405
   2.4955954426    5.7479343818   19.1445421199
   2.7795433482    7.4106700368   18.5934890305
  11.7632992076    9.1343177438   17.7026373797
  12.2633601169   11.4595042717    7.3268033329
   0.8790471584    1.8242934166    6.1141891701
  17.3919596745    3.1140403362    6.4608804265
  10.4829755309   13.8341258653    6.6099066345
   4.6166675019    3.4098528948   17.4812202347
   5.5864254019   19.8047897563    9.0249361025
  12.2325429799   14.8847269808   15.4827810878
  12.7933332214   10.7026073958   14.2401047914
   2.3041939208   16.3972016775   17.9941249757
   3.2113275355   17.7127251567   17.4643463107
  11.2252295057   15.9627789003   14.4155747307
   6.9162885510   17.4726998276    8.8922241512
   0.5088665212    2.8151157653   16.9444157498
   2.7334492770   16.5156364940    2.0103572742
   1.4633295263    7.9168278615    6.1802711067
  13.2068259150   12.0966761608   16.8103279933
   2.3614655081    2.8919255218    6.3112304966
   6.5479449214   16.2262135060   10.0979776563
   8.6768194515   11.3399003190    6.6143536468
   4.4763438512   10.7445317310    0.8179594566
   7.0806640047   12.6396538763    7.2561876085
   5.5487454669   11.0135499016   19.1823341332
   4.0003603966    6.1772724995   18.3255433695
  12.6585004441   13.5213274266   11.7220826780
   3.5491524106    1.9850190074   18.5858718091
   3.6964306057    3.5524934868   15.9521689982
   1.5222375757    4.0990576478   16.4347239994
   2.1607978249    1.5366880966   15.8677581884
  16.4965388139    2.0035307502    3.7078588153
  15.6962482895    2.7638108496    2.4407779470
  13.3043770275    9.7192337196   16.8617942926
   3.0658247173    7.8252602375    1.4439416012
   3.7750713313    9.6833477518   19.3480525126
   1.5511405022    6.9464861496    7.5209703584
   0.8322863355    4.7596832644    7.6803572770
   1.4644142410   17.2233497013    0.9261834723
  12.7748802153   11.2837629322    5.6123077746
   7.4925504658    1.4198141670   11.1609266753
  12.1435157785   12.9846877740    6.3165547074
  11.9923004052    8.7453477918   16.0911439890
   9.1724840684   13.6032066397    5.5140766628
  14.1056465821   12.0828444599   14.6855421648
   4.2027956246   18.4883548538    9.0264907751
   6.7522066504   14.8557194956    3.3261074395
  16.9352484296    5.1857228519    7.6115160148
  -0.0078037217    7.8695501945    7.2623250231
   5.3870659672   14.6563939725    1.2710532010
   6.2020695263    3.2393774349   11.0282446400
   0.6997419001   14.6599221951    0.7949128655
  13.5745511491   17.8491848138   17.1647250361
  14.3735245357   16.5448260021   16.2994052642
   4.7816252158   15.1389720594   18.8011309704
  14.0044800593   15.2241398444   12.4379144638
   8.4054486946   14.1202029253    3.2298375019
   4.7717112636    3.0067403281   10.0631485659
   3.5547441748   19.1116361348   11.2760006396
   6.0814796249   12.2791351275   16.8664622345
  15.5362149400   14.2881078913   12.1719451781
  11.4841383650   19.2898554111    2.5635652005
  14.0839155735    1.5921470226    3.3489894883
   4.7329725223   17.2204492497    4.7419169635
   6.3925936971    1.3091265454    7.6457943830
   4.0252135707   18.9192147278    1.6617021610
   0.6235675315   15.5036001713    2.2446675945
   6.4825335757    2.2255112273    3.5207748723
   3.3202327889    2.3469072284    1.9869250850
  -2.1624751512   17.6010858803   11.2059210638
   0.8869907118   12.5046078183    2.3581336051
   2.1749460549   12.6528478733    0.8360585357
   7.0509173592   13.1665206660    3.6521452514
  12.9902977563   14.7516791473   17.5177847340
   5.0873448071    2.2771051674   11.6245704181
  13.9308082282   15.8845173070   18.5552401254
   7.0226947753   13.6574866629   16.7074532270
  12.2609016467   14.1813406114    8.2256407086
  12.8905113148   17.0574479732   10.3261610419
   5.4533421138   12.8771948778    1.4990346700
   3.0364563366   16.0283164883   11.0974358161
   6.1039336838   18.0810813698    3.8922160275
   4.6624889160   15.6859387563   11.4815113282
  13.5460845046   15.1780133308    8.9857321549
   4.7074829769    2.9621721900    1.1048471195
  -2.2227740697   15.9292571318   12.7617352121
   6.4897768278   15.5985454406   18.4788625675
   2.7693017384   12.3298851638    2.5338714645
   8.0067436795    1.1683847651    7.0389501900
   6.7304753746    0.6299922716    5.9628852547
   5.2363289426   13.8791569879   16.5596524573
   7.9674283419    4.4194915462   17.0087929940
  11.8520723387   19.8849198956   11.6171256966
   3.8479709074   14.6757243277   14.8271771452
   5.1211985757   15.3807594788   13.8321524105
  10.0823604035   14.1819490395    9.0625683189
   3.9536961787   17.1568972101   12.2115989282
   4.8998104389   17.3869315050    2.8470467650
   8.3577341295    0.8781034810    2.4518821518
  -2.2640015549   17.0961735283    9.4392199251
  14.0155092861   18.7860056637    4.0259878213
   6.6927628705    2.2532569181    1.7694738280
  12.8251993923   17.5037939325    3.7142727900
  13.2120465228   17.9971622428    5.3623129676
   4.5531780362    3.3401759101    2.8730234227
  12.1842479531   16.0265502535    8.2250629350
  13.5767097346   18.1474114757    9.2447596966
  10.6363859354   14.9111042947   11.9584170204
   0.3517711178   18.5247736290    9.6868927885
   2.0833089341   11.9264181541   10.8492460822
  12.6183360695   13.6048577424    2.4110920739
  10.9284583114   13.1600532332    3.0739699252
  11.5273960272   18.3106300877   10.8484733220
  12.2703609182   18.0547074897   18.6925091473
  11.2157686700   16.0457715569    0.5071088827
   1.9841871735   13.2945989512   12.0149811026
  11.8570469051   18.3767138666   12.4900465865
   0.5076866099   12.6753759215   11.3629808972
  12.3079087264   12.4642290466    3.7305427198
   4.8293110687    2.2840857410    5.6499197676
  10.0604253729   16.0415118424    9.4743510214
  15.5422504369   13.7151506251    7.8563018256
   9.4265510442   11.7291775284   10.3011012441
   5.1806375428    2.9802472122    7.3653565983
  12.9231179543   15.6712035099    0.8638683239
   5.9761233828    4.5771285915    4.8256676007
   5.9991235247    5.0171296928    6.5823527544
  14.5105237960   11.5757151040    8.1456481516
   5.3604715170   19.7302721119   14.5206497163
  -0.0519156311   19.4754037592    8.2246215948
   1.1712485086   18.2146422547    8.1360523848
   8.8294201875   15.0726004118   11.4351191939
   4.1539375999   16.5161607974   16.0511514476
   2.9063626283   17.1162898250   14.9092648013
  -0.6495124728   13.2016703464    8.1710454249
  -0.6972942413   11.3540066369    7.8061721469
  11.4721930007    2.7779521601   14.4851349162
  13.6813266079   15.4087572724    3.5232353027
   4.8514764645   18.8808374088   16.1687659916
   8.3539954149   13.1238704081    9.8226449654
  15.4725356727   11.1545647010    5.6153601449
   3.5909622249   19.1541255825   14.8791145983
  -1.2502971714   18.8120580716    5.9606887452
  -2.4257624604   17.5488096967    6.2866213973
   8.0048298877   12.2062837439   11.2983354598
   3.2259611285   12.5928515697    9.1597836807
  -1.5075692043   14.3263754064    9.3977710216
  13.2211254179   15.8393076341    5.2721383479
   3.7525038883   14.1342794254    9.9334816159
   0.3586543933   17.1698146876    6.4545889645
  11.4625999517    3.0406002078   19.0230709760
  14.7812739927   10.6568996474    9.6096967482
  -0.9754662083   15.8152549027    6.8782077381
  15.7455740156    9.4561269424    5.0367239703
   4.7065559808    6.2602095831    4.5638096345
   7.4051629701    8.4215867250    4.1766909709
   3.8666982929    6.8659571160    6.1242651784
  -0.7172034832    9.9899270136    8.8710770716
  14.2253208177   13.3272900378    5.8269441073
   0.6796081590    7.1009962999    3.7861109931
  -0.6839514137   10.3529636886    5.5530061243
  -0.4632759177   17.2364539267    2.8659655072
   0.6134517639   17.7512422804    4.0913226751
   2.1179639691   15.0737858040    7.8456975326
   1.0143568958    7.1531194942    2.0520244968
  15.2417837487   14.7318251583    5.5515235563
   3.6379902519   15.1780204300    8.0733253470
  11.6336377208    6.6159465058    3.5733507582
   7.3753742928    7.2223149564   17.3089700113
   3.0304119190    6.3502744166    4.8339180389
   1.1221190013    8.5616870545    3.0832782716
   6.7913491937    6.7907715388    3.5910642461
   8.5367124664   16.6431162150   16.7527144649
  11.0571868874    4.8330732328    3.1688252475
   7.6633183999    6.9663718102    5.1680924545
   1.1142922257    4.8035427328   11.8419736393
   8.4442321863   18.9118550184   11.5411738800
  11.6546879079   10.2287544630    4.0020026128
   9.2341032473   15.1266254765   15.7604105614
  13.4643413415    6.8773493602    6.8884806190
  11.4974853528    8.7223715360    3.3582291292
   9.4544735381   17.3471298194   11.2627879037
  -0.7859665460   18.7537412770    3.3711169282
  11.4907154419   10.4604237138    1.7733400803
  12.8413891134    6.8868865095    1.7387350240
   8.8580912904    5.1804754384    3.2342590545
  -0.9211367066   12.5249257525    4.8357225177
  12.0556537564    8.8573151680    1.1977689863
  12.3147488943    5.1784886272    1.0887062900
  10.2014886611   16.0975424576   16.7651268137
   9.4555381160    5.7230883524    4.7077454152
   7.6157726537   17.2591134625   11.6978609016
   1.8695534812   14.6700988580    5.4055950990
  -0.7744646610   14.0985590192    3.7894377822
   9.3009434666    9.3654324117   10.3265694181
  14.6316402998    7.9418220154    6.3240094081
  -1.0649577181   12.3560893482    3.1988780325
  15.2153447600    8.0006597800    3.0602355244
   3.3020924787   15.4200398432    6.0224368128
  14.3909811689    6.2030886872    5.6725427554
   7.7493787151   19.4284977700   13.4113314374
  16.1571689937    6.6152164338    4.0514237634
  11.7245182631    8.8399294136    5.4150829152
  12.9313697760   10.5726713726    0.7688707607
   3.4987139904   13.8947737630    4.8801310007
  13.4537107284    9.5013782411    5.5966747199
  12.0691902375    6.7853612862    0.1181560929
   9.8933297260   13.2117637514   16.9871700267
  -0.8014998786    8.0709040563   13.8749251594
   9.6515343249   11.7312287145   18.8896529615
   7.4396048577   18.0137610014   14.4314155704
  10.8151475648   14.1131267666   18.1428006960
  14.8134521029    5.5491905508    2.3462580023
   9.7820294077   18.8803464314   15.3701684427
  15.1238790343    6.8597018647    1.2364747479
   8.1443944502   12.5940335921   19.0495940694
   2.0252799887   10.0968285331   16.3992135539
   1.6006055153   14.5234944778   15.5979604260
  10.4091192292   18.2718077657    5.7962863201
  10.7020411948    1.7078376183    6.5512180944
   5.3027483805   11.1079470760    8.2631222874
   3.8085459671   10.9145543698    4.7431475338
  11.5095302177    1.5298912969    8.0702131520
  15.8436672970    9.6076788710    0.6079791409
  15.7701596944   11.6814193538   18.2826690156
  14.7704451737    5.2011753974   12.0044449795
  15.4412922919   13.1040646017    1.2721230423
  14.4468776328   13.4290481135   19.2945548325
  -2.1809053718   19.8221316874   11.6744963828
   3.0992212424    1.4286456541   13.6751697138
   0.5620502679   17.5961403294   13.0731312227
   1.2748845733    1.7099546009    9.7435834623
   8.2754830813   19.6784009491   15.9522649074
   4.1627133927   11.8059602580    6.9254064441
  -1.8280255862   13.8439981679   15.2329010236
   9.5513333288   17.6696928828    3.6389569661
   3.1634338675   10.3316263009    9.3324246200
   2.6389032177    9.4014440268   14.9595386922
   7.7819881786   18.9058618746    5.2619682241
   0.1855463328    6.9952690465    0.1137738746
   1.9001064616   13.7511741338   14.0125808168
   9.1186369174   11.3672292277    2.9363453261
   1.8467358164   10.7874068363    8.0978727680
  11.3658522469   19.8039473899   14.5334852497
   4.6850657762   12.0970527164    3.5613340082
   2.9554110257   12.7900887933   16.0423884890
   1.7502658049   18.9952378220   13.1587711500
   2.8751765038    1.6359316455   10.6573396599
   9.8640541445   17.2703653609    7.0544725279
  -1.2052282221   12.1884257099   15.6660852851
  15.7731494106    3.8659431870    0.7221995964
   3.6637110260   10.5508613261   15.8340283440
  14.9016861513   11.3314695307    1.4830979529
  12.3925380591    1.0787138151    6.5001576466
   4.5803395667   10.2844732861    3.2496706484
   8.7398454642   10.1286984961    1.8499039493
  16.1530248934    6.6137093271   19.0570116177
   6.7189284237   10.3588037306    6.5841278747
  14.4729883524    2.1473184669   13.9706379299
  -0.4277497400    8.2191310390   17.7001629366
  10.9819143572   16.4078123285    3.7384201678
  16.4410669382    9.0796417940   18.8961678925
  -0.9520531985   19.2055753821   13.7639997476
   0.2681742008    1.4967792380   13.0881398886
   1.5291694513   17.9167839053   11.6711520619
   2.1878141941    3.1858334416    9.9138162773
   0.5536429311    9.8588333598    0.7085035627
  -0.1734071046    4.2887439590    0.2522906753
   0.4413487244   12.0098214968   18.5100027819
   1.1777468624   12.1511370215   16.4902075863
  14.1997564878    1.8418790329   15.8002359619
   9.2815186171   15.9133708139    3.1970226492
   2.1962440094    9.0953326897    8.3735339241
   7.3396719143   17.3899715230    6.1989008267
   5.5220502596    9.2299447047    5.8028432221
   7.8593172765   11.6536689754    1.7978489739
  -0.6755326356   13.6389021910   16.4385177810
   4.8575639347    8.8721702337    1.6609359007
   8.6812213428   13.8938392236    7.6321665852
  12.5037830792   12.8558261738   13.7889805494
   4.3067664521    1.5652507262   16.4973809468
   2.0678851131    3.2831610922   18.1546698442
   0.2702683499    6.1641646722    6.1865269138
   3.8769177174    5.3930083800    0.9124179977
   0.8767519364    3.6768914756    5.0507537119
  10.6513995446   11.4468189366    5.9566295168
   5.5998367207   18.0428292600   10.4234507017
  16.7047130998    1.0442159670    1.7389099352
  11.5606859837   10.8176366568   16.4339990195
   3.0852891503   16.3818054759    0.0765485353
  12.3486286148   17.0657283324   15.8176262944
   5.8451340424    1.3199714022    9.9075871413
   2.1753041967   14.2154478763    2.0816453182
   7.2031251660   13.7173143236    1.5910288963
  12.0416360250   19.3541097510    4.4841568269
   6.0484956260   13.5309846696   18.5244453248
  15.1805969053   15.5938429430   10.6753462794
   4.1311203200   18.9753190994    3.8071155106
   5.0233909300    1.3169805261    2.4471650550
  11.8269656266   16.0302478783   18.5475717698
   6.8923581811    2.7036051776    6.2061314339
  13.6104896381   18.6034992357   11.3468580179
  11.7062947698   15.1976470716   10.0211617733
   3.1248831600   15.5084171610   13.0430598472
   4.8689757745   17.6652068200   14.4771658560
  10.1324661960    4.2225466080   15.4797608683
   9.8173264157    4.0430194074   17.8916738239
  -0.6820887253   17.4730550266    8.2480106216
   9.6722031358   13.2957896404   11.5526220782
  11.9971096006   14.4419010945    4.2815410122
   1.7351142680   13.7492945766   10.0840715434
  15.7865086771   12.4362531079    9.5458958474
  15.8992133467    9.7408441907    7.1225387841
  11.6710333859    2.9881448167   16.9327237302
   4.0918337164    4.8157728010    5.7882965269
  -1.5700092712   17.2171812966    4.6242831509
   8.7822604621    7.2809069024    3.4209409193
   8.5070061713    7.0256950673   15.6591909018
  15.1405689399   13.2546956731    3.9213288614
   2.9705571560   13.5473645795    6.8012398371
   8.8538529076    7.8044173456   11.6103994131
  13.1986347813    7.5159131845    4.8026157244
  -0.7622912779    7.9868480246    2.8267480567
   0.4810651586    6.6908069914   12.0906980150
   8.7802126952   14.8221144515   17.8040722035
  10.7977294828    6.4208158390    1.7071945767
  13.2252785048    9.6074515031    2.6776654454
   9.0282041977   17.7898519213   13.2080325192
  16.7374166465    5.2164914639   11.2654790098
  15.9698710901    7.0686300791   12.5501313181
  16.8066110268    5.3598102533    1.7233512368
   1.9906304192   11.3317298838   14.8807114469
  12.4785759871    1.4538816598   14.4499518961
   5.7721763424   11.1825152851    5.0701587245
   7.9525962625   18.9780050256    7.3095877607
   9.8572159766   11.7088665932    1.0452430561
   0.3421199947    9.9965271416   18.2889853496
   0.1582363549   19.3635869517   12.0104571464
   1.3857099295    2.6380365356   11.7032922977
  -1.2345482690   11.5524914624    0.3388241323
   9.5315879179   16.4537480779    5.2558996342
   0.0707809527   13.4561873465   14.4745402758
   3.7067763608    9.9220526783    7.3657998409
