B2 C140 Ca1 F48 H298 O66 
1.0
1.8949001333893168e+01 -1.0966419860354946e-16 -1.0066269420140953e-17 
-2.8658956581790602e+00 1.9768997266659127e+01 3.9980384697072916e-18 
-4.1400081241887499e-01 -9.1611879065845725e-02 1.9300884521570147e+01 
B C Ca F H O 
2 140 1 48 298 66 
Cartesian
  10.6191169554    2.1418170875   16.6214365899
  -0.9600213150    5.4500855854   11.8787707813
  18.7206503491    0.3189592008    1.1287838888
   8.1421316324   14.3803000770    7.2634071782
   5.5965364687    6.7040612261    0.7931403891
  14.5537389162   12.8982669508   12.5593366494
   4.0838062130    1.8094502071   15.9116306341
   2.7658700622   -0.0249199548   18.8030106527
   1.1963973590    3.0034733462    4.1413379149
   3.4973241796    0.1280934961   17.4365329152
  -0.3408337500    3.2107250530    5.9102627078
   4.1310987659    4.7706816358    0.5518017603
   2.6300612541   15.8311106371   17.7260811802
   1.3644347819    1.8851671183   18.4716014667
  12.7534745937   14.8979330970   15.3803502385
   4.6254166950   10.1360233961    0.3511643580
   6.1894065690   16.2155286028    8.9213004075
  14.3063216678   11.4524468788   15.7880287650
   9.2647453605   11.5729869436    6.7093258608
   9.8985597739   12.8997441208    6.6303246893
  14.0352658360   11.4951960379   14.2908177598
   4.5618342586    7.8102679070    0.6202692057
  12.2446590666   10.8091449556   16.8781073579
  11.4104086782   10.3797936329    6.7549477504
   0.2133742718    4.3129304772    6.6609189579
  -0.1465820782    6.7749478873    6.6443689995
   4.8799280642   18.1842586768    9.3064343342
   2.4671396963   16.1098937151    0.7321209405
  17.4046037316    0.6352930679    3.0693709525
   3.9780234740   18.7856320011   10.4332788554
   2.2336928695   15.0253026218    1.8024761660
  13.9490208763   16.1682278028   17.2399049103
   6.0442504401    1.1556981280   11.0062160952
   7.5643925670   13.0130614724    3.6427763232
  15.9486090584    0.5887091921    3.4646519330
   6.1224201843   13.7217472466    2.0376594924
   6.0375690357   14.2717972364    0.5971125811
  -0.8468354334   15.1422918821   11.4382048144
   3.3049805124   13.8008566302    3.4979881219
  14.2755776326   15.0169607971   18.0685845235
   5.6190706666   13.6673063977   17.6342092698
   4.5905401286   17.5180448267    4.3590336412
   4.6681180316   19.6174810090    3.3642398990
   6.9512492388    1.2166700692    3.4578948675
   5.0372732405    1.9370031482    2.2101575584
  -2.1426217887   17.0368539301   10.9495596327
   6.3835144965    1.0374213234    7.1206229288
  13.4280693022   14.2995606720    8.7139690987
  15.3489964201   17.1940566946   10.4976584480
   4.2319439926   15.2670373623   12.0205199547
  13.6245361462   18.1636474686    4.2036207644
   7.6687150677    2.3892097473   17.9323564144
   8.9055684276    4.4026211807   18.7441905275
   8.7908154860    3.3408567068   17.6732628928
   4.1616870742   15.4703137134   14.3893693657
  13.3854282502   18.0874740438   11.4304249922
  11.6624683099   15.3423996246    9.9273077235
   9.9617498487    2.2102465196   13.0542337984
  14.2101479124   15.5461343962    1.0511174877
  14.0899728453   12.8085370402    5.5736804257
  11.0777678804   14.7662365085   11.1821076042
   4.7809556455    2.6986968913    6.5012905595
   1.7286639131   12.5097614369   11.7314639458
   4.1478503920   16.9372379100   14.6396441089
   0.9821590089   17.8724747073    7.9783881068
  11.0155113949    2.0890710927   14.1846790285
  12.2057231590    3.1764742137   13.9523968120
   4.8837144552    4.0866713344    6.1243897176
   5.3645683021   18.9709507864   14.2343491599
  10.2944466370   12.5007702969   10.4502125249
  -0.7487156059   13.2444217510    8.4026206116
  16.9637855150   11.1721546375    7.8141535905
  -0.9235707335   17.2910210330    6.6654944626
  -0.9692100404   10.3953404335    6.9987035865
   6.4356622045    6.0914220124   14.5994383848
  15.2299113111   14.4380254043    4.5026001696
  -0.7813475795   18.3715689919    5.6941276686
   3.0461987204   12.4787919674    9.7619459758
  16.8319897041    9.9155479167    4.9334693204
   3.9583686299    6.3219098486    6.3335634741
  12.1444473585    1.0688021438   18.2636110689
   2.5750596055    4.6637457324   13.1259787836
  10.0266095721   19.5070797225   18.1956047420
  16.4871079906   14.5212413522    3.6927698663
   7.5357577978    6.4358877201   15.6608102087
   3.5405128745   13.4157780351    8.6685389612
   8.9342157044    7.3833140123    5.5979881459
   0.1432946314   18.7768666334    3.5437608719
   8.1128178164    7.8517255394   15.5181893320
  10.7195900755    7.2865367451    9.8064608415
   1.1689207064    6.1251505248    2.6679767795
  13.1460827478    2.3009507565   18.5138581645
   2.2675531903    4.7573138547   10.6259953687
   1.4722076699    4.6766763052   12.0323760524
  10.8307139455    4.9846919478    3.5032802716
   9.5902885160    5.5829012170    4.1558759125
   9.3019601954   15.5741413124   18.3102793074
   9.7084891655    7.7617688439   10.8686495015
  13.6384370375    8.0457441795    3.4447526421
   8.6610871217   17.7879535663   12.1383725336
  -0.7054487757   13.2415250231    2.9344256421
  14.7548476381    5.0056317429    5.4778676794
   8.2150365933    8.0467806206   10.4311498654
  14.7691699104    9.5970332248    2.0579577325
  12.4653815223    5.2391086421    1.7857281491
   2.6804914522   14.7817483296    6.9164154667
  13.8493456278    7.0993547100    4.6052344776
  17.8090433548    6.4031627423    2.8075815316
   8.9961781209   17.4163625100   14.6157827245
   9.5243433890   13.3013442574   17.9847144494
  16.1938885288    7.4585793127   14.2740894309
  17.4073658394    7.3383856895   13.2913546185
  16.9508776566    5.6601309950    1.8068711035
  15.6639851745    2.8265461181   11.3965510007
   9.3292109042   12.0313258991   18.7376748289
  16.0518168461    4.2633105482   11.0902220000
  10.5229056653   17.7876043901   14.6733184387
  15.7231864028    4.6625259692    9.5877866298
  -1.0393829032    8.5994028631   12.4991832242
  10.6956720592   18.7438449987    7.0158538954
   2.9612627928   10.3334638360   15.1730194711
  -1.3937864970   10.7864477714   19.0060511095
   0.9697222592   13.3136616242   15.2949130934
  16.7943843289   12.9410279169    0.1300511937
   4.7382652848   10.2752409809    6.5194029304
   6.0393173619    9.2067602831    3.6086610754
   9.9650647813   16.6725893146    4.7119516419
   9.1505582189   17.7673763792    5.4842462872
   1.9540525048   12.3618825246   16.0621402562
   2.8098309976    0.4424881044   13.0218568434
   1.5115102107    1.0457512098   12.7544129836
   1.1198231964   18.1970185117   12.5430014476
   0.5669982117    1.2791662832   10.5432124861
  10.2675889615   11.0214300198    1.5709946683
   2.4959058018   10.0412578066    6.3975365560
   6.1619913504    9.7550267458    5.9883375410
  12.2806629212   19.3077392194   14.5726022512
  -0.6376240911    8.0423730928   18.4265253192
  17.1857330896    4.1197292987    0.0769104176
  -1.0891384891   12.0068794261   15.1771619549
   0.2805582829   10.1957395772    0.1138864757
   9.6577069975   17.6181572206    2.4597042262
   9.7041208901    5.7743564208   13.6369826155
   7.5427049812    1.7053378655   16.7278883997
  10.0303191022    5.0203683557   18.6170711983
   9.3722241349    3.5490880403   12.8245995195
   7.9444007145    1.5407168039   18.8845016709
   9.2655355519    3.9986812243    0.6586903807
   6.4451841820    2.9684620733   18.2175857774
   7.9022663340    5.3406764379   18.6558251537
   8.7918058190    1.6428936082   13.4172400125
  12.5815675902    2.9573580461   12.6513330329
  10.2819417293    1.7067900016   11.8708656610
  13.2000991169    2.8303107868   14.7412684915
   5.3146930769    6.7857840066   14.6190893235
   5.9123485701    4.8191146223   14.8459279948
  11.9610775206    4.5015887622   14.0294972224
   6.8699325725    6.1813717912   13.3340527680
   3.7411080799    3.8286215139   12.9112895397
   9.0506283633   18.6342924056   17.9454631183
   3.0779603739    5.9188036818   13.3374500433
  11.8657773851    6.7799918675   10.4204548104
   1.3759115706    4.9362790627    9.6396657437
   8.6598017296    8.0649009232   14.3360956619
   9.1229425684    8.0262342698   16.5711832325
   2.0598160570    4.2455949699   14.3626836053
  11.0949295608    8.2977401938    8.9153134342
  10.9021487824   19.3460926448    0.1217965853
  14.2574234310    2.1262734564   17.7612500340
  11.0048772209   19.3918168721   17.2910882045
   3.0346943087    3.7416930024   10.3330262856
  10.2759111529    6.3046333641    9.0957553651
   7.4532856477    8.3934319677   11.5504893745
  14.0344375619    2.5327118023    0.4996829530
  12.5941934280    3.4201485188   18.2169524676
   7.1547239205    8.7465294910   15.7331513596
   3.0678353686    5.9012267670   10.7757315562
   7.6616610602    6.8997901960    9.9836420736
  16.4941082576    8.6128642569   15.0192848070
   8.0260744804    9.0626429338    9.4656553747
  14.3906760281    2.5546208376   10.9549684103
  15.0224052178    7.5533660630   13.7130018167
  16.2985471111    3.6737234936    8.7809381830
  16.4093951946    1.8469053051   10.8219086933
  16.0474110071    5.9888250311    9.2777385012
  16.0191417656    6.3928803325   15.1080160769
   0.0743140826    8.0989231742   11.8132356520
  15.6812241016    2.6605400615   12.7499594001
  -0.7444505376    9.6427955818   13.2972117349
  14.3971942480    4.6653941396    9.3443660675
  17.0055195162    8.9957693462   11.6339522465
  -0.8587047269   18.9722528377   18.5787073202
  15.1445295288   12.0647794274   15.9625516912
   1.2216454497    3.1637755735    3.0299319456
   6.5622115060    7.0225736322    1.2213137083
   5.7767129680   16.1868143743    7.9107302983
   9.2070851960   11.1993687494    7.7753535552
   5.6780474669    6.5730580701   19.0760269982
   4.4551053054    2.8657644008   15.7161284561
  17.5219196426    3.1085256171    6.1911061896
   0.5187724942    0.8275327238    1.7969753228
   2.3868367009   16.7825636045   17.2087655158
  18.4639791630    0.8277276523    0.2485516208
   8.1563718350   15.5163796357    7.4760149552
   0.8914801493    1.3145591403   17.7244511387
  -2.5835296458   19.1789036149    0.7730344911
  13.6781590397   12.5560291765   12.0686777318
   1.4973262337   19.1662878099   17.2597842176
   7.8986217202   14.3407396112    6.2050121500
  13.7091218314   14.7260967922   14.8783072388
   5.2833597311   10.8913661571    0.0880646364
  15.5061131909   12.5093524437   12.1940263298
   3.8696973325    3.9391205297    1.2069480700
   3.2942796348    5.4616638516    0.3624397422
  12.6481929849    9.7733295374   16.7187172332
  12.1282771044   10.1847525438    5.9146439523
   1.3315487985    1.9604815553    4.2833410678
   0.1839626134    2.3746606913    6.3489251727
  10.9231543801   12.6142590978    6.9351555760
   3.0838854171    1.7765050054   15.4306353054
   5.7801064249   18.7686661620    9.2271524581
  12.5653316315   13.8503687986   15.8688223310
  12.9098697022   11.2229043404   13.9905294590
   1.6248197328   15.2684501846   17.6392731449
   3.4133020192   15.3439971054   17.1082469441
  12.0220969836   15.3301963030   14.6118019473
   7.1180129018   16.7492399979    8.7993072851
   1.9264058532    2.6637453839   17.9383887616
   2.6865676822   17.0645026496    1.3384027196
  -0.8893590404    7.5267578924    6.4348374687
  14.6330906701   10.4371258644   16.0990131622
   1.9949670365    3.5841276372    4.7556265713
   6.3151028109   15.1911840989    9.3034672186
   8.4283147310   11.3676287505    6.0676295954
   4.4974065826   10.1315770435    1.4629963266
   7.3726562834   13.8219817203    7.8721934684
   3.1728033184   10.2335967932   19.1318369466
   4.1863044980    4.2622037918   18.9287356925
  14.5227959431   13.9425946588   12.2334701989
   1.1196657178   19.4417380468    0.2117001019
   4.7271448499    1.1308801342   15.3852497734
   0.6996134704    2.4517219630   19.2035296685
  -0.1110880359   19.6189049169   16.6074627952
  18.1129951093    0.3979768651    3.8023428249
  17.5532636653    1.6998271743    2.7599158712
  11.4771343841   10.8851255888   16.1263572655
   4.2049866832    8.2377201474    1.6104940149
   3.5918847942    7.3806614816    0.0936632966
   0.7375256796    6.8064796957    5.9328763917
   1.0962806607    4.7336109345    6.3553451581
   1.5346247373   16.3429875167    0.1510594213
  11.7512321106   11.0902165105    7.6138850082
   4.5640133201   18.6820536868   11.3955958275
  11.1176567323    9.4273101023    7.1764915870
  11.7768674082   10.8708933673   17.9160291156
   9.9433821454   13.2571658986    5.6238792075
  14.6534168840   10.9132380622   13.5751295540
   4.2252172987   17.9912080616    8.3852359709
   7.7703750239   14.1015479298    3.8222120994
   0.2687822021    4.0986777115    7.7146146321
   0.2050434747    6.8513435725    7.6911245199
   5.8063256099   14.5410875823    2.8159467641
   6.9184438297    1.4713232441   11.5698766031
   2.1198566110   14.0210493730    1.4699592242
  13.9070721682   17.1415949291   17.7704022879
  14.7801738371   16.1222742496   16.5123651373
   5.1867419776   14.9106759552    0.2928451995
  -1.7109683598   14.8564844718   12.0323008257
   8.5078133638   12.4494177650    3.6267691057
   5.5141921130    1.9643582729   10.5400241055
   3.1260061479   18.1108010822   10.5302987151
   5.1184920938   14.5555260358   17.6031319630
  -0.4797607309   14.2190864882   10.9907877307
  15.4809147433    0.6919773514    2.4361743371
  15.7411665902    1.5297936291    4.0071500545
   5.6869443684   17.3121967200    4.4245246329
   6.7009473301    1.5233588662    8.1184468207
   4.3172461917   18.9992699855    2.4192739833
   1.2550374112   15.3832098434    2.3992815960
   7.3085563762    1.8085385261    4.3061304471
   4.0146835721    1.6557654661    2.0497852067
  -2.0303088866   16.9214451442   12.0621288675
   2.5570586197   14.0932283562    4.3284669332
   2.8935502087   12.8956286658    3.0627945196
   6.7571449448   12.6180867935    4.2001253175
  14.4086633000   14.1585830919   17.3401294618
   5.3300047056    0.5190866595   11.5522200917
  15.3107286829   15.1801613204   18.3573470910
   5.1630914309   12.9570971043   16.9440342579
  12.5392391458   14.3095969965    7.9398693302
  14.7843666063   16.4117403500   10.0290647378
   5.2807980173   12.9689978379    2.1739920041
   3.4307574071   15.0122390632   11.2528344828
   4.2277581709   17.2242313319    3.3160980697
   5.0669770575   14.5046226369   11.9114427067
  13.5814680680   13.2110712385    9.1062380267
   5.6665343304    1.5888084150    1.3838802191
  -0.0483323534   15.5898034965   11.9937460604
   6.8787123664   14.8912779310    0.4178270306
   4.2775674407   13.5742887872    3.9136000283
   7.3371969448    0.5388538030    6.6970462634
   5.5145164211    0.3011866231    7.1134821324
   6.6932597936   13.9537626322   17.3438841988
   8.5491325400    3.8308439815   16.7051117108
  12.9792261992   18.5113573836   12.3646809745
   3.5163382300   15.1240769181   15.3171508614
   5.1987630752   15.0850626152   14.4746315196
  11.3033845183   15.1387681550    8.9042642031
   4.5183111954   16.2524277736   11.7271362702
   4.0010744751   16.8385625974    4.9689354807
   5.7929397336   19.6649360065    3.3352595208
  -1.6808637582   17.9769701732   10.5109572722
  14.3139520728   18.2683052282    5.1298751312
   7.3238115721    1.8831902965    2.6264366553
  14.2257664398   18.2770086909    3.3645994924
  13.0955428354   17.1443318551    4.3155066447
   5.2443278610    3.0242715904    2.4756012942
  14.2759863873   14.5551960233    8.0227187307
  15.3014301791   17.9854353354    9.7179457018
  11.4800322254   15.2599662424   12.0515766937
   1.3609384606   18.6661332030    8.5673591795
   1.0117719349   13.0758971222   12.2734577038
  14.1249709409   11.9087986173    6.3994005435
  13.9356935755   12.2691384272    4.5517157910
  13.4308829414   18.7769922116   10.5796665451
  13.6074159844   15.1251216177    1.8971583314
  15.3967093176   15.5542113826    1.3125842967
   1.3152095124   11.5099995733   11.4474848161
  12.7380863325   17.2232929471   11.1704293897
   2.4711030928   12.2815732349   12.4536266701
  13.1575844918   13.4300002412    5.7207602229
   4.0520525814    2.1393885033    5.8823860608
  11.3044072355   16.4629248172   10.0204089864
  -1.1466339088   14.0759015599    8.9734807707
  10.4154841408   11.5420418969   10.8537359552
   4.6464616729    2.5417060299    7.5791314048
  13.8458668040   16.5733553142    0.8884308986
   4.8843612667    4.1229432076    5.0043655337
   5.7863257666    4.6483154315    6.3828534674
  16.1784183686   11.7157161032    7.1914308397
   6.2901982799   19.3572714230   13.7528660693
   1.4031866674   18.0814570827    7.0521751749
   1.4532424788   17.0680633892    8.4272913924
  10.0070392728   15.1128888707   11.3129227397
   3.9710337250   17.2688140316   15.6662234224
   3.2973945480   17.4002541752   14.0298364520
  -0.9231305538   13.4997062048    7.3335038626
  -0.2572024238   11.0643187502    6.5002666613
  11.4422360761    1.0596020197   14.0359889187
  14.4987032083   14.1382045644    3.7896949285
   5.2107201745   19.4869141075   15.2470926732
  10.6397692683   12.5117660602    9.4085887651
  16.8910836221   11.0467763416    4.7802377002
   4.3683613781   19.0876201608   13.7330585542
  -0.0550298039   19.1784752680    6.0315137602
  -1.7695704613   18.8512077452    5.6027195749
   9.2777864902   12.8772527605   10.3634862186
   2.5392829027   11.5585683131    9.3192617519
   0.4011156991   13.3431530404    8.6722319085
  14.8192849158   15.5590786329    4.7834919925
   3.9762926837   12.0427219857   10.2612526597
  -0.3339727731   16.5158418023    6.3349299412
  11.3571078369    1.1450201564   18.9888334633
  16.4830610146   10.4186697103    8.4064419284
  -2.0305530208   17.0732143599    6.7366491933
  15.8080175209    9.5988094985    4.8749034155
   3.1721429982    6.8264041719    7.0568716220
   9.2028830475    8.3254859124    6.1328495997
   3.8090782218    6.6318408804    5.2919814725
  -0.4386202849    9.8285448955    7.8078674423
  -1.5942155213   14.8663114185    4.3615808130
   1.0376248471    5.8725851057    3.7113243502
  -1.4196907457    9.4748570129    4.2066116257
   0.0173295120   18.5327447119    2.4187297586
   1.3231726348   18.9634451420    3.6367307670
   3.6099608092   14.2939793592    9.2772124636
   1.1374590946    5.1921339359    2.0834135784
  16.2263805682   15.2454781560    2.8681264996
   4.4962174089   13.0375104371    8.2236913950
  11.6642005632    4.7827797506    4.2079659508
   6.9776436019    6.4100044074   16.6264217423
   5.0138653713    6.6525476625    6.5517098652
   2.1119017236    6.6856444630    2.4147673576
   8.3073742339    7.9274894938    4.8403052826
  10.3931168377   15.4243106460   18.6162415971
  10.5732103168    3.9768611028    3.1853789803
   8.3400479037    6.6515368186    6.1824748598
   1.0811664247    3.5528611059   11.9185799391
   9.1639608876   18.7956548372   12.3697642214
  13.0593693052    9.0005741223    3.8124344429
   8.7814845742   16.4023149920   18.7726894166
  13.8988455300    4.5873878011    5.9314056873
  13.1881388283    7.4266393580    2.6272710726
   9.4687786719   17.2919478291   11.6928119963
  -0.4233866182   19.7144675432    3.6880026391
  15.5182674717    9.5687785004    1.2372098124
  13.4933382660    5.4459303915    2.1781884505
   8.8147264915    5.6514977061    3.3635586357
  -0.1599730680   13.3418706830    3.8924304561
  15.0079957987   10.5181297097    2.6575848589
  12.3604147957    4.1312207213    1.6969684273
   9.3564380512   15.8419817594   17.2109633852
   9.0996679477    4.8429270970    4.8154323730
   7.7716066253   17.8552092523   11.5060845542
   2.2921717408   15.5135522629    7.5931940159
  -0.5367012482   13.9912870151    2.1348393913
  10.1854843394    8.7077224994   11.1585473297
  15.2896513432    5.6146980977    6.2715480631
  -0.4973053833   12.2233140711    2.5393521206
  17.1550760799    7.2331978203    3.2769294640
   3.7798084217   15.1421523637    6.6777426230
  15.4600065500    4.3141246090    5.1149105644
   8.3852131135   18.2062637443   15.1403456954
  17.9149813848    5.7694063679    3.6218723577
  12.7657900690    6.8914122546    5.0158902921
  13.7002165683    9.5199967010    1.6315759688
   1.9634255539   14.5881626241    5.9775031064
  14.4389337252    7.5040565338    5.3376651344
  12.4578025145    5.6844622185    0.7351955712
   9.1830526236   13.1788187960   16.9165564894
  -0.7476481555    6.8788623870   13.7993484138
   9.3656306710   11.0538997872   18.2031886615
   9.0347077249   16.4748352812   15.1963311294
  10.6383537011   13.4974724687   17.9275209278
  16.0888238892    5.3181363003    2.2367054483
  11.0329783848   17.0174552552   14.1264502171
  16.4507464102    6.4283885669    1.1856717732
   8.3682541460   12.1584176786   19.1096602654
   3.1414751389    9.8433732106   16.1788310311
   0.4601159174   14.0041742068   15.9153411561
  11.0670130951   16.8779708833    4.8162423195
  13.3266629277    0.0526340135    7.0065657095
   4.9132152124   10.2147427424    7.6607229012
   6.4082306293    9.5984280300    2.6559410830
  11.2626050670   18.6535262321    7.9367751358
  17.1002414160   10.5321000945    0.3544130707
  -1.4970929943   10.7948132025   17.9661945941
  15.5603899205    5.0383416963   11.8311800606
  -2.0356384710   14.0347596243    0.1730182422
  15.7654419715   12.6732093831   18.5081682387
   0.7391277620    0.3667972864   12.7947873568
   3.7131769161    1.1927215724   12.9704565253
   0.7128124900   17.5493803178   13.4052979672
  -0.2959509022    0.8090221309   10.9140152744
  10.7189521963   17.6047442455   15.7236782249
   4.5529738957   11.3315536214    6.2673111995
  -1.8146006684   11.6946462110   14.3768399447
   9.3131071651   17.3155812488    1.5038379863
   2.4312366168   10.4124538495    7.4079749517
   2.0362931279    9.9821339726   14.7257887368
   9.3481031113   18.6929190769    4.9017140890
  17.2811330747    8.3979984745   18.1275924731
   1.5245991086   13.9102470671   14.5769500660
  10.7520220605   11.4699982680    2.5180102373
   2.3782193166   10.8319107206    5.6398419723
  15.5716983559    0.4425372653   14.0687335417
   6.4687108270    8.2429174945    3.7971909636
   2.4225912980   12.7722117072   16.9982408858
   2.0523226703   18.6036569455   12.7768746483
   1.0650112424    0.5029153970    9.9889149014
   9.8947195892   15.6422509044    4.9638445421
  -0.8482109809   11.1579549890   15.6655579193
  17.0327996687    3.1112778336    0.5312749439
   3.7079620888    9.9334746077   14.5080736878
  16.2774898390   12.4698343438    1.0189450031
  11.3326132579   18.6157034642    6.1999779958
   5.0157229050    9.0166514302    3.7634456399
  10.5945491537   10.0156055618    1.3071295621
  15.8380450114    4.4473582706   18.9706720717
   6.8453679618   10.3249896071    6.6458856215
  12.3867443494   19.5420772120   15.6230625488
  -0.2916114488    7.5526734124    0.0071884320
   9.1460749611   18.6197153286    2.7550464548
  -0.2078037355    7.2839798301   17.5827602798
   2.6270523253    0.0077965511   14.0237161192
   1.1581593086    1.8323680416   13.6119451367
   1.3087225942   17.4638056414   11.6850660116
   0.3017962678    2.1422523443    9.9692725314
   0.3128687453    9.7773653252    1.1329398445
  17.3706738271    3.9363917080   18.4680628128
   1.0783452084   10.9423932894    0.0467516979
   1.2301580073   11.5865094199   16.5405725633
  12.9712365005   18.5274049148   14.3174768530
  10.7318207343   17.7936753095    2.4281035071
   1.6241665913    9.4218152367    6.1146446803
   8.0391369456   17.4797165490    5.6746231059
   6.3273729846    8.6595698759    6.0871995974
   9.1078963638   10.9694639009    1.7113227049
  -1.5661804527   12.6882676152   15.8550689164
   4.7765700092    8.7813678678   19.2142877112
   9.4784332296   14.0446495688    7.4740617446
  14.4493476951   12.8913270471   13.9473198990
   3.9894306759    1.4022067942   17.2607096949
   2.2717245279    1.1094982001   19.2988567097
  -0.6878524345    5.4942864261    6.4404752468
   5.1809822451    5.4382700897    1.3083666113
  -0.1357197362    3.3393764116    4.5238973803
  10.2739163101   10.8996061345    5.9439371207
   5.3345487719   16.8579638447    9.8162827542
  14.8021787837   19.6977483476    1.9102215589
  13.2203988533   11.8636870949   16.6045399660
   3.0414433668   15.7872221620   19.1151899515
  12.7221086957   15.9383526860   16.5286217721
   6.4847995099    0.2817740769    9.9490614185
   3.4748608282   14.8641538591    2.5334642160
   7.3756388271   13.0797354021    2.2280736935
  12.7446142474   19.2614767516    4.3224494040
   5.6638387078   13.1346250004   18.9568605933
  -1.4418201486   15.9040293951   10.3789447722
   4.3197488823   18.8472493474    4.4919362372
   5.5394078222    1.1563386167    3.4279448859
  13.4399213605   14.6840559627   19.1977567863
   6.1195854465    2.0358654221    6.2538319514
  14.7406562499   17.8010801665   11.7209184289
  13.0838578495   15.1435754853    9.7986044018
   3.5075054221   15.1793646525   13.2526157877
   5.4648037185   17.5603147599   14.3256567146
  10.2923185154    2.5095327659   15.3886160664
   9.9536578297    2.5774212440   17.7014336679
  -0.4960441312   17.6637422715    8.0358818970
  11.0894317746   13.3187499175   11.3281941172
  15.2816986491   13.5522327443    5.5802472759
   2.2039804811   13.2147119519   10.6179035791
  -1.3764184147   11.9446919371    8.9074138109
  17.3967367525    9.3665588974    6.2302277864
  11.6276225695    1.2523574501   16.9408698949
   3.7860006188    4.8950706812    6.5765648430
  -0.3242693272   17.7976743685    4.4754022295
   9.9650372234    6.6976496606    4.8408373922
   8.6575974298    5.6768626220   15.4550561948
  16.7877612723   13.1948039854    3.2182383733
   2.5443244241   13.4818690609    7.5110304427
   9.7358096645    6.8717324548   11.9269671239
  14.5509803427    5.8528697019    4.3084841845
   0.0499265435    6.9581253669    2.2463313877
   0.4033146081    5.5915446509   12.1628168536
   8.6835466016   14.2707871574   18.6050138405
  11.3352095267    5.8678459092    2.4691204331
  14.9807014202    8.4868834937    2.9309364707
   8.3237302701   17.2126767597   13.3300255871
  17.4259026797    4.4397085731   11.1429085890
  17.1190324774    6.3337192020   12.3584688604
  17.9321209891    4.8324163995    1.0405208627
   2.8811363434   11.7768254224   15.1798621175
  10.9265217523   19.0779162666   14.1765670237
   6.4696154239   10.1883471809    4.6423560152
   9.5370588495   17.9775731207    6.8575333946
  10.6648331223   11.9975483117    0.6090634326
   0.2856153672    9.1279432491   18.5106255932
   0.2883914604   19.1878620346   12.1225821755
   1.3820685012    1.8377740474   11.5504151544
  -0.8694849275   12.2800955862    0.1226973473
   9.4102051107   16.5675011803    3.3875647067
  -0.0062368201   12.6454858227   14.4393768646
   3.7187213100    9.4091784083    6.1787371926
