B2 C140 Ca1 F48 H298 O66 
1.0
1.8949510345546912e+01 7.8197845080718368e-17 -1.4619640250010976e-17 
-2.8546934448439609e+00 1.9770592614059179e+01 -4.6208534680422835e-18 
-4.2512934230659361e-01 -9.5031146555417015e-02 1.9293433167893649e+01 
B C Ca F H O 
2 140 1 48 298 66 
Cartesian
  10.6067249487    2.1341219426   16.6120006920
  -0.9498174667    5.4461999689   11.8628776648
  18.7216807332    0.3222197769    1.1240388259
   8.1466045053   14.3821587904    7.2608164198
   5.6038949667    6.7113242083    0.7995123274
  14.5543983977   12.9090680871   12.5564010617
   4.0803025289    1.8112202482   15.9060781699
   2.7483657727   -0.0263910418   18.7872316705
   1.1985116975    2.9953521423    4.1372366183
   3.4908215147    0.1282408472   17.4298030385
  -0.3466643252    3.2101178856    5.9062257732
   4.1367714642    4.7607500239    0.5493936376
   2.6226163030   15.8275489925   17.7223599514
   1.3671319372    1.8955254207   18.4629355320
  12.7442671177   14.9049431250   15.3862844955
   4.6243075714   10.1394271610    0.3523198045
   6.1944087689   16.2216540096    8.9174212544
  14.3008820185   11.4560758338   15.7786723217
   9.2709629123   11.5703685938    6.7064078559
   9.9048410816   12.9011419019    6.6289151555
  14.0315332582   11.5020699225   14.2922565018
   4.5661393576    7.8063041290    0.6271693996
  12.2492462077   10.8061525726   16.8698638120
  11.4151064545   10.3761013933    6.7526126843
   0.2162139286    4.3133254382    6.6687524270
  -0.1504099032    6.7831682827    6.6441319665
   4.8929073900   18.1808168896    9.3024357138
   2.4836186147   16.1121888053    0.7351211993
  17.3956225449    0.6396834380    3.0722363749
   3.9822610818   18.7809436963   10.4344984692
   2.2314513076   15.0355601005    1.8097482865
  13.9486009413   16.1620247122   17.2331359853
   6.0412756234    1.1587235379   11.0080459258
   7.5698307851   13.0157278652    3.6483612959
  15.9352851793    0.5762844903    3.4645639201
   6.1318491157   13.7177414257    2.0378801335
   6.0504852356   14.2645147927    0.5956327397
  -0.8488039242   15.1398795055   11.4370991607
   3.3012721827   13.8014369032    3.4936975653
  14.2773729044   15.0151742971   18.0550405758
   5.6158319582   13.6655773584   17.6279081320
   4.5985526622   17.5187521249    4.3506593439
   4.6861398789   19.6097583879    3.3659046847
   6.9473702768    1.2148483367    3.4581192043
   5.0294316639    1.9436655090    2.2031174881
  -2.1390614093   17.0372077436   10.9507748031
   6.3906120976    1.0307344508    7.1133789392
  13.4192265284   14.3006380592    8.7037448719
  15.3661101942   17.1916198713   10.4909848718
   4.2283536429   15.2675344713   12.0231233716
  13.6273429948   18.1751062981    4.1920890546
   7.6630583939    2.3883165323   17.9323419091
   8.8865631680    4.3994606129   18.7317720774
   8.7810958150    3.3285135815   17.6773163468
   4.1611891616   15.4659631372   14.3756503385
  13.3895865750   18.0811397094   11.4232612419
  11.6684378718   15.3410452072    9.9204195093
   9.9597970464    2.2030148046   13.0461099703
  14.2084746708   15.5562814158    1.0547156576
  14.0848363793   12.8078658826    5.5658373724
  11.0708015082   14.7671333542   11.1821893719
   4.7753376203    2.6940713851    6.5040010805
   1.7264729985   12.5119773253   11.7146608406
   4.1529823540   16.9315284316   14.6391836014
   0.9938054174   17.8865497093    7.9573493931
  11.0092979244    2.0937160647   14.1817708978
  12.1945642073    3.1653920455   13.9451084636
   4.8808038465    4.0870720232    6.1232769926
   5.3773591452   18.9684275296   14.2295417313
  10.2876181101   12.4941169170   10.4379837091
  -0.7401804415   13.2484194413    8.3996639718
  16.9593743760   11.1722937674    7.8205118852
  -0.9199402100   17.2853078374    6.6659211348
  -0.9648389180   10.4038261102    6.9979100586
   6.4317802502    6.0966470873   14.5939280521
  15.2375647531   14.4321268737    4.4941664909
  -0.7695932032   18.3699197361    5.6978874886
   3.0497022594   12.4851862491    9.7482476941
  16.8335272972    9.9147066757    4.9342313761
   3.9626141345    6.3273250696    6.3287339683
  12.1268002907    1.0576774177   18.2631568696
   2.5809437377    4.6636874969   13.1306575931
  10.0413736923   19.5080462130   18.1892129380
  16.4916026289   14.5227978453    3.6950249493
   7.5328899421    6.4360307208   15.6620281247
   3.5409070918   13.4249606493    8.6726722834
   8.9303708631    7.3858180889    5.5955757630
   0.1597719612   18.7792968215    3.5460283650
   8.1086121264    7.8510088240   15.5189522283
  10.7104376845    7.2878424014    9.8124214049
   1.1719410893    6.1273012223    2.6599775796
  13.1354937237    2.2915931988   18.5053055792
   2.2587830455    4.7552991599   10.6134103400
   1.4682363898    4.6804820505   12.0291274475
  10.8248113640    4.9811668634    3.5014741395
   9.6004277752    5.5788565579    4.1490900399
   9.2985060487   15.5764215346   18.2886528576
   9.7112771093    7.7620256367   10.8790573955
  13.6436117167    8.0528682525    3.4422412970
   8.6702106152   17.7866368393   12.1403191294
  -0.6913387700   13.2427326752    2.9335491389
  14.7531622168    5.0081870133    5.4744087615
   8.2036026068    8.0410356809   10.4258028096
  14.7693674049    9.6064953068    2.0533675782
  12.4629996114    5.2424097474    1.7883422285
   2.6874295700   14.7819197781    6.9083733089
  13.8447280332    7.1028127298    4.6052297105
  17.8116325989    6.4073512634    2.8057546994
   8.9956941261   17.4170645441   14.6173605718
   9.5184388616   13.2919913546   17.9786295785
  16.1768138865    7.4523607582   14.2664569383
  17.4060148862    7.3319826721   13.2939848205
  16.9566685114    5.6632919455    1.7985098004
  15.6615162383    2.8303525732   11.3881416639
   9.3262230381   12.0320822872   18.7273417815
  16.0404353965    4.2558239346   11.0839809600
  10.5279662805   17.7904048981   14.6684269271
  15.7241313707    4.6727012162    9.5883447441
  -1.0458238639    8.5988365664   12.4951883983
  10.7046141253   18.7476860260    7.0068101141
   2.9605298070   10.3160528327   15.1778852747
  -1.3971362445   10.7875000832   18.9975437105
   0.9643804577   13.3003744133   15.2863948686
  16.8020050904   12.9402191454    0.1329521623
   4.7428407317   10.2685762332    6.5149172219
   6.0527556908    9.2098264738    3.6071492222
   9.9714043709   16.6664525834    4.7093639670
   9.1560477714   17.7610813335    5.4696062314
   1.9458499184   12.3492016843   16.0464757601
   2.7984367851    0.4442799680   13.0201029557
   1.5081276517    1.0505603011   12.7482245757
   1.1276483273   18.1868918603   12.5396544204
   0.5672945911    1.2728731985   10.5288179017
  10.2675688822   11.0129101362    1.5674978916
   2.5017454029   10.0402993608    6.3956229348
   6.1723861877    9.7518831568    5.9847396722
  12.2853765130   19.3146822822   14.5614002123
  -0.6471617029    8.0415975219   18.4095336181
  17.1856988189    4.1237227364    0.0741644901
  -1.1021274915   11.9963353508   15.1726706489
   0.2899217660   10.1981283249    0.1169953781
   9.6600632350   17.6171010793    2.4547621514
   9.7040556633    5.7724809538   13.6309623596
   7.5346603384    1.6982047254   16.7263177634
  10.0234119111    5.0206733794   18.6025121820
   9.3661019989    3.5512405676   12.8114205664
   7.9351521708    1.5312206410   18.8699542432
   9.2706104333    3.9909279478    0.6608761272
   6.4329610308    2.9737737724   18.2147986592
   7.8944169099    5.3388464253   18.6380877402
   8.7876178749    1.6453834965   13.4137353919
  12.5782295576    2.9575434409   12.6452756344
  10.2749062740    1.7019328435   11.8631427014
  13.1981484609    2.8366649937   14.7392803334
   5.3025279253    6.7874161377   14.6186492658
   5.9082880570    4.8098283230   14.8373612074
  11.9599752996    4.5027346205   14.0260867607
   6.8672721826    6.1789084874   13.3278441190
   3.7347075168    3.8164877286   12.9075954981
   9.0590757920   18.6292970588   17.9438838456
   3.0776544849    5.9215331342   13.3319451040
  11.8594835508    6.7766465989   10.4198815857
   1.3765889185    4.9421787454    9.6296257956
   8.6536893862    8.0595860747   14.3261730814
   9.1212532030    8.0210690972   16.5568418991
   2.0594774966    4.2451289631   14.3522201946
  11.0931264190    8.2982990002    8.9117480862
  10.9111237533   19.3415207491    0.1231196285
  14.2501202389    2.1199955765   17.7562141614
  11.0134660846   19.3873013214   17.2921643068
   3.0300566850    3.7511471213   10.3406967176
  10.2732499319    6.2984598738    9.0911546494
   7.4568630368    8.3862175850   11.5499288662
  14.0329646152    2.5334668853    0.5019300070
  12.5889749951    3.4213229914   18.2158255334
   7.1491501539    8.7509892853   15.7224795892
   3.0608780343    5.8986370414   10.7714603659
   7.6698436977    6.8968524547    9.9863381746
  16.4872532650    8.6145040261   15.0198404262
   8.0261761544    9.0671459461    9.4673328967
  14.3825036919    2.5528711790   10.9535387568
  15.0204750568    7.5498714320   13.7074513293
  16.2919983039    3.6730405355    8.7814062075
  16.4000540254    1.8425536557   10.8113099313
  16.0364209301    5.9944441668    9.2659207912
  16.0143653262    6.3958475507   15.1011883967
   0.0683314196    8.1034581954   11.8027766434
  15.6796655715    2.6514994250   12.7390449651
  -0.7492898060    9.6493576413   13.2879759390
  14.4011360743    4.6633444781    9.3462423070
  17.0057915510    8.9995963281   11.6384381939
  -0.8714614493   18.9763855323   18.5672289656
  15.1319565665   12.0768698123   15.9537119057
   1.2436795387    3.1409067717    3.0167528898
   6.5579206989    7.0294312246    1.2432383772
   5.8012427807   16.1932376886    7.9044820490
   9.1902366028   11.1719382850    7.7488531322
   5.6599212698    6.5414659493   19.0427985412
   4.4404101310    2.8183578152   15.7108708147
  17.5148524132    3.1114907673    6.2050531317
   0.5046580488    0.8428490444    1.7780407709
   2.4077226665   16.7840270345   17.2167171527
  18.4867543339    0.8455052167    0.2297825231
   8.1722071925   15.5185530010    7.4681692257
   0.8797602257    1.3342239911   17.7081327194
  -2.5784838536   19.1848054703    0.7641044910
  13.6767463539   12.5616895735   12.0420953456
   1.4946375321   19.1653276684   17.2545484300
   7.9131224904   14.3489595345    6.2015995978
  13.7023632086   14.7181291938   14.8948255359
   5.3092849383   10.9067202910    0.0528514707
  15.4905768317   12.5002621618   12.1801854771
   3.8735850807    3.9420079820    1.2165140636
   3.2929911905    5.4450044094    0.3684191115
  12.6488454572    9.7657552525   16.7555343327
  12.1456849839   10.1828449861    5.9152918187
   1.3346144776    1.9439018650    4.2857150294
   0.1790627615    2.3630229037    6.3615318289
  10.9442903460   12.6175731334    6.9201413288
   3.0582309398    1.7587940067   15.4282227162
   5.7798734521   18.7563640034    9.2175875195
  12.5512513228   13.8263733906   15.8561109870
  12.9284365378   11.2242319995   13.9964925197
   1.6287172894   15.2617775153   17.6153517394
   3.4191892702   15.3408927210   17.1111157093
  12.0328212959   15.3250258267   14.6170444503
   7.1361406433   16.7511993928    8.8371241458
   1.9053170436    2.6346047093   17.9492999619
   2.7147846266   17.0694995821    1.3300993281
  -0.9002775066    7.5271260522    6.4367135321
  14.6414536097   10.4354524415   16.0940693721
   2.0002848266    3.5635621797    4.7790707127
   6.3151605505   15.1983744611    9.3118128743
   8.4367870531   11.3635998289    6.0815441264
   4.5119190679   10.1281251745    1.4480475025
   7.3671129188   13.8488833136    7.8706641324
   3.1834530470   10.2260228382   19.1030529250
   4.1670027998    4.2664908575   18.9269383633
  14.5189409329   13.9384251030   12.2417286567
   1.1431689196   19.4217853150    0.2096956321
   4.7457414769    1.0812219849   15.3744571315
   0.7137815968    2.4458553229   19.1864170170
  -0.0995694462   19.6243784923   16.6035637888
  18.1058152085    0.3832012289    3.7955327276
  17.5395588882    1.6959516668    2.7627897425
  11.4416167935   10.8637363600   16.0927778508
   4.1919839169    8.2410773054    1.6230417237
   3.6144049645    7.3719948473    0.1001303815
   0.7355641067    6.7831792995    5.9696875669
   1.0751533325    4.7435644964    6.3631950451
   1.5440716272   16.3419211340    0.1333215620
  11.7584432722   11.1050805421    7.5915596455
   4.5648376044   18.6961700904   11.3680326426
  11.1173590988    9.4190359804    7.1833703824
  11.7764607086   10.8727251873   17.8772331781
   9.9486773448   13.2406043894    5.6147740529
  14.6791976004   10.8922127347   13.5821500351
   4.2201735750   17.9999826433    8.3816707545
   7.7873337372   14.0852919447    3.8182028817
   0.2966112090    4.0990118607    7.7207662315
   0.2137396400    6.8486933769    7.6597153687
   5.7972256419   14.5441883128    2.8020129964
   6.9195821004    1.4490748127   11.5774492775
   2.1264589410   14.0153823646    1.4509202710
  13.9085549387   17.1357127871   17.7654841893
  14.7792163221   16.1212999395   16.4856728722
   5.1958724140   14.8999970528    0.3118832235
  -1.6834109987   14.8681016213   12.0351774146
   8.4813813885   12.4430212334    3.6180742218
   5.5414973610    1.9663426797   10.5293711588
   3.1152707548   18.0925682772   10.5279833137
   5.0937829539   14.5204207498   17.5881871494
  -0.4940653967   14.2177725047   10.9876985525
  15.5011458691    0.6907935094    2.4375123141
  15.7514589962    1.5581749316    4.0020864553
   5.6891668057   17.3059107266    4.3885463766
   6.6865527005    1.5028733720    8.1013149952
   4.3163578551   18.9927821864    2.4209896907
   1.2593544692   15.3703311190    2.4062641753
   7.2943891981    1.8097684223    4.2961769042
   4.0114755128    1.6652566661    2.0671369957
  -1.9996660127   16.9454537533   12.0624070083
   2.5767611659   14.0695737086    4.3229287674
   2.9347333487   12.8794012493    3.0355458362
   6.7722679199   12.6092317858    4.1825859434
  14.3620275342   14.1717686347   17.3385997134
   5.3438550975    0.5323932850   11.5719916803
  15.3061726502   15.1812638161   18.3566490517
   5.1685922264   12.9556444696   16.9319924957
  12.5217022216   14.3164995735    7.9866684253
  14.7548642612   16.3917229450   10.0418861703
   5.2992519426   12.9891116953    2.1993317286
   3.4411475969   15.0046604507   11.2551916206
   4.2452640087   17.2278033102    3.3182008426
   5.0686361722   14.5226208308   11.9120777321
  13.5966573131   13.2086429375    9.0992269920
   5.6710212084    1.5924710866    1.3919351802
  -0.0477997800   15.5924935892   11.9912447408
   6.8909383135   14.8864735169    0.4158342483
   4.2836843344   13.5619350007    3.9022841531
   7.3370371151    0.5321591221    6.7325758581
   5.5252597592    0.2845063509    7.0924458287
   6.6933523813   13.9622266045   17.3473944820
   8.5318582943    3.8445816588   16.7120511461
  12.9677112537   18.5387098181   12.3645306762
   3.5053567808   15.1149593983   15.3200349822
   5.1877013361   15.0971465216   14.4483060371
  11.3163965162   15.1231787959    8.8801563772
   4.5037301681   16.2768707311   11.7304354381
   4.0098406753   16.8175298109    4.9565717737
   5.7899892231   19.6715117556    3.3212344349
  -1.6875812311   17.9824847924   10.5159246406
  14.3178062989   18.2710992378    5.1501062889
   7.3119842039    1.8839921842    2.6289351944
  14.2258613604   18.2604650896    3.3483293429
  13.1037420386   17.1441859261    4.2989751455
   5.2430258791    3.0313563020    2.4777189218
  14.2863239783   14.5594517915    8.0218471616
  15.3094289709   18.0074242185    9.6983015233
  11.4954039226   15.2603490937   12.0492627516
   1.3556376249   18.6855430696    8.5695207840
   1.0199014621   13.0921718397   12.2957306754
  14.1190671542   11.8990389350    6.3805036818
  13.9718006783   12.2742603506    4.5436991895
  13.4063444380   18.7758954420   10.5802668049
  13.6496957528   15.1459540040    1.8819263374
  15.3911916305   15.5540548497    1.3327299703
   1.2774012935   11.5034450012   11.4770212195
  12.7517017041   17.2181257137   11.1717252341
   2.4526685133   12.2758899867   12.4797908151
  13.1838289927   13.4092297673    5.7029050315
   4.0699391167    2.1389234265    5.8787185918
  11.3217716121   16.4549863124   10.0279154774
  -1.1198219732   14.0667131814    8.9749468499
  10.4093215278   11.5386815098   10.8548260993
   4.6441182913    2.5684655684    7.5985607829
  13.8575944602   16.5952058641    0.8919605290
   4.9064209671    4.1067459217    5.0045731524
   5.7954198687    4.6480775467    6.3773626616
  16.2172596824   11.7324682501    7.1863905105
   6.2965825279   19.3572311546   13.7427021316
   1.4142411626   18.0868830445    7.0324321358
   1.4658939457   17.0784012048    8.4277694642
  10.0110970584   15.1115592060   11.3156048699
   3.9918331316   17.2582457726   15.6609027904
   3.3119664563   17.4117994896   14.0196037370
  -0.9111156293   13.4933592340    7.3396644580
  -0.2587138524   11.0826842659    6.5011518425
  11.4464367399    1.0578600234   14.0219591630
  14.5294488382   14.1215445389    3.7981104243
   5.2257551383   19.5093312862   15.2500956192
  10.6719905744   12.5374586568    9.4168244040
  16.8976095233   11.0297478841    4.7788442839
   4.3582758998   19.1104830429   13.7302243295
  -0.0539592678   19.1813784024    6.0362545047
  -1.7496707288   18.8353052439    5.5966429644
   9.2678170653   12.8860740221   10.3459248591
   2.5382645689   11.5637068665    9.2939076537
   0.4144924793   13.3408701958    8.6813376471
  14.8249156598   15.5391774843    4.7742089369
   3.9708826323   12.0533017615   10.2343277813
  -0.3172893358   16.5061141795    6.3225326269
  11.3514109614    1.1463555164   18.9663414295
  16.4824048168   10.4151263797    8.3937921177
  -1.9974445348   17.0887496739    6.7373347402
  15.7933677041    9.5958718166    4.8775929034
   3.1778809631    6.8405852916    7.0743242708
   9.2117383417    8.3187244209    6.1151604099
   3.8152038100    6.6197700474    5.3067363044
  -0.4536703402    9.8278971090    7.7999190477
  -1.5776273054   14.8657607692    4.3536889696
   1.0390839366    5.8877821084    3.7134697929
  -1.4232625487    9.4740186162    4.2079917607
   0.0225806020   18.5273835110    2.4010638943
   1.3293985736   18.9618620078    3.6414777613
   3.6179070942   14.2754358784    9.2738197214
   1.1404080864    5.1917199493    2.1059446641
  16.2313894104   15.2410762687    2.8617173319
   4.4875906019   13.0454482256    8.2031585962
  11.6708066277    4.7564735432    4.2364816523
   6.9902771041    6.4028880709   16.6285077946
   5.0351906636    6.6385182744    6.5575728109
   2.1140313615    6.6889032492    2.3964195280
   8.3243548305    7.9092310926    4.8390303289
  10.4072960333   15.4254546041   18.6391146256
  10.5579468601    3.9658206375    3.1826241708
   8.3480416041    6.6650089292    6.1771761534
   1.0803066872    3.5743987853   11.9242582011
   9.1661743327   18.8033947085   12.3733310753
  13.0408400962    9.0038520389    3.8245230036
   8.7821262647   16.4076429780   18.7356844677
  13.9035410063    4.6067233823    5.9145274026
  13.1922129864    7.4365664873    2.6107205575
   9.4848689849   17.2963633422   11.6828746724
  -0.4143185294   19.7056814612    3.7059341013
  15.5319674716    9.5737186618    1.2136917777
  13.5059156902    5.4458534007    2.1985933034
   8.8296189133    5.6594580061    3.3732488735
  -0.1528379068   13.3315721137    3.8900831416
  15.0099005537   10.5155938287    2.6576570187
  12.3793217505    4.1612893607    1.6866191669
   9.3787930748   15.8312546316   17.2111418516
   9.1056309335    4.8624826287    4.8250745987
   7.7631741365   17.8466231824   11.4920179448
   2.2929722824   15.5199120834    7.5930822586
  -0.5098400575   13.9843692821    2.1542409128
  10.1834936247    8.7053722798   11.1367710010
  15.2706335025    5.6104744892    6.2625849788
  -0.4893581167   12.2032817604    2.5608750920
  17.1658858636    7.2541531614    3.2568141943
   3.7755534947   15.1460844988    6.6705966036
  15.4825790774    4.3288284838    5.1142801750
   8.3871903311   18.2101086881   15.1607993212
  17.9199693075    5.7701532778    3.6228617197
  12.7592203355    6.8880785520    5.0216954227
  13.6875064092    9.5218192852    1.6345312352
   1.9582030974   14.5918067355    5.9864678730
  14.4502582040    7.5195057098    5.3389079923
  12.4570127210    5.6926144752    0.7296475334
   9.1677027749   13.1871271085   16.9065335476
  -0.7383529836    6.8642797507   13.8011330238
   9.3651368991   11.0509595879   18.1813285450
   9.0267931389   16.4623397214   15.2110455685
  10.6417266524   13.5169781218   17.9350416326
  16.0895707674    5.3086208375    2.2269608936
  11.0500323027   17.0167060036   14.1061044636
  16.4573197025    6.4382961155    1.1583227339
   8.3471644173   12.1532608792   19.0823809820
   3.1049259647    9.8297407687   16.1505993185
   0.4637196332   14.0365157702   15.9134004100
  11.0681812326   16.8740994457    4.8119338579
  13.3329774082    0.0620220984    7.0167495905
   4.9128609432   10.2241512767    7.6583252302
   6.3983626657    9.6094494019    2.6653005893
  11.2618163799   18.6568686001    7.9603806535
  17.1018204522   10.5201797425    0.3593075285
  -1.5092819729   10.8185745660   17.9679438938
  15.5693450263    5.0121097726   11.8323880493
  -2.0034786598   14.0451022277    0.1715709647
  15.7599357326   12.6676144602   18.4872704219
   0.7326459573    0.3505822074   12.7688996049
   3.7000634102    1.2348826623   12.9520510045
   0.7118770912   17.5609793658   13.4209476324
  -0.2963262647    0.7895888532   10.8930658973
  10.7373754578   17.5987429114   15.7221447524
   4.5577980963   11.3226995597    6.2612870696
  -1.8219802325   11.6923208298   14.3559876341
   9.3342434682   17.3004002830    1.5000217626
   2.4400687934   10.4071656202    7.4305445067
   2.0215366653    9.9884845786   14.7242612704
   9.3334445406   18.6824812546    4.9202514460
  17.2911618441    8.4276258415   18.1181791939
   1.5323261450   13.9037322376   14.5476392073
  10.7340581492   11.4531056985    2.5233755493
   2.3892995004   10.8266329404    5.6299928988
  15.5751291025    0.4496134479   14.0820315157
   6.4748780779    8.2362071544    3.8101856135
   2.4235421477   12.7917096087   16.9750046296
   2.0548352200   18.5864288557   12.7862199790
   1.0518802987    0.5054977566   10.0092718109
   9.8928535737   15.6245680182    4.9844630757
  -0.8624872582   11.1453905674   15.6772380030
  17.0454747117    3.0866114020    0.5462186679
   3.7045766832    9.9385183121   14.5090265886
  16.2746684051   12.4846242597    1.0048539690
  11.3677605871   18.6227200302    6.2053091770
   5.0105100916    8.9991094068    3.7791954715
  10.5795764290   10.0367158877    1.2997859015
  15.8533986260    4.4676561795   18.9830965092
   6.8298525634   10.3121101228    6.6630047599
  12.3831280093   19.5488353957   15.6193962335
  -0.2985446883    7.5694034349    0.0330958224
   9.1454902075   18.5868064911    2.7723525198
  -0.2349563802    7.2779185487   17.6030181196
   2.6106645486    0.0320446705   14.0111290022
   1.1620150590    1.8255178060   13.6156471097
   1.3181164817   17.4532179348   11.6673251899
   0.3081271283    2.1492018451    9.9462855087
   0.3228393650    9.7973104414    1.1177717768
  17.3876606929    3.9256638968   18.4693153908
   1.0775396587   10.9613956904    0.0474068940
   1.2344519698   11.5801452420   16.5305404191
  12.9871143141   18.5056494787   14.3321166579
  10.7591009477   17.7660622550    2.4101553596
   1.6366913002    9.4218376243    6.1130188817
   8.0849237356   17.4923839701    5.6629162135
   6.3235503211    8.6518207575    6.0960010102
   9.1030197928   10.9716845731    1.7142980762
  -1.5804135589   12.6737041551   15.8328881388
   4.7635631337    8.7843620631   19.2162813196
   9.4804282524   14.0446612717    7.4678804529
  14.4465170819   12.8885822591   13.9383657597
   3.9757464664    1.3972748922   17.2611317454
   2.2575641696    1.1112590233   19.2893797450
  -0.6863677198    5.4969150119    6.4460908088
   5.1916266410    5.4427694535    1.3053624698
  -0.1339366374    3.3386392556    4.5251830043
  10.2795433954   10.8992230471    5.9387756619
   5.3380392977   16.8595154508    9.8127851969
  14.8107564007   19.6991965789    1.9078719116
  13.2169849507   11.8656970074   16.5995910926
   3.0418502950   15.7901156895   19.1002621460
  12.7282618816   15.9412158458   16.5300162693
   6.4854665328    0.2894225182    9.9345569061
   3.4899144498   14.8637915611    2.5330998303
   7.3810065649   13.0753606031    2.2269731062
  12.7629665449   19.2634609948    4.3276713853
   5.6602514599   13.1255913953   18.9491342535
  -1.4337784944   15.9052419053   10.3811724073
   4.3260770954   18.8564956086    4.4881093874
   5.5324152303    1.1550753833    3.4264363074
  13.4342328406   14.6887383302   19.1846171272
   6.1239130990    2.0287573622    6.2520688593
  14.7375092164   17.7967951940   11.7163095150
  13.0887693904   15.1303207430    9.7942286053
   3.5080701024   15.1706457610   13.2468607227
   5.4723664092   17.5618045019   14.3143896411
  10.2828529462    2.5147130650   15.3839572576
   9.9605809292    2.5805756326   17.6887294163
  -0.4898313061   17.6526968916    8.0323334412
  11.0917616840   13.3149204814   11.3173343924
  15.2818532586   13.5614961392    5.5718994852
   2.2140047600   13.2206550543   10.6147303162
  -1.3775923669   11.9531062837    8.9054825813
  17.3950244126    9.3620741232    6.2272989100
  11.6206234196    1.2461653054   16.9366663234
   3.7904846817    4.8888251823    6.5718503960
  -0.3176374892   17.7914821215    4.4702425458
   9.9714125411    6.7024585661    4.8446127686
   8.6490473019    5.6737853216   15.4519992492
  16.7883202075   13.1912955042    3.2261752326
   2.5511124224   13.4775583506    7.5042490807
   9.7308569615    6.8759497633   11.9246018168
  14.5441474833    5.8559151295    4.3098720646
   0.0540625174    6.9601908061    2.2470876911
   0.4015211924    5.5958857172   12.1594293846
   8.6814647053   14.2635061033   18.5993538214
  11.3384054067    5.8618756904    2.4661113364
  14.9877996229    8.4961965709    2.9280248936
   8.3272236591   17.2157503604   13.3250440093
  17.4214858711    4.4368265873   11.1382196830
  17.1157731578    6.3339944804   12.3540570922
  17.9378511170    4.8273398636    1.0409250509
   2.8747547196   11.7751616258   15.1759503263
  10.9383880833   19.0738023216   14.1717515347
   6.4783438951   10.1917222459    4.6366421172
   9.5394764936   17.9837940675    6.8577733170
  10.6694469772   12.0020931324    0.6135889789
   0.2737792791    9.1242139198   18.5017859621
   0.2897273267   19.1897263153   12.1092442017
   1.3762618578    1.8284333208   11.5464839486
  -0.8657214075   12.2779718857    0.1071766585
   9.4172646952   16.5655980288    3.3854326723
  -0.0051817056   12.6371782239   14.4333229320
   3.7198066544    9.4038784258    6.1709648034
