B2 C140 Ca1 F48 H298 O66 
1.0
1.7760512110544056e+01 3.0476042169891517e-16 4.6356314243662746e-17 
-2.9619084056114819e+00 1.9218483519650942e+01 -2.1443307029378536e-16 
-6.5246796568027177e-01 1.4715937797352432e+00 1.9470269677549886e+01 
B C Ca F H O 
2 140 1 48 298 66 
Cartesian
   9.9361274566    3.6402795487   16.8212931335
  -1.0828439039    6.4109744259   12.1565890401
  -0.0900919123    1.5337251928    1.5080920484
   7.0290870980   13.6796486703    7.0499292218
   4.7289982868    6.5712430210    1.0605145631
  12.4951447248   12.5772344935   12.4379695066
   4.3151069719    2.9551332139   16.2885244512
   1.9114962938    2.0064550103   18.2437582536
   1.3289842484    2.7795543356    5.4210990614
   2.5191531536    1.5243168138   17.0015651472
  -0.5901771357    4.1496884843    5.8120493507
   2.9274657042    6.4913370592   19.0420512604
   1.8234231533   17.2678856620   18.3204367930
   0.6552995658    3.9554777240   17.5556057262
  11.7016316353   15.8782410414   15.1803065251
   4.8453727233    9.9533627060    0.7174177368
   6.1085613815   17.1593800272    9.3994563296
  12.2799182935   12.0698845682   16.1457352318
   9.5707701496   12.0956119596    6.6802638087
   9.3240938307   13.6288791714    6.5010835686
  12.6217027118   11.8945034556   14.6690590994
   3.9310201740    7.8197879012    1.1137292913
  11.4246164215    9.9676425117   16.7698232998
  11.7553506161   11.6617522381    6.1610772057
  -0.0736593212    5.1904671799    6.6908716111
   0.9314962618    7.4458177560    6.9978613769
   4.3659563599   18.9823108867    9.6682409506
   2.1371529338   16.3749613009    1.2339534234
  15.8515169998    1.6824442246    3.0087451306
   3.5446822844   19.5184184398   10.7769607988
   1.2953828493   15.1524382941    1.5304048656
  12.9362105237   16.9788799042   16.9973412152
   5.3033521138    2.4641338735   10.8889126149
   7.3763315369   13.8040702357    3.0462100763
  14.6002437109    0.9920506024    3.4846080208
   5.9461785921   13.5889234316    1.1509785797
   5.3445560115   14.9558633483   18.9916466592
  14.8268140124   15.3315268349   12.1334590037
   2.0911498139   12.8739960102    1.8309257059
  12.5545597631   15.8761843711   18.0940745715
   5.4330591381   13.6559391529   17.0996050227
   4.9869245419   17.8170471727    3.9777427127
   7.2053391496    0.4436491553    2.6621515711
   6.2313799998    1.6555580733    2.7133317240
   3.9969316118    2.3341723951    2.2878245520
  -2.7041753325   17.1087310619   10.4648147368
   6.9212223644    1.2837876691    6.5958157009
  12.0660433477   15.1425275207    8.8815460647
  13.5703016886   17.6480150633   10.3663880426
   3.5419983268   15.9494933097   11.7695139758
  12.8673282890   18.4169904831    4.3992677177
   7.1754337864    2.6766891844   18.2490309986
   7.4768899410    5.1181607284   19.1495981803
   7.8061935323    4.1250625260   17.9593433544
   3.6410457990   15.7158527950   14.2331680476
  11.8601605988   18.8241745098   11.6987210918
  10.0337989103   14.9314514226   10.1825883473
   9.3105524687    3.4694561026   13.2705140646
  11.9590687999   15.7431864817    0.2825393456
  11.9675118254   13.4864212045    3.2598150122
   9.3619641955   14.5281284752   11.4792001328
   5.4040936813    3.2150191704    6.4865975188
   1.4009692363   13.0059995907   11.0190756063
   3.5391889927   16.9651089574   15.0693399235
   0.0538968726   18.5019641694    8.4932775520
  10.3099831719    3.6439910218   14.4274693836
  11.3992818735    4.6645246456   14.0313304559
   5.3725541889    4.6961541165    6.0816112309
   4.3505488754   19.2155516296   15.0831703258
   8.5021812239   12.5030109807   10.7452413244
  -1.4903419719   13.5889947287    8.7575605516
  14.9084722790   11.5265035530    8.7651645103
  -0.6989246826   16.9098496338    6.8368283755
  -1.7074653659   10.6436378194    8.1381809249
   5.6655787685    6.8253502220   15.5375200652
  13.4031588564   15.0448455279    4.5028906200
  -1.4812203775   17.8334772104    5.9218087649
   2.7633503961   13.6607974206    9.1857186618
  15.8044708787   10.2521340826    5.7520237936
   3.5420323422    6.2834825531    5.3648150153
  11.5727689824    2.8394192262   18.3290635380
   2.0122635104    5.6416031641   13.3779822001
   8.8293818223   20.4730846278   18.6226022761
  14.3650043620   13.9452633007    4.8814763046
   6.7797260189    7.5828286021   16.1966438015
   2.6739005005   14.5919382450    7.8931683771
   7.4498794353    7.3830147019    3.9729609372
  -0.6460096826   17.8562138734    3.7685879768
   6.7595881340    9.1063547059   15.9934212666
   9.4200689407    7.7295030215    9.5288222643
   0.2487105921    7.7125526940    3.3761114138
  12.7568812144    3.6736144112   18.6477074833
   2.1154936134    6.0374612973   10.7613945980
   1.2429004480    5.7802119863   12.0809166139
  10.6417888224    5.9735875828    3.0501478640
   9.3227486672    5.9268489751    3.7024845739
   8.5693231618   15.9215886001   16.9701576979
   8.5354932044    8.4355251527   10.4960381164
  11.9678467360    9.2601017861    3.8652606531
   8.4204856408   17.7009985759   11.8402200353
  -1.4423552485   13.0995287565    4.0998340446
  14.0200547450    7.0796119753    6.0749766218
   7.1007716306    8.7225266871    9.9272904500
  12.6492488286    9.7572720579    1.6236159291
  11.8334295697    6.3326554518    1.0776212028
   2.7541807306   14.4009756675    5.4918382919
  12.5665389291    8.6554371294    5.0545954734
  15.8107438763    7.1867485831    3.3365587135
   7.8455507713   18.5857034522   13.9134787149
   9.0648717512   13.8545909145   18.0292244866
  14.7498271792    8.2509976793   14.5855336697
  15.7631062692    8.3167961284   13.4809419422
  15.6067395128    6.1844889808    2.2095882495
  14.9363608416    3.3999825745   11.0144911800
   8.6130974659   12.8071797023   19.0653254850
  14.9805255522    4.9530107732   11.2130701977
   8.5439047598   19.3813953599   15.0034026450
  14.2659668890    5.6445252041   10.0548396236
  15.6914908790    9.6897418343   12.7072227228
  10.9724260203    1.1643908475    7.1663574658
   2.3436052951   10.4246147452   15.6451288195
  -1.8507072326   11.6304080375   19.2197503274
   0.8623478514   13.7032325797   14.8730433382
  15.4217519549   12.1315110388    0.7528598918
   4.4974325172   10.8754810224    7.3512367533
   4.8315515217   10.9315697148    4.1944261946
   9.1229962671   17.2379477591    6.0521494027
   7.8934737387   18.2309010218    6.0040697189
   1.3759711316   12.6657332180   15.8392715576
  -0.9155442662   20.1058016101   13.1204066085
   0.9008754508    1.6868305930   12.4586907827
   0.6666836075   18.2854284047   12.6178181948
   1.5154914734    2.2147830993   10.1130633646
   8.9690360349   11.0388050195    2.0603317835
   2.4384022897   10.2273522638    8.2418195675
   5.5764284045   10.3753819404    6.3708079631
  13.6099448283    1.5226022921   14.6037805598
  -0.7950745455    8.9803735739   18.4705705789
  16.6097889252    4.7376391114    0.5990239884
  -1.3944787826   13.3156065705   15.5355224445
  -0.3162392278   11.1103044380   19.3333699452
   9.6137579739   16.7420678723    3.7191884299
   8.2565120967    6.9724971445   13.6126806412
   7.1238242241    2.0736627398   17.0087326454
   8.1448364807    6.2272065711   18.8811945386
   9.1312749513    4.6349648683   12.5574506001
   8.0526875415    1.9556341107   18.9730236790
   8.6131837371    3.1621817277    0.8447271997
   5.9362188318    2.7531084020   18.7601666886
   6.2025419635    5.4647216199   19.3587654231
   8.0812086497    3.0618534794   13.7740121914
  12.0073376912    4.4817947053   12.9294349352
   9.6827611552    2.5788043504   12.4258003699
  12.2353650546    4.8672398574   14.9916591819
   4.3637718902    7.1902352211   15.8694374006
   5.7641733687    5.4972192527   15.5885071109
  10.6912334669    6.0049295009   13.8008546065
   5.7629486496    7.0524559798   14.0846349557
   2.8529703497    4.5902482647   13.3951706288
   7.8336784321   19.7709612955   17.9933762813
   2.7333261657    6.7046403886   13.5364897099
  10.6953213325    7.9788364252   10.0099168779
   1.2538095675    5.6802863164    9.6708928608
   6.7226945595    9.4252978164   14.6016623967
   8.0051530356    9.4683527820   16.4882747724
   1.2118943924    5.4203874514   14.5446523185
   9.5132801067    8.0802627241    8.2679871236
   9.2647653346   18.7605439504    0.4583743158
  13.7021660482    3.3831831210   17.6279763601
   9.9980670699   20.0642975323   18.1093694417
   3.1292808196    5.1449019280   10.7608619340
   9.0857817642    6.3948875895    9.5422330073
   6.3588515916    9.2535963061   10.9835816922
  13.9676402322    1.8161197770    0.3661343483
  12.4265691086    4.9677654288   18.6932294499
   5.8242725725    9.8188538359   16.5629825135
   2.6648844468    7.3365045473   10.5249989109
   6.4708885101    7.6071356601    9.4460441672
  14.9919707626    9.1636716280   15.6077496694
   7.2082385178    9.5761428882    8.9176782029
  13.7728939099    2.7880030413   11.1550799824
  13.5111715706    8.5637019926   14.1951444576
  14.4764247238    5.1233459440    8.7329309363
  15.4131661382    3.0274632428    9.7381047548
  14.6764543439    6.9420860160   10.0724102154
  14.6117343708    7.0556766456   15.2339637250
  -1.3792998720    9.4595075299   11.5606423891
  15.8141376201    2.9059093315   11.9540871457
  -1.3937277336   10.6111305273   13.4188937462
  12.9185754758    5.6338769426   10.1501970663
  14.4074903774   10.0181007510   12.3386541471
   0.7787620936    1.7209563407   18.4757823177
  11.9394290646   13.1615441038   16.1330319111
   1.7861854067    2.1181024598    4.7090305207
   5.1993614793    6.4558798118    2.0354882454
   5.7314011898   16.7873891563    8.4667086752
   9.9399752700   11.9628818027    7.7426846206
   5.4567413777    6.4561166187    0.3091359179
   5.0264444426    2.9125489519   15.5201759974
  16.2693302897    4.4042570889    5.1562116089
   0.0852303539    2.6084931737    1.8526926143
   0.9342106111   17.8593376255   18.0627325719
  -0.0661243125    1.3828095803    0.4100464013
   6.3213985470   14.2177596284    7.6906903572
  -0.1283651641    4.2843736904   18.4219054249
   0.6543082002    0.8520791910    2.0381900274
  12.3029687159   11.4946087483   12.1618708895
  -0.7939452518   19.6897821569   16.9899319173
   6.7812045452   13.8137796187    5.9767581556
  12.6937453721   15.5309164316   14.8198666401
   5.7044424233   10.5266975080    1.0962199821
  13.6275147733   12.6781820033   12.0593861649
   2.5676423456    5.4956232183   18.9921863917
   2.0898451801    7.1982609326   18.7411753880
  11.1472974524    9.8472936981   17.8861929479
  12.1049087529   10.8717590901    6.8468592167
   0.9399038633    2.0563170445    6.2199889841
  16.9540271607    3.3711231503    6.5824485503
  10.2245550787   14.1308872299    6.7110567466
   4.8116179785    3.4566849721   17.0920896837
   4.7955844531   19.8583965447    9.1123081037
  11.1633867956   15.0742818957   15.5399916828
  12.2948694129   10.8022334710   14.2727710889
   1.4783400873   16.1462312830   18.2267716877
   2.7033517608   17.5162425696   17.6126998641
  11.1442649102   16.1975975369   14.2203023762
   7.0100123894   17.6849818803    9.1038863421
   0.3216856963    3.1978933719   16.8479022869
   2.7815181804   16.6982566415    2.0282922660
   0.8585007922    8.4237928271    6.4440849473
  12.9877508099   11.8597276896   17.0245128783
   2.1360127719    3.3834487569    5.9048984229
   6.3707990924   16.2666435491   10.0184641386
   8.6177154019   11.5066909165    6.5972726318
   3.9349037098   10.5215646234    0.9755890741
   6.9361446775   12.6016074453    7.2621598801
   4.2184943787   11.3264712129   19.1124627824
   3.7620631447    6.5595476915   18.3447352818
  11.8409208942   13.1677979236   11.8086766063
   2.5376718782    2.0809670065   19.0875773662
   3.5013650890    3.5095809068   15.7578197582
   0.8986219158    4.8633697192   17.0207466788
   1.8697115599    1.8563270531   16.1685044858
  16.5110002538    1.6548795454    3.9216905574
  15.6404901490    2.7550318952    2.7526644799
  12.5049082638    9.5955785658   16.7259482162
   3.1755727641    7.7113026587    1.8520116147
   3.4333661829    8.0232921701    0.1296640746
   1.9029211407    7.1866735176    7.3440210880
   0.6486119436    4.6106066229    7.3809174867
   1.4184229704   17.2130631776    0.9288127140
  12.5725459532   11.7061912074    5.3482679203
   4.1608786808   19.8970107740   11.5450443852
  11.8848532524   12.6659826612    6.5647516157
  10.8876213040    9.3196414070   15.9849708833
   9.0363594714   13.8534948879    5.4468101018
  13.7648400267   11.7894139640   14.7365819233
   3.8624178305   18.4343217151    8.9052067180
   7.1943006601   14.8638213393    3.3221939242
  -0.9627302025    5.3739050046    7.3554717789
   0.1637848949    7.3589001497    7.8085256720
   5.2603766623   14.4720038443    1.2557133032
   6.2299086690    3.1782737328   10.8906203836
   0.8628095290   14.7274232404    0.5712006391
  12.9342872815   17.9195566676   17.4283364432
  13.9087246469   16.6915051260   16.5668629098
   4.4095133815   15.4333306445   18.5914933178
  13.8976380374   15.5444295085   12.5842332683
   8.4879573795   13.6287117544    3.0594489073
   4.5881555291    2.8579308052   10.1809974145
   3.0019462888   18.7229688218   11.2348689821
   5.4773768946   12.6672232389   16.7031215268
  15.0075457660   14.2581787924   12.1636570809
  14.1118886150    0.2883432482    2.7558568510
  13.9507769218    1.8724866281    3.6953458663
   4.4905539966   16.9052714689    4.4051378226
   6.0128495438    1.0515964813    7.2273559051
   4.1073754060   19.0566610341    1.8506621504
   0.5556743992   15.5502438283    2.2899088462
   6.1971192826    2.0870451548    3.6458468209
   3.0417882183    1.9154949749    2.1107903114
  -2.1053699919   17.6085730212   11.2838075463
   1.1472429815   12.3365919976    2.0217807188
   1.8907738083   12.7334638126    0.7482879127
   6.7603229208   13.1309045269    3.5850754709
  12.4177344064   14.8829460569   17.6215033545
   4.8773131892    2.2415660852   11.8356984122
  13.4609721412   15.7456917642   18.7414667260
   6.2549234861   14.1925061391   16.7017232356
  11.8390873793   14.1837817169    8.3536785914
  12.9380989011   16.7856610894   10.5896298928
   5.4080113850   12.7351210029    1.5316621565
   2.9313267896   15.7221884203   10.9478370038
   5.7905864857   18.1603383136    4.6889326819
   4.4201019575   15.3323913432   11.7995952683
  13.1452877518   15.0457772173    9.2028699233
   4.2738559560    2.9415295224    1.3916367263
  -2.1464832150   15.8048344122   12.7718000423
   6.1572547490   15.6170144829   18.6689602107
   2.8944626212   12.2658694983    2.3384566338
   7.9130403274    1.0931916936    7.1396753623
   6.8472539882    0.4930532564    5.8678517734
   4.5024896157   14.0879597802   16.7619869632
   7.4018665416    4.5086462743   16.9914957181
  11.5775979551   19.9184514223   11.5677028816
   3.1529522308   14.9776879148   14.8519030463
   4.6090259214   15.3688140065   14.0071075802
   9.6609130534   14.1939152263    9.4754250578
   3.8663974460   16.9895264969   11.8862046756
   5.2565025844   17.5333503435    2.9474016358
   8.1153912023    1.0138386356    2.7809492875
  -2.1930909642   17.3038300042    9.5726339613
  13.7790579305   18.9376663988    4.4043042200
   6.7690088739    2.4050389068    1.9668743867
  12.7696107278   18.0270310159    3.3516655499
  12.8652328706   17.7061492154    5.2190892418
   3.9022632336    2.9589256478    3.2368907991
  11.8248403474   15.9770229425    8.2627584845
  13.3736724220   18.0890136168    9.3064389712
   9.8839554381   14.8698923336   12.3719254620
  -0.0756804423   18.9423918100    9.4957337377
   1.7689748520   11.9873830556   10.8724341304
  11.8439656387   13.9545522263    2.2482274039
  10.9319264665   13.0863937270    3.3746318474
  11.2086148388   18.3331629545   10.9800930381
  12.8092829042   16.4373094147    0.1019654461
  10.9777399878   16.2332917173    0.2985834558
   2.0216536196   13.3550775949   11.8232650054
  11.8067491108   18.4176208221   12.6869210248
   0.3240806505   12.9315874926   11.2920138648
  12.7502573951   12.6705172925    3.2472011215
   4.6380294525    2.7965544136    5.8646290076
   9.4830137746   15.9106658269    9.7892373095
  -2.1009086753   13.8331593109    7.8890947432
   8.9762822483   11.5826149325   10.2976915080
   5.0641442692    3.0089906468    7.5554175979
  12.1899117163   15.2897381070    1.2660790097
   5.8052384836    4.7010178812    5.0453214874
   6.0682507001    5.3238970764    6.7082417290
  14.3454647911   12.0475664206    7.8656642644
   5.0540011622   19.8905005746   14.5417723576
  -0.0579141031   19.3936562705    7.8007723000
   1.0942750615   18.1759309479    8.4206544722
   8.3549553481   14.9089567225   11.3973650243
   3.9154457399   16.8311712434   16.0945506700
   2.4480746583   17.2050175221   15.1950965427
  -0.5746772107   13.1080705212    8.4561114202
  -0.9252075103   11.2510112627    7.7325465704
  10.6758870228    2.6143459864   14.6560744046
  13.7621735302   15.6320882383    3.7089872821
   4.5080759123   19.0569597515   16.1593665813
   8.0220877087   13.1771647890    9.9517190121
  15.1746239601   11.0768807848    5.5018945461
   3.3650524744   19.7530305195   14.8707098529
  -1.1108569735   18.8298080704    5.8092568881
  -2.5337742369   17.8986167679    6.3592373879
   7.7176303400   12.0906146726   11.3232586922
   2.8914362463   12.5924040396    8.8842374856
  -1.3507903859   14.5027377616    9.3181801611
  13.2778792696   15.8383287922    5.3381781382
   3.6990060727   13.8079525107    9.7726280976
   0.3048555298   16.6706312048    6.4481289714
  10.8308915145    3.0468033400   19.0265977734
  14.1154008756   11.0393000235    9.4163710097
  -1.1257934617   15.9380624486    6.7334501585
  15.7011634399    9.4428004109    4.9288071162
   4.2090431317    6.4396688530    4.4344329006
   7.1967651837    8.4520078399    3.8110356105
   3.6559568885    7.2650993891    5.9340454720
  -1.2472091224    9.9920799066    8.9368060562
  13.8404659867   13.3143475689    5.5964428797
   0.2514636360    7.1766322326    4.3071070583
  -0.9953086933   10.7000829417    5.7329745803
  -0.9068282196   17.6693667743    2.7515131702
   0.4400524792   17.5916385046    4.0450282602
   1.5931838433   15.1367404636    7.9946537314
   0.5048550813    6.8878664926    2.5673950955
  15.2448310815   14.4631842996    5.3819595532
   3.5885197374   15.3021083340    7.8323739662
  11.4219873592    6.5946757181    3.3914816402
   6.8029266451    7.2445662647   17.3375977535
   2.5447407633    6.0604857247    5.0321343387
   0.9443168636    8.5735897798    3.4390192578
   6.7192866590    6.7119457699    3.4467299119
   8.1258794682   16.9102990861   17.1100695429
  11.1034627693    4.9860589838    3.2915223404
   7.3030413982    7.1739221691    5.0164650762
   0.8389443974    4.7637723216   11.7835674727
   8.0695308278   18.6294096607   11.2443006721
  11.3977966521   10.1274356219    4.2891023277
   8.2344130085   15.6614424319   15.9717029872
  13.5011819547    6.6450795437    6.9415855600
  11.3322223842    8.4983440236    3.4488357700
   9.2302206832   17.0954327842   11.4540637049
  -0.7575289730   18.9787767429    4.0136603229
  11.8561249372   10.4793005471    1.4251666508
  12.6116580653    6.7234459237    1.7891550726
   8.6195787299    5.1841986508    3.2856933629
  -1.4132967720   12.7559505603    5.1760438931
  12.0955323121    8.7629955771    1.3491034523
  12.1636822048    5.2631780403    0.8772372193
   9.7312379982   15.9887586734   17.1128378183
   9.3039938999    5.7952609796    4.8583905247
   7.5273901583   17.0151027097   11.9508141672
   1.8080307046   14.9230202124    5.0975561982
  -0.9743581073   14.0841253174    4.2036925996
   8.9072540664    9.4450522399   10.5015102341
  14.8612713075    7.8691432183    6.2893285296
  -0.9483794563   12.5679190290    3.2988911583
  14.8155028302    7.7126517527    3.5940226459
   3.5466916866   15.0533918157    5.4241125482
  14.6725286845    6.2748043654    5.7596970484
   7.2172529242   19.2612180476   13.4117565412
  16.0412682997    6.5086491492    4.1546268244
  11.6971078977    8.5157976121    5.8022094951
  13.6318644040    9.7239658461    1.1763904284
   3.1006669470   13.6940524634    4.7081136523
  13.2458252895    9.3962682199    5.6008362515
  11.7563017036    6.7732151182    0.1328177195
   9.1750365274   13.4352194824   17.0145022205
  -0.9989839023    8.3857705033   13.9428931097
   9.3344709583   11.9939409932   18.8094941669
   7.3850571048   17.6570497244   14.3293140289
  10.1038357026   14.1675572032   18.4120203952
  15.0666436424    5.3664318653    2.7764680479
   9.2531478087   18.8107984696   15.5491349170
  15.0774120103    6.6344646534    1.3978659045
   7.5566096362   12.6744765542   18.8947376694
   1.7215994800    9.8996968278   16.4983160300
   0.8408359688   14.5944014973   15.5616394565
  10.0594285486   17.9056038378    6.1325760349
  10.1655695051    1.7947281054    6.7990519902
   4.9340796007   11.0958707511    8.3315420989
   3.8584697550   11.0846883679    4.6876717594
  11.3579992410    1.4239507334    8.1402347624
  15.9481602389    9.4330242968    0.3608397337
  15.5737649151   11.4212499688   18.1697905938
  14.2669615217    5.1671908850   12.0248766790
  15.5573107262   13.2121807856    0.5522239273
  14.5925466025   11.9333513539    0.0948256313
   0.1263291185    1.0343201212   11.9817314722
   2.6152461044    1.6585132381   13.7428753655
   0.0761690884   17.5040364176   13.1830868961
   0.7761147857    1.3916685175    9.8841828553
   7.7890493557   19.8472096411   15.7101386018
   3.9815968741   11.8198794416    7.1406569120
  -2.3052827433   13.7522671033   15.1772146448
   9.6589210288   17.8424789289    3.5807580315
   2.8763211736   10.3287722065    9.2776977037
   2.5025383600    9.7171676098   14.8341472417
   7.9219001466   18.8707010881    5.0167090270
  -0.3311575686    7.2355262024    0.0908964457
   1.5435700168   13.7394046336   14.0266313924
   8.9762548790   11.7774268750    2.8619522893
   1.9707734712   11.1904843345    7.9953164349
  11.2006189398   19.9016767134   14.3728449349
   5.0365405007   11.6900467077    3.3971291649
   2.2892940545   12.9211727081   16.4066020936
   1.4642209239   18.6567321825   13.2200330251
   2.5075548053    1.9642273880    9.8736040973
   9.1164779536   16.6383742808    6.9777918451
  -1.6237795053   12.2666144456   15.8635748636
  15.9324196249    3.9996383333    0.8080120911
   3.3593576060   10.7158833125   16.0954936584
  15.2423562295   11.8763258898    1.7343075932
  11.8258545719    1.5203377873    6.4785491041
   4.6198686565    9.9162514978    3.7431103939
   9.5435757043   10.1309503874    2.2403355505
  15.6543553315    6.8095849876   19.3057966179
   6.4888102339   10.2631005667    6.9301683868
  13.9069492719    2.3726844242   13.9819029445
  -0.2953758659    8.1274873996   18.0302550950
  10.7142792033   16.4863253895    3.6617710342
  15.9012308658    9.0429119508   18.0537396779
  -1.2830287947   19.3627147412   13.7523653039
   0.3131051953    2.1962843833   13.1930838050
   1.1826036801   17.8714463271   11.7013350512
   1.3354723437    3.1474969458    9.6529203314
   0.3901462262    9.2726110976    0.8743372769
  -0.3341825463    4.0148958141    0.2070329488
   0.3004375029   11.9504587545   19.1875249275
   0.7814399285   12.6023761151   16.8042094578
  13.7134663244    1.7267771111   15.7345735906
   8.9787983102   16.4897296090    2.8508171573
   1.7592324336    9.4104023660    8.4694075924
   6.9697235344   17.5067184054    5.9318323144
   5.3651717180    9.3041982616    5.9619086692
   7.8680107053   10.7450179295    1.8197521298
  -0.9744569101   13.9145708607   16.3721680940
   4.8756647608    8.8066618428    1.5017010030
   8.3491461885   14.2570773186    7.3270129007
  12.2357527593   12.9604246928   13.7957699514
   3.8488604548    1.5520790983   16.5552044642
   1.8019468947    3.4788871208   18.2334944010
   0.4582280435    6.3403003506    6.0604206169
   3.9674534523    5.3669966113    0.9971049575
   0.3250640062    3.5567583614    4.8775803756
  10.4261726490   11.4911647679    5.7657216770
   5.4189587095   18.1701347688   10.2093348462
  16.4032883268    1.0997187857    1.9141441707
  11.0743063973   11.3472285800   16.4125925325
   2.9847632640   16.0969890834    0.1528832118
  11.9388984385   17.0422778460   15.9400633989
   5.5721886748    1.2370491186   10.1592494843
   2.2451866680   14.2462137230    2.1262425444
   7.2731313597   13.7520032663    1.6496566364
  11.7975510586   19.3665465999    4.6379269403
   5.5365696925   13.6300231231   18.5123077781
  15.0581962596   15.7329318698   10.7592379771
   3.9068282153   18.8650458464    3.7754828813
   4.8689755974    1.2347301654    2.2669924228
  11.3624598752   16.1979923408   18.7661572385
   6.6639960351    2.5977215373    6.1747819244
  13.2286254874   18.6249956243   11.3760998034
  11.4640350950   15.0890605059   10.1247856122
   2.7531300049   15.6719600482   13.1196039756
   4.2182899126   18.0006431996   14.4455576205
   9.4457452519    4.0654429820   15.5303007277
   9.2009952315    3.9613302172   17.8727441989
  -0.7922559644   17.2930847091    8.2195561368
   9.3579824542   13.1655352710   11.5701732528
  12.1269731113   14.5200411914    4.2834342304
   1.6107478134   13.9706426251    9.9501254472
  15.5054216402   12.6203917679    9.4351122459
  15.6477458287    9.6860358995    7.0744574958
  11.2105879218    3.1331081500   16.9647365687
   4.0341833205    5.1733675527    6.1419428566
  -1.5585142687   17.1762846880    4.6730539130
   8.8127228052    7.2644256457    3.6106264729
   7.8990850914    6.9803737292   15.6635841441
  14.9262326160   13.1942584541    3.8101057449
   2.7034581803   13.7429596338    6.8131821310
   8.6246347981    7.8217859548   11.6862620149
  13.2248040360    7.4755798058    4.9690007799
  -1.0081103322    8.2221879627    3.1588404571
   0.2074772018    6.7097957767   12.4522587343
   8.0813288387   15.0038504710   17.8933977164
  10.5712951446    6.2344521972    1.6363867729
  13.0268607060    9.7049632563    3.0349060779
   8.9129873898   18.0864346955   13.0675386452
  16.3576682381    5.4035893242   11.2926235557
  15.5551098536    7.1962835952   12.5707325730
  16.8315703211    5.4589075358    1.8137119653
   1.5926959626   11.3992124419   15.0830883734
  12.2727728876    1.2309578120   14.3030383432
   5.7838329850   11.1616623526    5.2123994180
   7.6912987254   19.0306097607    7.1380458747
   9.5444181962   11.7305920937    0.9107603197
   0.0562478934   10.1265525418   18.3869323808
  -0.0131116785   19.5352204866   12.1763438143
   1.4042467724    2.5906546012   11.4861447276
  -1.1874584036   11.4712626784    0.2282605615
   9.0274277737   16.3029602751    5.0029475730
  -0.4427896461   13.2595838359   14.4827059786
   3.4600754677    9.8747987611    7.3716474724
