B2 C140 Ca1 F48 H298 O66 
1.0
1.7875347919694086e+01 -6.7214467579815542e-16 4.3876773192603376e-17 
-3.0073196905455077e+00 1.9234092412775723e+01 -1.6439782715655828e-16 
-6.7346461813654779e-02 1.3037741634820657e+00 1.9360642510923238e+01 
B C Ca F H O 
2 140 1 48 298 66 
Cartesian
  10.6191814504    3.6691297452   16.6773475403
  -0.7915852289    6.3213833940   11.9856325483
   0.2656024766    1.6104978231    1.4853296520
   7.2716920903   13.6964966867    7.4796020132
   4.6982658879    6.5380055265    0.9608316711
  12.9194290254   12.5924227427   12.4178737487
   4.5234920268    2.9091232832   16.4801387446
   2.5557594175    1.8213083321   18.0487125460
   1.6502007454    2.5233674929    5.6153480394
   2.8413564052    1.1997609972   16.6776683665
  -0.1196392164    3.9196757225    5.9410671569
   3.2331412528    6.4883486367   19.0359069777
   2.4676384779   17.5045200166   18.1610536308
   1.0648300705    3.6199921430   17.1788956917
  12.2592506876   15.8705304964   14.8269885611
   5.3974007732    9.9600709674    0.8607565864
   6.1012446295   17.1099787380    9.4565810976
  12.3440038280   11.7741973743   16.0071447474
   9.6851253648   11.8898015924    6.8450502753
   9.5365340526   13.3372030737    6.5551183490
  13.0665685029   11.7259605812   14.6595100668
   4.0148588387    7.9393961160    0.8603041568
  12.2933568508    9.4743227310   16.7713865900
  12.0818676170   11.8058256729    6.3976169822
   0.0935896521    5.0082835527    6.9883076430
   0.7625572937    7.3440448107    6.8137065748
   4.9293300481   19.0392326652    9.6544677313
   2.1796242734   16.3153815857    1.1219944581
  16.0106930069    1.7395881440    2.7553393395
   4.0455064776   19.9123879035   10.5510854859
   1.3497568770   15.0843237208    1.5094054806
  13.4183976053   16.7861475113   16.7224569353
   5.4730470796    2.4624444344   10.5517638746
   7.2297141833   13.9838323401    2.9650316115
  14.8011141249    0.8041876412    3.1623620640
   5.9464992640   13.7415356741    1.0486155308
   5.8128724130   14.8965434953   18.8396383074
  15.1040554920   15.2059344854   12.0342676875
   1.8797683626   12.8928037503    1.9280192394
  13.1219319230   15.7758287034   17.7881047157
   6.1650301330   13.2455485934   17.1726119524
   5.0120342577   17.8069570238    3.7808918715
   7.2117359556    0.4034706579    2.5441249962
   6.4116804095    1.6287598580    2.5486226561
   4.4136171501    2.5643945006    2.1005586307
  15.1038535470   16.9403652639   10.3436118787
   6.9480714551    1.4186949455    6.8382074896
  12.4938460683   15.0433950824    8.7621255268
  13.7585645521   17.6069372946   10.2171300473
   3.7506910090   16.1295931025   11.9221606099
  13.1207461545   18.3499193326    4.3905846960
   7.9646667280    2.5035772847   18.1856041992
   8.2714135303    5.0544074908   19.0946109463
   8.5467191499    4.0042663531   17.9024731514
   4.0307835918   15.3573140180   14.1943395063
  12.1521598104   18.7963517772   11.5362782265
  10.3342352247   14.9515514325    9.8096245472
   9.8429657021    3.4217429196   13.1351093468
  12.1729197543   15.7960281337    0.0057432373
  11.9494099099   13.3617458883    3.3287734409
   9.8208780537   14.6192876793   11.1851338797
   5.5262577146    2.9797206720    6.2099357783
   1.6094914475   12.7888961092   11.0789164095
   4.0189693883   16.6481450175   14.9547017996
   0.3056842900   18.4845015323    8.5683515977
  10.8232085153    3.8076396292   14.2625579785
  11.8481885014    4.8537715626   13.8765522746
   5.4325970880    4.3901026032    5.7766570094
   4.7122534367   18.8485275771   14.9913597326
   8.7662046793   12.5273073703   10.7195965272
  -1.6760000808   13.3790297183    8.6591706486
  15.3843971813   11.2339735616    8.8628867090
  -0.5256533734   16.9430872071    6.9639771099
  -1.3472788758   10.4812180418    8.1357062320
   6.1639735538    6.6395672864   15.4384175767
  13.3880126862   14.8376637691    4.4427149574
  -1.5464241272   17.6402635798    5.9205276621
   2.9921386459   13.6090799507    9.3997933451
  16.1099128235   10.1696242375    5.7284352418
   3.9973156222    6.0835445993    5.2702678109
  12.0945664440    2.6457992967   18.2009065371
   2.3552628306    5.5756617292   13.2927800323
   9.2526452194   20.3264492232   18.4914883542
  14.5287534983   14.0751737070    4.9920195175
   7.4268545780    7.4253397318   16.2082296171
   2.9442830849   14.3983133300    8.0424841982
   7.5509431797    7.4040441893    4.1343846354
  -0.5131805110   17.7329424915    3.7100883561
   7.2975908406    8.9688285827   16.0802356792
   9.8392212022    7.5454374907    9.4671992661
   0.6551019087    7.6399392086    2.8693758998
  13.3925325334    3.4279459351   18.5648744125
   2.3646434579    6.1531404524   10.8009765971
   1.5307713045    5.6584791899   11.9057313797
  10.8570874922    5.9151575195    3.1261112178
   9.5068760684    6.0194840237    3.6162159956
   9.2501613608   15.6227466824   16.7286821948
   8.7984042195    8.3263631259   10.3821705423
  12.2525593093    9.4057319816    3.7128960864
   8.6163386798   17.8187892970   11.8491067905
  -1.3603015160   13.1393186503    3.9579704404
  13.8666337033    7.0599274271    5.9635393954
   7.3813713007    8.6537684633    9.8862909800
  12.3824661637    9.9269117066    1.5297329278
  12.1479383332    6.2730396942    1.1332502420
   2.9713413743   14.4190834743    5.7227466089
  12.7385850856    8.8693263499    4.9805055110
  16.0668422484    7.1499539281    3.0567606800
   8.2111475779   18.6008363962   14.0366019848
   9.8188010352   13.7010091638   17.9724331997
  15.1772273157    8.0856557584   14.4188682196
  16.1813575227    8.1236201575   13.2958679582
  15.6470522728    6.1926404595    1.9427304418
  15.2843792728    3.3708178788   10.9759941019
   9.3248113719   12.7318459014   19.0121214312
  15.4095949616    4.8713628403   11.0597484950
   9.0143097082   19.3811365532   15.1043111465
  14.6807498558    5.7111138847    9.9529091561
  16.1559894977    9.4576434274   12.5318071886
  11.5480271842    1.0275760785    7.0840080611
   2.6383675541   10.1369656602   15.5607623408
  -1.4264514748   11.5032196615   19.2962113567
   1.4194731988   13.5819155270   14.9287977472
  15.2906032397   12.0288283908    0.7270619166
   4.7160214790   10.8259279998    7.2559858624
   4.5698759316   11.0847556772    4.2346526732
   9.6062675748   17.6019061821    6.0464170957
   8.1169308069   18.2185627721    6.1444878722
   1.9421330136   12.3645078421   15.7049966691
  -0.5534327897   19.9845715847   13.0411461575
   1.0928908943    1.3175793328   12.4116582157
   1.1336192172   18.3582967415   12.5451851869
   2.1252987035    2.2366348988   10.5496621670
   8.8827185452   11.1826397896    1.9807875589
   2.7297767952    9.9791385829    8.3583548667
   5.7281267693   10.3355046107    6.1383672632
  14.0137950079    1.4880963437   14.6379093647
  -0.3628364106    8.7714768904   18.6935099761
  16.5570488530    4.6228782182    0.5208576736
  -0.9419296854   13.2060117327   15.4214950566
  -0.0117901061   11.1078308677   18.9415533046
   9.9152174109   16.6977033033    3.9345066510
   8.8267635165    6.9271232245   13.4806627955
   7.9539336444    2.0439098897   16.8418568783
   8.9004121307    6.1231082865   18.6809819679
   9.1867086447    4.4773438389   12.4500448631
   8.7880672841    1.6578288728   18.9007772397
   8.8437061400    3.3522521486    0.9145614150
   6.7008107083    2.4378415234   18.5804892356
   6.8988085449    5.3220574374   19.2078505958
   8.7066975243    2.7686176912   13.6444726231
  12.4694255685    4.4572345697   12.7368088591
  10.3600711020    2.6345836252   12.2595385597
  12.7621909361    5.0109221847   14.8103714874
   4.8261378090    6.9489746088   15.7226998080
   6.3184097035    5.3628188557   15.7894823115
  11.3624726372    6.1028668798   13.6809780732
   6.2512779558    6.6868324228   14.0380720357
   3.1411390011    4.4690998076   13.2410991004
   8.2061460879   19.7204564920   17.8839658078
   3.2343390361    6.6007491802   13.5858505298
  11.1213907157    7.7716144054    9.9820591926
   1.6018742833    5.6417867235    9.7450541182
   7.1343796730    9.3843051752   14.7439561266
   8.5800315924    9.4982981616   16.4814712029
   1.4373668120    5.3377133283   14.3303427039
   9.7676773420    8.0691552658    8.2249683449
   9.1648084106   18.7926547627    0.4575167465
  14.5679836324    3.3439087923   17.8200627789
  10.3637288501   19.7886946404   18.0710630789
   3.5857093326    5.5150854652   10.7259146154
   9.7567017505    6.1439256937    9.3648770576
   6.5611557802    8.9473542382   11.0937343829
  13.8700847309    1.6193925925    0.4125977616
  13.0576881422    4.7611353650   18.5124479807
   6.3847765410    9.5635373419   16.8383875970
   2.4119911161    7.5453049008   10.8411840376
   6.7400916349    7.6448577148    9.2752785134
  15.2279128784    9.1975509141   15.1659197693
   7.3381273670    9.7523622310    9.1468622273
  14.0414760015    2.9431810341   11.2053224785
  13.8507445953    7.8719162673   13.9989038520
  14.7884315732    5.2427949169    8.6657422982
  15.6841000653    2.9607250341    9.7004449817
  15.3962807716    6.8619921166    9.7769776557
  15.3404094038    7.0187430534   15.1610909498
  -0.8477118477    9.3681223522   11.5215793031
  16.1496876804    2.7848454348   11.8249917450
  -1.1353766265   10.4016420989   13.3313002738
  13.3747404142    5.7744832293   10.1951676484
  14.9617110430    9.7263335451   12.0926843353
   1.7514899847    1.3058094094   18.5128787063
  11.6566280578   12.5933020392   15.9929722653
   2.1830181181    2.1854441371    4.6963998350
   5.1404975868    6.3712344771    1.9802614477
   5.1573702849   16.7348283746    8.9494621730
   9.7999079969   11.6532266757    7.9013070791
   5.6608863303    6.4308135912    0.3240318524
   5.5480280920    3.1285047797   16.0813209167
  16.8759389521    4.2760937346    5.3897863314
   0.2107318998    2.6213839640    1.8347606239
   1.6003210661   18.0420980776   17.9752331826
   0.4239694928    1.5669389752    0.4579581777
   6.6176072683   14.0429968200    8.3907955071
   0.4560627834    4.4338482673   17.4851847652
   0.9513555488    1.0695757071    2.2501064165
  12.2544148095   11.8191244903   11.9901436397
  -0.1517515714   19.3690504641   16.9514963589
   6.9862153453   14.2461988097    6.5423036528
  13.0685804000   15.7730675393   14.0847942469
   6.2742550117   10.3538713340    1.3659955756
  13.9785636669   12.4027958917   12.2777028505
   2.5259467033    5.7159570698   19.1504081243
   2.9412396027    7.3829988902   18.4356232313
  11.8065281404    9.1085519054   17.6994855705
  12.2841516284   11.5836844312    7.4594102336
   0.9645324113    1.7378536193    5.9251280246
  17.3149824870    2.9921826178    6.3305662445
  10.4850126364   13.8750231990    6.7689391080
   4.4383928968    3.3462798356   17.5156776173
   5.7681032212   19.5276872315    9.1330386573
  12.3317611245   14.9866535075   15.4461798754
  13.0961462721   10.7692680071   14.3061812754
   2.1855597646   16.4346318676   17.9981300896
   3.2683944889   17.9015917714   17.5224670716
  11.2886880224   15.9682849301   14.2959989763
   6.6793746596   17.4829379340    8.6323613785
   0.3471476507    2.7743990605   17.1183421349
   2.7550677969   16.5796531705    1.9740460490
   1.1472947222    7.7992675181    5.8963073422
  13.0391526884   11.9800795314   16.7753549489
   2.3687626689    2.7429445353    6.4491579887
   6.4750427985   16.1554691227    9.9484553315
   8.7511489320   11.2551670110    6.5684223981
   4.6174863623   10.7278192927    0.5323615575
   7.0463884611   12.7021546930    7.3571714030
   5.7061640076   10.7561368653   19.2923931300
   4.0434361161    5.9474215708   18.5378049306
  12.7561562556   13.4812908515   11.7958556782
   3.4856575454    1.6164762539   18.6893739174
   3.8190867534    3.4457505818   15.8127965727
   1.5980130275    3.7779609142   16.2790636261
   2.0752805801    1.4574728430   15.8748452106
  16.6940504518    1.9792306576    3.5286418342
  15.4633565737    2.5681185640    2.2661332643
  13.2817227657    9.7107899204   17.0105708212
   3.0380724743    7.8989264003    1.4346144469
   3.7524047316    9.6927397359   19.2383383294
   1.4860457570    6.9041254652    7.5790192554
   0.9188665520    4.8973683621    7.6468763135
   1.4198651420   17.0728468856    1.0512039569
  12.6503711122   11.2074870704    5.6896677171
   7.6621882718    1.4884854302   10.9495320762
  12.3712037047   12.8772773775    6.1616769271
  12.2983635331    8.7381181210   15.9850671248
   9.1033496190   13.5416106197    5.5403217153
  14.1656478529   11.8213398628   14.7791873105
   4.3192753108   18.6140469980    8.8337386255
   6.5871010569   14.8607097116    3.1875290384
  17.0657544033    4.9473320624    7.5805992165
   0.0833906026    8.0263398853    7.3187811592
   5.4375127310   14.7079349084    1.4301922892
   6.2861432847    3.0876360021   10.8980144339
   0.8911291632   14.7474135182    0.6099925142
  13.6596433840   17.7738346343   17.3405129783
  14.3766167541   16.5932195337   16.2016150843
   4.8278080272   15.1601550292   18.4957285159
  13.9893693514   15.2711227139   12.3659806685
   8.1849858365   14.2936187583    3.2730707555
   4.7657680911    3.1096393646   10.0682593449
   3.6500756848   19.2619730530   11.4330721129
   5.8603467046   12.1854224419   17.0477502997
  15.4755227113   14.1401130084   12.3527799550
  14.4713216201    0.2018295074    2.2674115017
  13.9308721045    1.4198657609    3.5213383895
   4.6954363170   17.4349161466    4.7469990576
   6.3963618760    1.3681011783    7.7427415018
   4.0804581403   18.9383496166    1.6329750181
   0.6860043157   15.5567674331    2.2330284213
   6.6655512694    2.0733461098    3.5641634684
   3.3850262446    2.2869548538    2.1369621034
  -2.2097689839   17.6616908744   11.0202605397
   0.9274633802   12.6674099158    2.3043808374
   2.0739104019   12.5305595571    0.9101856532
   6.8525488195   13.0956739525    3.5140709766
  13.0988793134   14.8103729848   17.3513630553
   4.9511089238    1.9619544542   11.4141637749
  13.8660287415   15.6653978918   18.5832184731
   7.1431752757   13.5163009280   16.7468705661
  12.2900080944   14.1675535777    8.1060283376
  13.0485614368   16.7689425849   10.3332529232
   5.2555859888   12.9382659692    1.3893103530
   2.9135010712   16.1221071939   11.1330199870
   5.9996271875   18.0906509941    3.7188277474
   4.7201892350   15.7604880531   11.5404001723
  13.5507451235   15.0826923071    9.0345305139
   4.7443676080    2.9868959895    1.1670540401
  -2.2108856197   15.9326833541   12.5652072472
   6.5475480279   15.4927735081   18.2784264969
   2.6616407185   12.3226222468    2.5339355653
   8.0091271518    1.1432924013    6.9848562980
   6.5096939737    0.7125592075    6.0710523241
   5.4634756072   13.9012270634   16.6210731411
   7.9574497711    4.3266602286   17.0194760584
  11.9770074250   19.9119264348   11.5162507324
   3.8065104842   14.4252421834   14.7290074393
   5.0785937576   15.2237675345   13.7720220499
  10.0297392419   14.3488815150    8.8851157566
   3.9363545288   17.2055226491   12.1349967036
   4.7473361126   16.9749798038    3.0411968527
   8.2632831621    0.7855076360    2.4686248339
  -2.1681346138   17.0039008893    9.5075437602
  14.1474693627   18.7197811232    3.9983688131
   6.7127219377    2.1876002627    1.7054291192
  12.7927776314   17.4366891727    3.8417117410
  13.2845363622   18.1196771174    5.4678537090
   4.5840029792    3.4058607968    2.8858821479
  12.2556401586   15.9877022174    8.0083138905
  13.7107186257   18.2254908419    9.3097481512
  10.4001627866   15.3956533480   11.9223014680
   0.2801775901   18.3044096849    9.6566390463
   2.0537580030   11.8198911396   10.7785841886
  12.6595763627   13.5432695948    2.5040832455
  10.9525184492   13.2259026890    2.8571220907
  11.5733164796   18.3194656835   10.8116889689
  12.2004485727   17.9307953173   18.6916840539
  11.2608275663   15.8549759005    0.6049447048
   1.9721563790   13.1439524927   12.0780330064
  11.8805743396   18.3416454886   12.5672026928
   0.5416708100   12.7668855555   11.0922093692
  12.3036825389   12.4032315375    3.7862911386
   4.9460237763    2.3067954054    5.4657289003
   9.7520893240   15.7908390125    9.4971252749
  15.4369851204   13.6537005627    7.8892744720
   9.3653112214   11.6849826851   10.3828476811
   4.9564042370    2.8121131816    7.2076198981
  13.1071916583   15.8317267610    0.5841978511
   5.9387530775    4.3327221185    4.8068316325
   6.0495115720    5.0515186103    6.3531144063
  14.6871496813   11.4838726904    8.0993463650
   5.4894304139   19.4409809801   14.6019584574
  -0.0269562746   19.4516114921    8.4567652462
   1.3451390851   18.3804480733    8.1375643485
   8.8465066983   15.1483458097   11.2817743197
   4.2188567966   16.4064524557   16.1632228152
   2.9900032874   17.1344369509   15.0593342822
  -0.6680707727   13.1702708072    8.2067800811
  -0.7935031840   11.3026940497    7.6147337264
  11.4474140477    2.9129135659   14.3482341476
  13.7418314197   15.5278712115    3.5557490077
   4.9459898594   18.8347431322   16.0674552874
   8.4763393353   13.0784878689    9.7640021506
  15.5961251760   11.1116555419    5.6509725167
   3.7069367095   19.2033818231   14.8693619559
  -1.3022389332   18.6940134632    6.0589484832
  -2.5432058236   17.6197472381    6.3652643273
   7.9112651013   12.0983587799   11.1922307953
   3.2444278646   12.5051758463    9.1860848316
  -1.5736316370   14.2094772877    9.3796916106
  13.2763883946   15.5934282784    5.1595828221
   3.7650560526   14.0430394146   10.0782758903
   0.5785490421   16.8811495553    6.7563705367
  11.2879442334    3.0289645356   18.9399771508
  14.8971363725   10.6389818151    9.5921046723
  -0.8076016887   15.8064985350    6.9913266693
  15.5821067427    9.4374051320    5.1160128018
   4.7873894594    6.4100810849    4.5700236628
   7.2822641534    8.4185888476    4.2553100033
   4.2646397150    6.8048920903    6.1140508711
  -0.7384968942    9.8870140013    8.8465135288
  14.1010810129   13.4237467259    5.7648649610
   0.9094355173    7.0392530923    3.7515167577
  -0.6367793059   10.2415121265    5.3759046402
  -0.5484558071   17.0331436445    2.9016930050
   0.4727257889   17.7894076487    4.1954058677
   1.9304319249   14.9459732424    7.9953520301
   1.1179989653    7.0962267450    2.0296412483
  15.3204907954   14.6691193607    5.5064263283
   3.8470220739   15.0279755608    7.9702873940
  11.5489305471    6.5141857772    3.7284290223
   7.2154686771    7.1765463112   17.2468353611
   2.9429863654    6.2100227542    4.9241765229
   1.0811065058    8.6270496285    2.9860559233
   6.7610109002    6.8581811338    3.5985549336
   8.3282046260   16.2790807030   16.7212271654
  11.1741157755    4.8082094880    3.1205936199
   7.7511185786    6.9475686991    5.1428343634
   1.0776131723    4.7115270890   11.6220104479
   8.5186828916   18.8659142266   11.5191150151
  11.8296503968   10.3772391433    3.8994264646
   9.2215154935   15.0457607881   15.7366721584
  13.1513338665    7.0003170066    6.7050621183
  11.4170583850    8.6911176344    3.2735249968
   9.3787068566   17.4341129581   11.2327521614
  -0.6861424192   18.7360640267    3.3603269661
  11.5950658811   10.6283578319    1.7012493705
  12.9651673155    6.7900013972    1.5878123978
   8.8310874189    5.3409460636    3.0640296650
  -0.8297238248   12.8351881520    4.8733300653
  12.1587203509    9.0580827645    0.8585412788
  12.5588129825    5.2504243337    0.9992109328
  10.1665377752   16.1417803792   16.9442176631
   9.5654793112    5.6324999121    4.6383262800
   7.7680602586   17.2739042680   11.6099711159
   1.9538160454   14.4885929150    5.3969166263
  -0.7519733114   14.1150878309    3.6997858950
   9.1337994771    9.4220589020   10.2539354438
  14.6712208578    7.7495018068    6.2363883023
  -1.2048999085   12.3738946218    3.1519014148
  15.2468167130    7.7198891120    3.4984922099
   3.4178737107   15.4523438052    6.0877497569
  14.4081011509    6.1625738090    5.5971707262
   7.6900146759   19.3915022575   13.3348293049
  16.2065459737    6.6352378418    4.0033434777
  11.8813150310    9.0661980054    5.7201485004
  12.9837074665   10.5010857498    0.8182895415
   3.4862306051   14.0115094887    4.8064318979
  13.4895915815    9.4335715437    5.4807243541
  12.1373773068    6.6781786654    0.1511675831
   9.8595929513   13.0484087598   17.0754900112
  -0.6534161657    8.1390806904   13.7488981585
   9.6823247710   11.7588859842   18.6499637679
   7.3741945012   18.1057252894   14.5953491753
  10.7837862250   14.0437723798   18.3437437394
  14.7416031811    5.7231950568    2.3252561808
   9.9071002937   18.9451728439   15.5748778148
  15.3716862842    6.5707763933    0.9016092764
   8.2331978631   12.6397902517   19.1378528256
   2.1917026634    9.9227566524   16.5883428465
   1.4700505135   14.4684854999   15.6365692714
  10.2386867769   18.4696397345    5.6249550075
  10.8572568627    1.6537614601    6.4576186923
   5.2671812732   10.9973966218    8.2505614269
   3.6605671293   11.1963553919    4.7984259027
  11.5648285641    1.5879693522    8.0078072798
  16.0632181305    9.4871489740    0.6942216024
  15.7840996077   11.4910874757   18.3869279558
  14.9253178892    5.0727107852   11.9240376716
  15.2141610812   12.8899611940    1.4992777123
  14.4231005962   13.5723113613   19.2530918098
  -2.2289695326   19.7109559516   11.7490573323
   3.1424418119    1.3618203081   13.6238555243
   0.6093600182   17.5829762238   13.1280692744
   1.2663306928    1.8720274154    9.9296637994
   8.2223731718   19.6994944221   15.9134458129
   4.4198744567   11.8503568927    6.9547352370
  -1.7969395786   13.8476777999   14.9382598943
   9.5427206444   17.6321700449    3.5646099645
   3.1387223667   10.2133305660    9.3278557301
   2.6987933729    9.1722618517   15.0580604338
   7.8170530195   18.7093042112    5.2637992983
   0.2063330697    6.8600715117    0.0743038589
   1.9973963940   13.8674598665   14.0417582830
   9.3269075712   11.1032017336    3.0080240098
   1.8921403738   10.7325341296    8.2144518679
  11.3957588073   19.7106374115   14.5020930240
   4.5791448141   11.9815517415    3.7692656514
   3.0318897305   12.4942806539   16.1422803149
   1.8561562752   18.7984285647   13.2996202564
   3.0193170045    1.6299433550   10.7388666101
   9.6950494081   17.4921219932    7.1166965034
  -1.2200774752   12.1539447290   15.5236583994
  15.7549136562    3.7599668316    0.5087944766
   3.6904337674   10.4536698581   15.7207872610
  14.8290749872   11.2825135248    1.4401598971
  12.5403502103    1.0684860213    6.6687324498
   4.8701834552   10.2434182584    3.5615884582
   8.6529712993   10.1283941360    1.6956076356
  16.1988056753    6.6461185129   18.9828455572
   6.6876950588   10.2406986054    6.5406289219
  14.3069451539    2.3951724314   14.0196104278
  -0.5089173698    8.1385320246   17.7952746571
  10.9292604832   16.5180124194    3.5941581143
  16.5391710830    9.0294731147   19.0626226448
  -0.9399146865   19.1847242462   13.8137361794
   0.3059412165    1.3693527765   13.1600340366
   1.6336174831   17.8928531743   11.7708286312
   2.4571274975    3.3129996033   10.3252856902
   0.4969129092    9.7241137820    0.6431193318
  -0.4134704410    4.0454494513    0.2362309687
   0.4107023821   11.9677066834   18.4604253998
   1.3639864855   12.0133388284   16.5349151849
  14.1278960889    1.8447989385   15.7217346079
   9.3883193335   15.8507695569    3.4838414155
   2.2369570878    9.0279603031    8.3449026008
   7.4860653323   17.3363670815    6.0937872390
   5.1935248824    9.3507315930    5.9513338858
   8.0433180181   11.8614099786    1.8482982935
  -0.5766573299   13.4359889250   16.4212861635
   4.7887010479    8.9086261773    1.6763974667
   8.7181105503   13.7557722061    7.6056549644
  12.4664166733   12.6964958946   13.7533748742
   4.2531946357    1.4809981356   16.4724974720
   2.0724381720    3.2765984468   18.2346270184
   0.1549872437    6.1126276539    6.2016787607
   3.8091775232    5.4490497090    0.9710047478
   0.9801204266    3.6435241669    5.1276954390
  10.7503756242   11.3870277037    5.9898505187
   5.5105371159   17.9447011627   10.3365105998
  16.7724517427    1.1001278452    1.7686922522
  11.5574209634   10.5889213894   16.4542752714
   3.0794024623   16.4066459024    0.0846248846
  12.4238207394   17.0042517108   15.8017648648
   6.0228105896    1.3300566219    9.8264724512
   2.2532717971   14.2034607890    2.1709643982
   7.3024946526   13.6751355287    1.5107401232
  12.0941485517   19.3191096206    4.3954138627
   6.0477937393   13.5142459976   18.5666000327
  15.1750567268   15.5794555633   10.7115406539
   4.1675843910   18.9732191462    3.7985311944
   5.0384046005    1.3721757684    2.4834484380
  11.9049400494   15.9615339569   18.4932713823
   6.8717005157    2.7201120154    6.2139372138
  13.5967537445   18.5952957982   11.3527046901
  11.7262987670   15.1598485390    9.9728103909
   3.2676087153   15.3485339181   12.9881477795
   4.9655739838   17.4855523692   14.4976270305
  10.1544160344    4.1011587100   15.4989269362
   9.8879538266    3.9564789074   17.7849024959
  -0.6386041864   17.4598882090    8.1784234590
   9.7509461445   13.2473952514   11.5079685702
  12.0674038234   14.3915641714    4.2840049344
   1.7647460288   13.6712810480    9.9350269938
  15.7425382246   12.4016898653    9.6028186344
  15.9096329273    9.7219255271    7.0695090779
  11.7477310945    2.9762421461   16.8687824290
   4.0644204091    4.7560219676    5.6781496461
  -1.4928107171   17.3023465056    4.5307992134
   8.7780591478    7.2162721941    3.3463943093
   8.6026711966    6.9948697107   15.5964370832
  15.1070150063   13.2897283699    4.0353821449
   3.0393508963   13.5228700047    6.8454820884
   8.8631025277    7.7964724965   11.6349162764
  13.2149251078    7.5421922805    4.8748981033
  -0.6894240806    7.9703585856    2.7209727724
   0.5572523149    6.6709471547   12.0749995641
   8.9275934843   14.7115242887   17.7612362228
  10.9013097532    6.4464233796    1.7646848633
  13.2054230657    9.6403765064    2.6389844008
   8.9320596742   17.7080023796   13.2545606209
  16.7750050169    5.1950684156   11.2580472243
  16.0523685555    6.9451909563   12.4886186002
  16.7656225438    5.3802345826    1.6673533108
   2.0508092916   11.1624013854   14.8473889106
  12.5504069851    1.4515130734   14.4343171656
   5.8289877715   11.1113774778    4.9452940561
   7.9725132145   19.0176576587    7.3773797913
   9.8171929141   11.7232856834    1.0404949065
   0.2900251055    9.9501517436   18.2747030503
   0.0934352369   19.2777069088   11.9596041416
   1.3259441619    2.5377253074   11.8632442279
  -1.2666517594   11.6042166627    0.3921680034
   9.6495474447   16.4482371269    5.3126184364
   0.0693535164   13.4887617335   14.4793425054
   3.6720965908    9.8481424864    7.3420440851
