B2 C140 Ca1 F48 H298 O66 
1.0
1.7839657568571536e+01 4.3045118258415071e-16 5.3542987624100327e-17 
-3.0122888861745487e+00 1.9274436269245140e+01 1.0430704844337554e-17 
-4.9667761659189302e-01 1.5894778720233276e+00 1.9432225858723704e+01 
B C Ca F H O 
2 140 1 48 298 66 
Cartesian
  10.0874951823    3.8583166456   16.7633843901
  -1.0108554019    6.5811895767   12.0547603940
  -0.0385473493    1.6005757813    1.5241115910
   7.1823801963   13.7763751155    7.1428650983
   4.7666230249    6.4936017628    1.0214669089
  12.6278845346   12.7468574418   12.3740975538
   4.3870881491    3.0429820025   16.2926455004
   2.1845604964    2.1457660753   18.2960824830
   1.4347347590    2.7185249400    5.4977416304
   2.5584373462    1.4751016999   16.8815052005
  -0.5810742072    4.0479227817    5.7804869954
   3.0160363595    6.6281018031   19.0788574021
   1.9773022326   17.4854420264   18.2888261973
   0.7099077905    4.0605663185   17.3945154018
  11.9079764610   15.9960686305   15.0961529202
   4.9866312055   10.0445901138    0.7563657056
   6.1638081873   17.2368206752    9.3796073394
  12.2652977804   12.2064826346   16.0147881324
   9.6291322249   12.1484753529    6.7751208809
   9.3816914605   13.7158076077    6.5343870991
  12.8572084631   11.9350265240   14.6359795681
   3.9433567046    7.8903205061    1.0648913051
  11.7148806884    9.9440385301   16.7617720114
  11.8237895653   11.8313753372    6.2233481415
  -0.0891780377    5.1414125192    6.7906261236
   0.8341542262    7.4133070228    6.9624842311
   4.5379850998   19.1022817066    9.5874930789
   2.0815710961   16.4395621339    1.1519468633
  15.9399792990    1.6835206525    3.0149174206
   3.6082594145   19.7121083996   10.8588200145
   1.3219790661   15.2238669344    1.5649369957
  13.0558056315   17.0638772996   16.9096929544
   5.3321154414    2.5943684574   10.7772612189
   7.5042943411   13.9505145064    3.0614665401
  14.6551927684    0.8969424992    3.3946194445
   5.8461973582   13.6607140321    1.0526633405
   5.4372143011   15.0576534868   19.0113735723
  14.9133237445   15.4518899517   12.0817384621
   1.9800835450   12.8330578981    1.8125249383
  12.7939441479   16.0334891041   18.0069752693
   5.6458234978   13.7078845689   17.0679213640
   4.9028002997   17.9386090199    3.9406884767
   7.1498751635    0.4833171306    2.7075181161
   6.2521442497    1.6619240052    2.6702570585
   4.1429104631    2.4274973834    2.1520183486
  -2.7199622154   17.2749884625   10.4653563797
   6.9576291574    1.2110838639    6.6546355622
  12.2117784394   15.1980850281    8.8531747583
  13.6870675781   17.7965809532   10.3314828908
   3.5482584072   16.1309745405   11.8875815195
  12.9408586186   18.6069056497    4.3243334716
   7.4274620445    2.8625621454   18.1200592304
   7.6640059113    5.2821100406   19.0984795686
   7.9184414099    4.3297579113   17.9193170540
   3.7296638173   15.7274399641   14.2065165447
  11.9595984207   18.9900187222   11.6230254920
  10.1637162255   15.0047365369   10.0511707694
   9.4020180145    3.5488906651   13.2335348839
  12.0814031969   15.7763990429    0.1912918430
  11.9346554796   13.5864749908    3.2578059739
   9.5623581762   14.7911112459   11.4219522423
   5.4592686268    3.1994261808    6.4397288246
   1.4775888115   13.0842161085   11.1123209262
   3.5891571315   17.0322673361   15.0462049138
   0.0410308245   18.5278399992    8.4854539691
  10.3723854672    3.8825515769   14.4164236580
  11.4429784642    4.9281987119   14.0207351564
   5.4378482469    4.7344761240    6.0225073268
   4.3676037667   19.3266831343   15.0698566944
   8.4986173694   12.5572106734   10.7040078535
  -1.5360936773   13.6170411132    8.7137009160
  15.0324713769   11.5724066813    8.7576007950
  -0.6699664200   17.0375165794    6.8491192822
  -1.7347143137   10.6834906812    8.1627371398
   5.7611218273    6.9475195866   15.3983619087
  13.4491559284   15.0772551533    4.4057821611
  -1.4641246139   17.9080815024    5.8974511387
   2.7945635396   13.7954516508    9.2829950450
  15.9703622503   10.4106682408    5.8262288897
   3.6518416619    6.3321978213    5.3262520637
  11.7207963141    2.8576157657   18.2577397956
   2.0858910496    5.6805554921   13.4081742409
   8.8650295490   20.6879044097   18.4898923600
  14.4123428779   14.0635420028    4.8974110183
   6.8555666762    7.6232604667   16.1775175058
   2.7344234286   14.5560489503    7.9836418842
   7.4962165434    7.3973939592    4.0578207858
  -0.6638925672   17.9180094270    3.8300309908
   6.9923549446    9.1543340429   15.9334212595
   9.5651785944    7.7176177306    9.5698810267
   0.3490416522    7.6645197903    3.3171951445
  13.0523065354    3.6648301799   18.5739873364
   2.1660442800    6.1638806010   10.6946363711
   1.2541513083    5.7888735029   12.0331841822
  10.7296522973    5.9855238354    3.0418774276
   9.3540946577    6.0276642311    3.7648932864
   8.7160269557   16.0111087259   16.8537991825
   8.5834572312    8.5459881376   10.5072937179
  12.1455948280    9.3436841081    3.8301035962
   8.4917946180   17.8542400323   11.8648699446
  -1.5068980978   13.2283305788    4.1305965320
  14.0875279932    7.1758426291    6.0198669555
   7.1418607244    8.7051154531   10.0077591573
  12.5584845068    9.8455616559    1.5662494368
  11.9252973197    6.3218091192    1.0965957181
   2.8480112271   14.5481296202    5.5082602515
  12.6633543463    8.7790838513    5.1431975130
  15.8688233493    7.2663403082    3.2742678947
   7.9513225253   18.8012189378   13.9078707063
   9.2429976773   14.0833733332   18.0159382038
  14.8571515413    8.3098840493   14.5664858405
  15.8912218256    8.3366850814   13.4085568478
  15.5994402358    6.1929925495    2.1978316935
  15.1714322341    3.4573812426   10.9796565903
   8.7957144786   12.9907289623   18.9789719981
  15.1397217385    4.9906718182   11.0954428819
   8.6646401746   19.5753150669   14.9968461900
  14.4492946176    5.7351910869    9.8690354435
  15.8522337150    9.6541866065   12.6573579403
  11.1180827411    1.2833249121    7.1368798935
   2.4119074358   10.5076141159   15.6030498373
  -1.7615409245   11.6688995336   19.1934682222
   1.0119834845   13.7804540760   14.8944339045
  15.3839937008   12.1739907118    0.6952328374
   4.5401372582   10.9962172625    7.3429734014
   4.7523793783   11.0391643683    4.1690376352
   9.2118585516   17.4568975382    6.1016231108
   7.9415921908   18.3338709594    6.0294799318
   1.6065419978   12.6714692533   15.8050295954
  -0.8858181369   20.2553389690   13.1241339339
   0.9420769665    1.6262229151   12.4562565023
   0.8286915648   18.5225679353   12.5396776552
   1.7696130175    2.3644475324   10.1993555374
   8.9190523099   11.1245839519    1.9798005314
   2.4710213953   10.2546369850    8.3108221922
   5.6168885083   10.4985055474    6.3496588298
  13.7586765553    1.5690124414   14.6328970786
  -0.7082134398    9.0615138044   18.5328648166
  16.6146590547    4.6631999181    0.5263553725
  -1.2467294223   13.4289491591   15.5462903617
  -0.3097838705   11.3378130334   19.2415772062
   9.6979450427   16.8148242095    3.7933998372
   8.4128646480    7.1338971912   13.5200530334
   7.3714543784    2.2066303374   16.9582468386
   8.3765271036    6.4413932107   18.7981897125
   9.2081450147    4.7322749088   12.5253188142
   8.2423505784    2.0508656908   18.9434391892
   8.6771690080    3.1366523436    0.8286314418
   6.1945768505    2.7912375676   18.6852993210
   6.2737177622    5.6350795283   19.3208904500
   8.2446668523    3.1245171286   13.7098563453
  12.1526823478    4.5500493776   12.8076667925
   9.8477533412    2.6156254763   12.3168169080
  12.4725945641    5.0833364266   14.9619895099
   4.5720740964    7.2466945229   15.7875206516
   5.9854219409    5.5527940189   15.5948277544
  10.9234796238    6.0822570128   13.7675081810
   5.9251834709    7.0972162267   14.0892092518
   2.9509067478    4.6570452707   13.3411513869
   7.9394161995   19.9197783235   17.9587711722
   2.8660538165    6.8855660139   13.5875921128
  10.8213850602    8.0513238218   10.0171088252
   1.3875761620    5.8218853592    9.6570543940
   6.8211710444    9.6056044628   14.6382347541
   8.1641687826    9.6162028781   16.4397407825
   1.2982314667    5.5975841395   14.5650321801
   9.6211510348    8.1707235171    8.2748904552
   9.1821523015   18.9062385507    0.4125135948
  14.0405269439    3.5427380023   17.6454327514
  10.1244405775   20.2271599023   18.0660362689
   3.2455857672    5.3308379389   10.7176328107
   9.2274172031    6.3600357294    9.5620602141
   6.4356423049    9.3326884436   10.9503612378
  13.9387893483    1.8317916172    0.4146052483
  12.6763928549    4.9933701034   18.6890621215
   5.9584973747    9.8687045777   16.6377557584
   2.6466055790    7.4248903981   10.5158325958
   6.4716410661    7.6914371600    9.4435227650
  15.1177754246    9.2955309614   15.4293464150
   7.2423057440    9.6926118509    8.9564496371
  13.8729219765    2.9768705932   11.2058147411
  13.5841462741    8.5668205987   14.1083446244
  14.5580241296    5.2133536389    8.6666317151
  15.5350967428    3.0880884704    9.7653697029
  14.8591871497    7.0807384977   10.0216627534
  14.8745488720    7.1425610294   15.2561209552
  -1.2239705578    9.5447731172   11.5542413924
  15.9955180940    2.9607068062   11.9072278240
  -1.4525504640   10.6495761361   13.4629722794
  13.1377410745    5.8123065805   10.1292407581
  14.6513686384   10.1378302512   12.2687517775
  -1.8136520680   20.7497856486   18.3865971633
  11.8770170547   13.2415530350   16.1384763967
   1.7154804720    2.3011307160    4.5302143830
   5.3635451599    6.4203304764    1.9442093238
   5.4139626452   16.9690863986    8.6706021103
  10.0989807941   11.9424855999    7.7565677941
   5.5282524904    6.6493997355    0.2474088334
   5.2293289585    3.0013172079   15.6579920437
  16.4296923736    4.4855932478    5.1164818173
   0.0564365881    2.6969718818    1.7056902710
   1.0930624820   18.0444379233   18.0834513876
   0.2703490819    1.4990164648    0.4880512797
   6.4647084478   14.2652755466    7.8482406301
  -0.1590577806    4.5157602908   18.1182420631
   0.8636668139    1.0506851931    2.0207858588
  12.3019986571   11.6870403077   12.2968486008
  -0.5179079229   19.6599985775   16.8034881908
   6.8955480590   14.0440186770    6.0935765443
  12.8865818918   15.7855875062   14.6061986315
   5.8584303005   10.6889009663    1.0546668357
  13.7420171914   12.8797921070   12.1967989375
   2.5535578257    5.6739266421   19.0984942394
   2.3139660246    7.4131931963   18.6485642147
  11.2878517846    9.6623778802   17.7736369681
  12.1530141868   11.2176242378    7.0529709055
   1.0113377061    1.9812770546    6.2357581438
  16.8652608189    3.1857562279    6.3192595775
  10.2651686138   14.3302568368    6.5414055495
   4.6199522007    3.5079838798   17.2538293484
   8.0307507211    0.7467602226    9.1228484387
  11.5845029581   15.1865541892   15.7494341890
  12.3346322936   10.8849312740   14.3325232938
   1.9131534633   16.3744864446   18.1258673245
   2.7784250192   17.7001939571   17.4696946770
  11.0782937201   16.1948444281   14.3495479399
   7.1683035675   17.4614121548    9.0392715199
   0.1439593284    3.3127219820   16.7806383735
   2.7227790239   16.7021011804    1.9487595668
   1.1826288515    8.2215686485    6.3047755774
  13.2142143691   12.1129870561   16.6513074741
   2.3324035178    3.2417606482    5.9042941708
   6.2735208102   16.4489172910   10.2195907507
   8.6142315957   11.6569539656    6.6704306169
   4.1147597772   10.6821470176    0.9694214000
   7.2453083076   12.6967656431    7.2934427440
   4.5941641016   11.3678741985   19.1417674527
   3.8456420865    6.6417424562   18.3771400294
  12.0461171911   13.3801749274   11.6841589971
   2.7972774981    1.6987151119   19.1107946472
   3.5187610408    3.6573742464   16.0030035437
   1.0270406763    4.7814150843   16.7391611020
   1.8352257250    2.0474815426   16.2213094711
  16.6869221023    1.6962533843    3.8229021146
  15.8011725530    2.8150068561    2.8352634450
  12.7801814848    9.9260229749   16.7127202028
   3.0955909043    7.8911848292    1.7389832113
   3.6031749824    8.1615290834    0.0984059874
   1.7767474485    7.1841271960    7.4885872148
   0.7579056144    4.6814827894    7.3265381553
   1.4672312310   17.3530209157    0.9117203324
  12.4891607406   11.6198133147    5.2904976923
   7.2363868565    1.0075833035   11.4691008073
  11.7756858319   12.8743816049    6.6072428805
  11.1458145033    9.2131944815   16.1380140260
   9.0238726417   13.6605701567    5.4511708109
  14.0478706380   11.9649878001   14.5349905836
   3.8612469946   18.6233585326    8.8865804857
   7.1466237577   14.9195870055    3.5400389530
  -0.8766642001    5.5704963800    7.4038721975
   0.1598607854    7.9695835653    7.6744073827
   5.3741127912   14.5523244491    1.4387573030
   6.1583223935    3.3293055466   10.9614186684
   0.7686860394   14.8450759107    0.6576338719
  13.1788390218   18.0050123961   17.3702380324
  13.9970741728   16.8467268863   16.4614035211
   4.5068078495   15.3362885604   18.4618649977
  13.8624955696   15.6397334612   12.3455827037
   8.5364437669   13.8042644052    3.3531154415
   4.5612156874    3.1794611998   10.2968816487
   3.1152150920   18.9095241071   11.3998984344
   5.6465455961   12.6778584204   16.7526025811
  15.1979036308   14.3746683847   12.2541257609
  11.4265000464   19.4487537771    2.6192134629
  13.7168330258    1.4629680763    3.5545876793
   4.4208982955   17.1532520229    4.5524648481
   6.2392406678    0.8700723171    7.4284985068
   4.0840678195   19.1830143128    1.7322781390
   0.4529491545   15.3343088209    2.2207202546
   6.2858875783    2.1754414592    3.5820257267
   3.1652545384    2.0807366167    1.9739811173
  -2.2346483999   17.8581329323   11.2717957496
   1.1097680564   12.5343002029    2.4183516746
   2.2155301189   12.6693916741    0.7037601814
   7.0423413461   13.1527219244    3.6004987525
  12.5817103810   15.0820686457   17.5204118160
   5.0016537669    2.4196415141   11.7691777168
  13.6014236288   15.9709525425   18.7361681061
   6.3694429013   14.2736574111   16.5467670482
  11.9868352065   14.3437297165    8.2231632511
  12.9601599237   16.9936381066   10.3239515037
   5.4279807759   12.8516910874    1.5992622268
   2.9636584713   15.9058554283   11.0343447294
   5.8842536382   18.2258684719    4.4423935892
   4.5083298063   15.6389882083   11.7655607784
  13.2952706324   15.2481175500    8.9983698391
   4.4763759903    3.1020522768    1.3082748366
  -2.2237627624   16.0420362637   12.7213935747
   6.3139297367   15.6532816507   18.6884889424
   2.9726011333   12.5037655974    2.2725067329
   7.9223530210    1.2498574921    7.1320267656
   7.0017097628    0.6019780078    5.7764716823
   4.6948912919   14.2270903412   16.8277538842
   7.4982221419    4.7609763568   16.9786775058
  11.6768492185   20.0750692155   11.7218070408
   3.5167234612   14.8548287196   14.8521268707
   4.7224753894   15.6502894271   13.8583356857
   9.9369795549   14.1388572694    9.4212430672
   3.8059949336   17.2204029102   11.8812264285
   5.3014744611   17.6233844511    2.9430880417
   8.2764935673    0.7623837037    2.7166087746
  -2.2296687674   17.2066131800    9.5773919639
  13.9151327594   19.0073497792    4.2569533111
   6.5349288187    2.4373133472    1.8812249626
  12.6653055659   18.0049298452    3.4148141709
  12.9464703922   17.8791728159    5.0988731105
   4.2061286608    3.0467011614    3.1004885089
  12.0229013994   16.0443760786    8.3201077065
  13.5178184348   18.2066156520    9.2141858775
  10.0997580369   15.2000083316   12.3366239755
  -0.1812682747   18.7077348944    9.5273166338
   1.8549418611   12.1264412470   10.7154172638
  12.2233221790   13.9492881423    2.2706740791
  10.9232110541   13.1450541565    3.4161612661
  11.3338247515   18.4418030973   10.9941610197
  12.1859584670   18.2678466406   19.2490239329
  11.0500105381   16.1746297787    0.1236344592
   1.8396462821   13.4458391002   12.0955002530
  11.6248708890   18.6448984615   12.6183222895
   0.3768889884   12.9645513306   11.3126342110
  12.6169585421   12.7646057655    3.5119799000
   4.6566815688    2.7333433277    5.7790016434
   9.7871977263   16.0275637198    9.5307441612
  -2.0912759290   14.0160618152    7.7948479704
   9.1763115477   11.7824031936   10.3122401345
   5.1768007064    2.9828646619    7.5286813012
  12.2170027225   15.6575315300    1.3234769684
   5.7498176262    4.6964833197    4.9523502587
   6.0627444121    5.4792931499    6.5794443077
  14.3105536723   11.9414125776    7.9446646558
   5.2139544082   19.9492972212   14.5474508933
  -0.2246673889   19.3416645661    7.8205952269
   1.1257023545   18.2914365333    8.3200686466
   8.5953140726   15.1405366109   11.4884810981
   3.9580078211   16.8561558595   16.0574034505
   2.5694721203   17.3572090839   14.9856243745
  -0.5364010888   13.3909495301    8.3558683321
  -1.0569794672   11.3861487267    7.6689886323
  11.1179397369    3.0074507445   14.5470955704
  13.7894829145   15.6843051425    3.5964204058
   4.6555066663   19.2408010550   16.1816276271
   8.0368793192   13.0446492299    9.7481034517
  15.2224851289   11.1527557829    5.6386502294
   3.2851435785   19.8418590701   15.0105184832
  -1.2038988347   18.9427152040    5.7580692637
  -2.4972525391   17.9414201232    6.3370697628
   7.7105689824   12.1460752243   11.2818559222
   2.8821669636   12.7296373692    9.0511101160
  -1.5055663469   14.3472895893    9.5172796068
  13.3689507385   15.4776703022    5.4360492658
   3.5966176793   14.1224387343    9.9272845527
   0.3537126955   17.2234386462    6.6457134956
  11.0635681697    3.1679710542   19.0219805003
  14.4739552363   10.9494170154    9.4795158135
  -1.1217692866   16.0464382154    6.7880206655
  15.9094305851    9.5678231698    5.0750937480
   4.3369704718    6.5087580371    4.4619943514
   7.1479503173    8.4124206755    3.9417058494
   3.4941946607    7.1590754781    6.0619658343
  -1.1384765291   10.2242449781    8.9547204781
  13.9615915789   13.3555905627    5.5736878813
   0.3322577969    7.1895564782    4.2397549720
  -0.8099159297   10.7196522510    5.6941863837
  -0.8131867867   17.6223811150    2.8290866622
   0.3989754150   17.6909101625    3.9905723788
   1.8281271929   15.2700730737    7.9093296222
   0.6730977281    7.0168056819    2.3966729414
  15.1885156616   14.6387971005    5.5311597692
   3.4721313171   15.3820952866    7.9739826630
  11.2435252990    6.8257135682    3.4837442445
   6.6455641260    7.5727096122   17.3423530923
   2.6675550538    6.1853314272    4.9523197526
   1.0553843709    8.4719655106    3.2796813525
   6.8753935131    6.7451183423    3.3850426271
   8.3265831811   16.9986597135   17.0960033311
  11.2681324934    4.9836071346    3.1768568395
   7.4986541681    7.0957952588    5.1414897112
   0.7064432999    4.8883539611   11.7070952344
   8.2100845361   18.8333147433   11.2772079156
  11.5194664780   10.1604134293    4.1603934755
   8.5254345312   15.6264613068   15.8040497340
  13.3850027503    6.9424302451    6.8535633395
  11.3832612386    8.8627448589    3.2443460479
   9.2405104638   17.3290974559   11.2986467833
  -0.8750549880   19.0266599619    3.8332332000
  11.7811238749   10.6582034107    1.4716996955
  12.6293690343    6.9128498698    1.8233113447
   8.6471281102    5.2955521150    3.3757636784
  -1.2006887944   12.5955309285    4.9957553612
  12.0677200283    8.7487106168    1.3825310154
  12.2955160452    5.1852896006    0.9481448818
   9.8492989980   16.1059473629   16.7560130613
   9.6885917826    5.5485086964    4.6832451735
   7.5709352041   17.2076662203   11.9846907739
   1.7481194727   14.8552938513    5.3124621832
  -1.0177094436   14.1940432286    4.0413152949
   8.9747548153    9.5255362710   10.4848159739
  14.6853100221    8.0519696684    6.4344220816
  -1.0624788779   12.5623183255    3.3673450892
  14.8727863609    7.8108908503    3.4799243149
   3.3644017478   15.4283760671    5.6790266538
  14.6537218774    6.3001909098    5.7274812108
   7.3461470182   19.3630566654   13.2814634449
  16.2572565026    6.7397273540    4.2276689683
  11.7406176362    8.8066414100    5.7922934925
  13.2313409363   10.2081739394    0.7628587348
   3.0770347324   13.8353744825    4.6960842641
  13.4023302016    9.5137665956    5.4943139577
  11.9087329282    6.9200991743    0.2282538413
   9.3539133791   13.5113425221   17.0044680287
  -0.9689265364    8.2646609331   13.8653919637
   9.2969700194   12.0546225435   18.7205333865
   7.1699831734   18.0483698921   14.2457921819
  10.2794609232   14.5614516399   18.0987030910
  14.8720258289    5.3985947690    2.5659427854
   9.3418603689   18.8641518336   15.3864028339
  15.0600379399    6.6012147686    1.3122421765
   7.7467072398   12.6373795207   18.8688527080
   1.8089482040   10.0619486371   16.4389077248
   1.0387837334   14.8389385054   15.2395430928
  10.2636664249   17.9018855111    5.7684164800
  10.2019983465    1.8590238917    6.8999175154
   4.9726260102   11.0666908753    8.3548088683
   3.7001552563   11.1107578298    4.5214438024
  11.2995374032    1.5480980091    8.1577706814
  15.9213369771    9.3986577417    0.4146041503
  15.6547108499   11.8602532512   18.2395245234
  14.4970472348    5.1762472812   11.9522012860
  15.6858724125   13.2789159582    0.8455912158
  14.4302746570   12.0409596650    0.1767334866
  -2.7074574578   20.0868220801   11.9814646367
   2.7310318988    1.6380337304   13.7854958943
   0.1466555850   17.7713120176   13.0391782289
   0.9996199792    1.6091028330    9.7779564371
   7.9260100875   19.9480784326   15.8192100694
   4.0495875128   11.9403317024    6.9641849699
  -2.1032360169   13.9943679587   15.1523497487
   9.5589782213   17.8596431784    3.6002255541
   2.9144264994   10.5065273322    9.3389100388
   2.6437735051    9.7487139667   14.9126014604
   7.9028466508   19.0273215616    5.1041597868
  -0.2067979296    7.1700190244    0.1607035379
   1.4866766669   13.9593380003   13.9308651654
   9.0216438714   11.7446557780    2.8686850389
   1.8608421322   11.0860840181    7.9432001222
  11.4064421205   20.0501761900   14.4485270540
   4.9987814427   11.8737015784    3.4537679956
   2.5973479902   12.9956312966   16.1049083875
   1.6403985114   18.7713515058   13.2670096127
   2.7064547543    1.8678315760   10.0689398713
   9.3787023232   17.0121277695    7.0754658108
  -1.5675225409   12.4098060533   15.8119987021
  15.8746973336    3.9349323000    0.6556353336
   3.2933702187   10.9772743735   15.9384761861
  15.1898346218   11.8465710562    1.6648229437
  11.9769332021    1.3514021466    6.3871053417
   4.9719487793   10.0364694670    3.5395573617
   9.3166376183   10.1811057773    2.3216648226
  15.7567693400    6.8743897835   19.2131132055
   6.6479957147   10.4922230806    6.6325120895
  14.0972550514    2.3478185711   13.9604932870
  -0.2981602121    8.3893992068   17.7825527816
  10.7580173784   16.4338239843    3.6460481650
  16.0940566672    9.3562870878   18.2580670884
  -1.3869163651   19.5315175463   13.7029159804
   0.4070456956    2.1610120174   13.1972233547
   1.1400365047   17.9388849736   11.6652216108
   1.5536962431    3.1912557289    9.5285446699
   0.4471209539    9.4817381056    0.8405903673
  -0.1320096998    4.4012249950    0.2874300452
   0.2995346271   12.2035625715   19.0512328680
   0.7766640336   12.4279729151   16.5248186410
  13.9750061154    1.8962738934   15.7067166524
   9.1074668116   16.1602695930    3.0424547230
   1.8362479162    9.4060629637    8.2425541232
   6.9861343710   17.6730488509    5.8926536381
   5.2226779607    9.3936456451    6.0065498976
   7.8205909257   11.0301191342    1.7433922585
  -0.9628806163   13.9933418844   16.4413209312
   4.9584796135    8.8263660220    1.5472589411
   8.4075127640   14.3027419004    7.4690682822
  12.3805257315   13.0153076941   13.7989837625
   4.0182963690    1.7247043185   16.5302174021
   1.8804533475    3.5621199724   18.1530366912
   0.4846857941    6.3581582102    6.1275874630
   3.9384298394    5.3570991781    0.9001347971
   0.4921213807    3.6768682630    4.9675885083
  10.4924163059   11.4542534150    5.7612802129
   5.4642532810   18.2287842170   10.1879921396
  16.5104123406    1.0122624460    1.8069887078
  11.2481875245   11.2954996028   16.4089784051
   3.0057346706   16.2097477267    0.1002403352
  11.9768856159   17.2244312612   15.9095499590
   5.6700079395    1.3520422988   10.1266864380
   2.1432439534   14.2458637193    2.1100667595
   7.1996384609   13.8137366646    1.6176425472
  11.9143701694   19.5356865971    4.6464258861
   5.7316315594   13.7096974715   18.5041536979
  15.0541040382   15.7860921358   10.7015267250
   3.9844138032   18.9532322595    3.8760857725
   4.9885631247    1.2961925551    2.3506073290
  11.4990996411   16.3215442370   18.6541381982
   6.7913429212    2.6026930351    6.1886066849
  13.3727114607   18.7834353927   11.3347753663
  11.5235785808   15.2582380283   10.1512871466
   2.8396877163   15.8054889483   13.0293426653
   4.4479979137   18.0253943834   14.3847034393
   9.7277861972    4.2556026722   15.5469741364
   9.3127994607    4.1106429043   17.8991295284
  -0.7929508457   17.4732618891    8.2072248643
   9.4712317372   13.3379095016   11.5904790104
  12.1029877701   14.5407849173    4.2700757337
   1.5943379140   13.9920596617   10.0705930882
  15.6178065853   12.6148179207    9.5090876586
  15.7153510618    9.7729582777    7.1068329114
  11.2937111013    3.2227440493   16.9809540162
   4.0112147401    5.0863911483    6.0428406145
  -1.6230989668   17.1986452576    4.6694553575
   8.7994181174    7.3226574957    3.4746695499
   7.9821357787    7.1100169131   15.6517748998
  14.9705056834   13.3142750911    3.8381502368
   2.7539148541   13.7445822970    6.7011270433
   8.7137264343    7.8843197870   11.6935975194
  13.2791376268    7.4751229942    4.8642095710
  -0.9877135660    8.2279986088    3.0334349151
   0.3189870812    6.7815973263   12.4175183992
   8.3111906636   15.0511652631   17.8324261176
  10.5785178099    6.3266095135    1.6623030888
  13.1649506796    9.7222532346    2.8817069212
   8.9828153795   18.2138023187   13.1595489555
  16.4567516741    5.4236437020   11.3465334680
  15.7929811361    7.2874887508   12.5479890237
  16.8675008188    5.4952296888    1.7430693576
   1.6323307998   11.5911547987   14.9953522096
  12.3400076689    1.3523948975   14.3253496815
   5.7538346208   11.2246187187    5.1554590598
   7.7431475000   19.1123145135    7.2051687049
   9.6534101568   11.7398091700    0.9568068151
   0.0483969279   10.2600977397   18.3415226956
   0.0377517375   19.5800875682   12.0907209908
   1.3706736031    2.6853920582   11.5526018156
  -1.2170967794   11.4882670693    0.2285173396
   9.1813729503   16.4017143873    5.0538550330
  -0.2916741626   13.4648418492   14.4539176163
   3.5415853183    9.9529160688    7.3683831269
