B2 C140 Ca1 F48 H298 O66 
1.0
1.7820613757921617e+01 -6.9214726862082651e-16 -2.7791750589915233e-16 
-2.6800595404072549e+00 1.9234482908044587e+01 -3.3941656555919867e-16 
-1.0567773660592554e+00 9.8362378518043458e-01 1.9478113770368608e+01 
B C Ca F H O 
2 140 1 48 298 66 
Cartesian
   9.6542509311    3.1061779328   16.8851760037
  -1.3087349472    6.1294551978   12.1535422532
  -0.1290106876    1.0678106861    1.5550880211
   6.9052201521   13.7279165270    6.5835163218
   5.0579076540    6.2411070272    1.3979412674
  12.3231950456   12.5517343802   12.6141430283
   3.6929962278    2.4275803281   15.5352270472
   1.6762304324    1.9280957001   18.4214976157
   1.3964002733    2.8314283925    5.4706062634
   2.0832488133    1.3853187410   17.0904432862
  -0.6712674926    4.0148151391    5.8581765976
   2.8888136462    6.0980046809   18.9343589778
   1.7238670658   16.3679653590   18.7689424213
   0.2782895861    3.8777055927   17.6604044574
  11.6907300156   15.6180765266   15.2307774028
   4.3629465861    9.5965099587    0.5277784612
   6.3702424056   17.2075586192    9.3160984389
  12.3669656383   11.7947363668   16.2767336282
   9.7304164712   11.9211015285    6.4470361806
   9.3431768415   13.4302063910    6.2527128351
  12.6889167799   11.5248041855   14.7872525691
   4.1359397707    7.3600633257    1.2380080782
  10.6744293232   10.2305718985   16.8224924545
  11.9641986316   11.4828056626    6.5415791674
  -0.0114979926    4.8760578490    6.9052055923
   0.5363301154    7.1932986794    6.8433191313
   4.4483981785   18.4834541066    9.6209736969
   2.5088802585   16.0977437744    1.6047509480
  16.1748928677    1.5974917393    3.2463314618
   3.4970583571   18.9099258805   10.7227167882
   1.7670515411   14.8406422780    2.0547731106
  12.8905649310   16.6311359054   17.0310422128
   5.2086155080    1.9517117288   10.8993045784
   7.3583906684   13.6813492208    3.1076823753
  14.8673282125    1.1223082604    3.7931506054
   6.2897123550   14.0197567586    1.0181617370
   5.2313121897   14.8448614901   18.9802396223
  -2.5287560125   15.3647873811   12.2542886356
   2.3481622101   12.5708631046    2.0931375914
  12.4711948880   15.5953967879   18.0917840786
   5.3317193466   13.2144747029   17.2888228053
   5.1706176697   17.7586495717    3.5475576121
   7.1023028424    0.4768407303    2.4287384747
   6.0787176136    1.5175130155    2.6414189189
   3.7148517449    1.7458149840    2.6084515004
  -2.5553486300   17.1261906288   10.6491632115
   6.4908234693    1.2645995520    6.2697188392
  11.8723291622   15.0392583359    8.9233582913
  13.6873825245   17.2870209038   10.7167006732
   3.5063243055   15.4910356645   12.0970958420
  13.0265124129   18.2777022584    4.0215769425
   6.7118745854    2.3821370245   18.3583986309
   7.2997642725    4.7292220517   19.2197824570
   7.4830034457    3.7152869990   18.0813049874
   3.5089339188   15.3933670976   14.5549995091
  11.8318967711   18.1516621338   11.8232504695
   9.8496948287   14.6729917335   10.0331626968
   8.9651312493    2.9684302546   13.1369438364
  12.2570183748   15.6063128252    0.4755653915
  12.3552959982   13.0095196561    3.3080979830
   9.2715713995   13.9438721989   11.2222244510
   5.1813678328    3.1567232990    6.5995225670
   1.5261817930   12.8302172008   10.8802600157
   3.4717729613   16.8055722188   15.0655257083
   0.6856524293   18.3467290289    8.2398933909
   9.9544662975    3.1333277496   14.4003247033
  10.9627035190    4.3355130577   14.1037623133
   5.3705848473    4.5856426697    6.4273779681
   4.4095496711   18.9122459347   14.9109787225
   8.7057626512   11.8875617691   10.2645182066
  -1.1916893039   13.3389261618    8.6949091805
  15.1943095317   11.5312342882    8.4512733794
  -0.4065827413   16.7695915131    6.6927702984
  -1.6253812223   10.4908862525    7.9065666970
   5.3427493521    6.7688932932   15.7130233687
  13.8001356770   14.6411844392    4.4415214144
  -1.1587981291   17.8528774256    5.9003379023
   2.8743087538   13.7765112500    9.0997150857
  15.5630864930    9.8428707870    5.7944458181
   3.8259230260    6.2245272436    5.5008721661
  11.3522133186    2.3878819209   18.4238293388
   1.7446037483    5.1901721095   13.3347410660
   8.9406423922   20.0765984629   18.5550097286
  14.9734831508   13.7682261885    4.7255265505
   6.8020903790    7.1765295904   16.1706156478
   2.7654358846   14.3875662321    7.6198629223
   7.5648848743    7.1646011371    4.0068231811
  -0.0328288070   18.0243413445    3.8420240586
   6.7986793792    8.6695413768   15.9308559707
   9.5946443936    7.7851732243    9.4542551504
   0.4308217538    8.0365621625    3.2994986457
  12.5644991792    3.3876707222   18.7734176891
   1.8817367165    5.5940594036   10.7668660873
   0.9601202273    5.1913566222   12.0380788708
  10.6626450773    5.6187031686    3.1740155839
   9.3798236122    5.6534653462    3.7622154267
   8.3412125109   15.6464519813   17.3256996120
   8.7598394076    8.3618176524   10.6038315374
  11.9452851657    8.5744609013    4.1559462390
   8.4582241231   17.7460020464   11.3601464047
  -0.9416853358   13.0274002610    3.5966579269
  14.0815473242    6.7270900371    6.3942292903
   7.3247576607    8.6027016368    9.9315144502
  13.1191350050    9.4596431293    2.1353427769
  11.8552561105    5.9211691501    1.2282780651
   2.7036694456   14.2572668329    5.2784678688
  12.4566090452    8.0912469583    5.4271244721
  16.0991129958    7.1561744380    3.4947613077
   8.1115290813   17.9747118598   13.6922396941
   8.7788311594   13.2727079390   17.9577801997
  14.6180284715    8.0627990662   14.6555584635
  15.7569196597    8.1360741435   13.6284094789
  15.7029592955    6.5098095414    2.1459084796
  14.9276756801    3.0402192327   11.0532087946
   8.4955473782   12.3428833638   19.0645972780
  14.8050262140    4.5514554778   11.1950436654
   8.8956499229   18.6490585813   14.8460211238
  14.0462687161    5.2172496476   10.0069100358
  15.6512122397    9.4176911397   12.7573439480
  11.2741509925    0.6719372480    6.9072474012
   2.3633174312   10.0639379992   16.1947243822
  -1.8069746521   11.0954615041   19.4605112912
   0.5939085253   13.1522991280   15.2303279499
  15.6863936362   12.0165562139    0.5603807718
   4.8028802108   10.4366142662    7.6231031514
   4.9384139031   10.4352576155    4.5105700843
   8.8947910530   16.8193239200    5.8006772063
   7.7947454451   17.8153143050    6.1380620257
   1.1277115467   12.0662688063   16.0930734438
  -0.5614354034   19.8485505486   12.8929040294
   0.9257233653    1.4174067136   12.2827160740
   0.5880417633   17.7469693650   12.4900831719
   0.6674826275    1.6770120865    9.9165468652
   9.4657022648   10.8250413202    1.9425194605
   2.4516511995   10.1025653744    8.0539888026
   5.9513658226    9.9696054779    6.7343911073
  13.3382397524    1.1800447537   14.5845606297
  -0.6984632825    8.4045546746   18.4957656365
  16.7870001400    4.5126594956    0.6784153767
  -1.7525749965   13.1463616080   15.3691073353
  -0.2952494690   10.6764733569   19.3344807789
   9.4601510511   16.7996856781    3.3851578172
   8.3524690940    6.5029341658   13.4357320109
   6.5484795545    1.7689995296   17.1966279080
   8.2231467498    5.8019956193   18.9170292410
   8.7632293984    4.1553582177   12.4117211708
   7.4039341805    1.5167877422   19.2183053496
   8.6721110140    3.1383441384    0.9025844971
   5.5056237107    2.6720136353   18.9739284180
   6.0574168880    5.1903251794   19.3225935128
   7.7686441428    2.5424251220   13.5314797189
  11.5251200223    4.1482547655   12.9310649855
   9.4453307528    2.1758305982   12.2711932023
  11.9420961984    4.2763892008   15.0567179316
   4.2930560232    7.3926480769   16.3005930352
   5.3194889968    5.3765240620   16.0429782596
  10.5676420626    5.7575689154   14.1547206032
   5.1115127106    6.9334317586   14.3342941186
   2.5165455500    4.1471241666   13.4042166574
   7.8921384032   19.3995293462   17.9906029216
   2.3806182099    6.3440663955   13.4698519746
  10.9294283449    7.6668391920    9.7120598611
   1.1576422625    5.5865451255    9.5858657952
   6.8564478929    9.0314511886   14.5387372847
   7.7353210442    9.3890026639   16.5341618429
   0.8795618612    5.0474968453   14.3906607442
   9.4214624247    8.3764926585    8.2405855296
  10.1933921824   18.6469742714    0.3186009763
  13.5138119749    3.4386842400   17.8065974847
  10.0461640095   19.6540761632   17.9337443155
   3.0065806836    4.9163409691   10.5007896591
   9.2790373907    6.4839556510    9.1880008292
   6.4519771673    9.0676256783   10.9049606338
  14.2809860284    2.1946099154    0.4811536674
  11.9559076773    4.6026573712   18.7888637025
   5.5999997951    9.2373444616   16.4174460921
   2.1745608643    6.9418780352   10.9118791837
   6.6769033474    7.4108731461    9.5781262122
  14.8735688212    8.9607274369   15.6620677968
   7.3618312206    9.4277122400    8.8892810633
  13.6838945530    2.5907284995   10.8971322839
  13.4176387493    8.2635006334   14.1454269572
  14.3822433861    4.9037099132    8.6832675122
  15.6995675354    2.8298345826    9.9368842533
  14.4196690236    6.6582301014   10.1193720527
  14.5581999088    6.8388875005   15.1887972292
  16.0005273300    9.1608524979   11.3995643275
  15.5952405058    2.3994445304   12.0500249713
  -1.3783256440   10.4251500052   13.2176032556
  12.7430645046    5.0738194342    9.9413625720
  14.3538221286    9.9568054632   12.5849252325
   0.6494873823    1.3679416245   18.5577971195
  12.4707648510   12.8480554811   16.7171386013
   1.7308503897    2.1757334027    4.7214038877
   5.1535592515    6.0932268250    2.4931399826
   5.8988007878   17.2655611165    8.3236044274
   9.8196356944   11.5508539306    7.4657662736
   6.0343828078    6.4605392252    0.8318452337
   4.7143590699    2.3519591325   15.4519295709
  16.4076839904    4.6155031492    5.3402455748
   0.0205103472    2.1573405415    1.2855210375
   0.9177896757   17.0069301017   18.4069696774
  -0.0322511076    0.4503346505    0.6716832584
   6.4302844432   14.5881895678    6.9293814842
  -0.4152419508    3.0975817285   17.5854326649
   0.6074182416    0.5966996618    2.2567282978
  11.5157199582   12.0249951816   12.0628926346
  -0.9111590759   19.5876213726   16.9309488287
   6.9708455935   13.7988414314    5.5741339790
  12.6264658283   15.0523262953   15.0100643428
   5.2607621764   10.2716919806    0.3361990642
  13.1671839046   12.0414895854   12.1382324789
   2.7688127861    5.1111797437   18.6132450275
   1.8480119202    6.5061470347   18.9584266371
  10.5852336297   10.1314734268   17.8700427554
  11.7051117402   10.6735634758    7.3407512347
   1.2321919290    2.2157725340    6.3638700848
  16.6179537984    3.2807687060    6.4569154857
  10.2716373400   14.0866798026    6.4503083187
   3.3931589506    3.5052660755   15.6003590751
   4.9851282174   19.2042156678    8.9855778186
  11.0071410685   14.8846770618   15.6803053025
  12.1289749344   10.6313566503   14.5085986841
   1.4301771008   15.3535039024   19.0840029222
   2.4720312320   16.2121503096   18.0200009052
  11.1474538181   15.8086389944   14.1517140549
   7.2063755317   17.9387815551    9.4025900619
   0.7002046960    4.2973724472   16.7156635054
   3.2094238589   16.3790314335    2.3524843136
  -0.5907683288    7.3607149197    6.9477104915
  12.7668311722   11.1161141742   17.0217227517
   2.1684847523    3.6106450686    5.6468008463
   6.8442947409   16.2690780582    9.5080653578
   8.9702514349   11.3366653085    6.0053308904
   3.5707655737   10.2027018786    0.9554682516
   6.4386948159   12.6863360662    6.8584011901
   2.9826308766   10.1459469564   19.0213454999
   3.5284251380    6.8474424759   18.4269957092
  12.2330973113   13.5249875539   12.2655006537
   2.2288716736    1.8731226103   19.3304539414
   3.1110468121    2.1384078858   14.5906790413
  -0.1654118715    4.7776220370   18.2655724584
   1.4998998850    1.9185083476   16.1673033275
  17.0175570104    1.3321470631    3.9614741039
  16.3202994140    2.6131762109    3.1120608849
  11.4518088396    9.4913309486   16.4843873310
   3.2452137263    7.3997606283    1.9739082192
   3.7345846809    7.4533634537    0.1396389349
   0.8357397568    8.0953554815    6.3468726896
   0.8182599298    4.3988731014    7.5452429021
   1.7024496661   16.8191849574    1.3924048323
  12.8369640377   11.1675915728    5.9555223944
   4.2635485779   19.3094420927   11.5082876996
  12.1154128248   12.3914641108    7.0659344615
   9.6146885941   10.0538100068   16.4179591560
   9.1870632258   13.6031571489    5.1496386338
  13.7675322954   11.2389277531   14.7544997034
   3.9685019799   17.8616884543    8.8378787234
   6.9889023753   14.7025564252    3.3071376084
  -0.8494358263    5.1143959271    7.5773337439
   1.0810418013    7.1721444464    7.8195573302
   6.2270897415   15.1167775037    1.3961707219
   6.1808597391    2.4115297047   11.0785325079
   1.0218112918   14.6305230477    1.3408597999
  12.9090711903   17.5502391550   17.5666319110
  13.9405164134   16.3950188354   16.5757165413
   4.3108051836   15.4343177822   18.6138968578
  14.2896138188   15.4106093195   12.5980893623
   8.3450901174   13.6927801301    3.5883080430
   4.6592846244    2.4865899787   10.1476593034
   2.8715898012   18.0820835509   11.0964181470
   5.5993485914   12.1411834511   17.2170386158
  -2.2988608313   14.3698557465   12.1805812874
  14.2362367251    0.7741607787    2.9853578440
  14.4792410567    1.8926863511    4.3684596550
   4.7399446036   16.8910126699    4.0840480211
   6.7108257189    0.8809266767    7.3421882189
   7.3157463537    0.3512121116    1.3568816885
   1.1004039660   15.2860847780    2.8132554139
   5.9664957441    1.7180846845    3.7491363315
   2.7854662929    1.3706243535    2.2151951038
  -2.2935740390   17.8010564295   11.6280980284
   1.4237649749   12.4095200912    2.5763692635
   2.2833268930   12.3762877039    1.0668711289
   6.8304256180   12.9449042582    3.7281013514
  12.1657344470   14.6598608618   17.4753548027
   4.6870250403    1.9593208875   11.8605897819
  13.3152711575   15.3952398666   18.7751733553
   6.1806184974   13.7418047867   16.6857570090
  11.5876500894   14.2425986268    8.1809649158
  13.2630219714   16.2568387706   10.9229350893
   5.3903734694   13.4379001347    1.3733262756
   2.6665406242   15.5551922558   11.4308548140
   5.6110684537   18.4584573837    4.2984800699
   4.0154599429   14.4990618692   11.8302097139
  12.9535527522   15.2258597652    8.9447101932
   3.7118648890    2.7791230549    2.2338669849
  -1.7753699489   15.7206659419   13.0327988420
   6.1558851981   15.2878444579   18.5466997892
   3.1508956160   11.9157567199    2.4050954909
   7.2452774198    0.7899327219    5.6342657209
   5.4867939479    0.8622012711    6.0849542824
   4.4056868599   13.2801071351   16.6469174311
   7.1202082711    4.1769467136   17.2023816106
  11.5651520812   19.1212549170   12.2910481835
   3.0155718923   14.8863374565   15.3415316050
   4.6295548055   15.0832300732   14.5260215026
   9.6031996840   14.1833371147    9.1156953626
   4.0701039635   16.4177720215   12.0318401313
   5.8339244882   17.5969971834    2.7904464126
   8.0278983595    0.9503554633    2.9796594388
  -2.0233652138   17.3124343776    9.6485902724
  14.0820018241   18.6051635843    3.9965257122
   6.4178330008    2.4775350648    2.2467901597
  12.6718076800   18.1318273249    3.0134838726
  12.9325845479   17.3209513070    4.5224377354
   3.6076334814    1.7105814359    3.6940344229
  11.6702150610   16.0375654467    8.4856597817
  13.1925704892   17.5628637218    9.7807562654
   9.7676585060   14.1293875596   12.0806614623
   0.9658508471   18.5593736657    9.3100323658
   2.2430224506   12.0043166387   10.9867698934
  11.3829452652   13.1966234659    2.9543173016
  12.5331538000   12.0154705029    3.7182041615
  11.2853379418   17.9288986101   10.8556197636
  12.1904495889   16.7253042708    0.4807946316
  11.4548397786   15.3876315283    1.1102918758
   1.8110336959   13.6331918219   11.5483414317
  11.7238881991   17.3337119821   12.4550474797
   0.4786266601   12.5547474401   11.2179073371
  13.0284356820   13.2517537082    2.4988661859
   4.3301994399    2.6864122287    6.1184683583
   9.4563713919   15.6404043227   10.0775733021
  -1.8215414479   13.6049119412    7.7178822909
   9.4433631330   11.0568139166    9.8506318442
   5.0320732789    2.8839065728    7.6307250135
  13.1039330855   15.1524857425    1.0512987707
   5.8208440055    4.7970362206    5.4659136623
   6.1065190458    4.9273586477    7.1870155316
  14.5782937279   12.0172800561    7.7006219984
   5.0752388882   19.5890544254   14.2296281315
   0.2672015003   19.3212707692    7.7998200666
   1.6000040059   18.1795882038    7.7055209890
   8.1820314450   14.4250569933   11.2242462882
   3.9189165539   16.8999761526   16.1280112072
   2.4675643857   17.2909154881   15.1772351368
  -0.1825791820   12.9045591019    8.4098836333
  -0.8151270105   10.9930181819    7.3460353257
  10.6411186775    2.2718053435   14.4628949516
  14.0263414484   15.2526698724    3.4782104433
   5.0651960296   18.7545666767   15.8244329293
   8.6397772002   12.6201390940    9.5137008952
  14.9663707538   10.7922026395    5.6930533447
   3.5226070136   19.4092527206   15.2561241630
  -0.6027477862   18.9202590492    5.9985982948
  -2.2551593109   17.9791849136    6.1898289634
   7.7199657149   11.4965379736   10.5740996432
   3.4129300351   12.8131665459    9.1453975882
  -0.9935685283   14.1133118901    9.3905731193
  13.7561659938   15.2247472761    5.3773136427
   3.3615595176   14.5127110969    9.7609817195
   0.5669810941   16.6380450132    6.1552203957
  10.5372105664    2.6268706824   19.1002273318
  14.6022687241   10.9977484955    9.1497177237
  -0.9604837227   15.9136902004    6.7278807336
  14.9263060382    9.1142253467    5.1285957185
   3.4980124558    5.7244313216    4.5715832469
   7.2973245302    8.1931190771    3.8560671396
   4.6827652826    6.9434715246    5.1522623868
  -1.0745799115   10.1113305788    8.7820180473
  14.7628952776   13.1339507524    5.6156300034
   0.7535836265    7.2659977722    3.9787063140
  -1.2666082887    9.8695109047    5.3439411982
  -0.2363413195   17.9718721846    2.7594737514
   0.7824082107   17.4163552912    4.1196014132
   2.2082862484   15.2332934906    7.6541299362
   0.6290088109    7.7978535881    2.2923381679
  -2.0418253861   14.4576610681    5.0338560728
   3.8878809930   14.6990364178    7.4957387132
  11.4227657041    6.0702538850    3.8643007002
   6.9456539357    7.1332418468   17.1547154180
   2.9849565779    6.8176436193    5.7440059886
   0.9036667219    8.9976184537    3.5342551360
   7.2301609528    6.5510937244    3.1619781118
   7.7759362613   16.4332034097   17.7934428057
  10.9757530024    4.5864153374    2.9130696400
   7.1600784769    6.7277683449    4.9665452925
   0.4389020448    4.2722374488   11.8972299966
   7.4940181974   18.1131803457   11.5339910803
  11.0324871345    9.2768396931    4.3206163438
   8.3774349305   15.5615330153   16.1813154937
  13.5954224000    6.9970519293    7.3965333213
  11.6178460245    7.8684334690    3.3953752408
   9.0191820606   18.5194352391   10.7823162973
  -0.0399404403   19.0904967266    4.2004473564
  13.2403887314   10.5674709689    1.8909035955
  12.7240164655    5.9527290455    1.8961710726
   8.7161540834    5.1467792093    3.0286170872
  -0.5318008999   12.2452685730    4.2660150561
  12.1692706288    9.1211079448    1.6917346053
  11.5800177505    4.9117602704    0.8578773224
   9.4293813432   15.7996000319   17.6508129982
   9.3622342623    5.1774152578    4.7155759871
   8.3908352142   16.7538207100   10.8238301346
   2.6089701027   15.2767683386    5.5167229248
  -0.4672191577   13.9773362117    3.5751611611
   9.1643834608    9.4390257419   10.7005554306
  15.1581556994    7.2178175741    6.3867164908
  -0.7783188867   12.5880152779    2.6707018008
  15.1500415783    7.2035088715    4.1594050632
   3.7921672381   14.0080090057    4.9572664784
  14.3671345972    5.7139378268    6.4235446587
   7.3451219110   18.5940341615   13.1391096360
  16.7243594150    6.4651469078    3.9781540547
  11.5491118092    7.7397931444    5.8381571603
  14.1103637489    8.9669526864    1.6945006981
   1.9244053818   13.7990816560    4.5531652975
  12.8709230117    8.9717927138    6.0625246415
  12.0223376579    6.7223224084    0.4584455651
   8.6554861520   12.9072951558   16.9316619101
  -1.1148608159    8.1802592947   14.1897521760
   9.1879565205   11.3883374403   18.6651799331
   7.4865781055   17.1868511429   14.1484913755
   9.8667441005   13.5792373647   18.0771625402
  14.5944029566    6.1456813874    2.3237229277
   9.8269972600   18.0977242447   15.0755763719
  15.8019455168    7.0896653253    1.1786362011
   7.4230454551   12.0650501915   19.0157966857
   1.8394897264    9.8582123543   17.0278316026
   0.4426757819   14.0297249717   15.9336715297
   9.8085225140   17.2772779682    6.1356692076
  10.5626327886    1.2110751424    6.2725421691
   5.0896307879   10.2908369736    8.7043073162
   4.0242868962   11.0337248721    4.9594989633
  11.2330216109    1.1105727665    7.8789702514
  -1.0812932330    9.5658827923    0.8562222990
  -2.2266307300   10.8538254971   18.5027341977
  14.2428920577    4.8004849040   12.0685970937
  15.8347094439   13.0876921136    0.8235723184
  14.0032716389   12.9479742908   19.1415970239
  -0.0601111670    0.8547708305   12.0762864025
   2.8402792453    1.4259781626   13.2552341334
  -0.1342048434   17.2870092523   13.1355147454
   0.0232423293    0.8239505017    9.7009004066
   8.3810022086   18.9506745226   15.7281389933
   4.6058420246   11.5328197807    7.4673804091
  15.1463864434   12.8890632366   14.8744803511
   9.7490042406   17.8803198621    3.3754183385
   2.8586755714   10.4378752399    9.0015770818
   2.7061231080    9.2454264108   15.5694226056
   7.6355730927   18.2598227514    5.1957763216
   0.1744066580    7.2716148017    0.1199103124
   1.1911516242   13.4667150571   14.4114180672
   9.5818869083   11.5006995315    2.7630537358
   1.8692572470   10.9995687570    7.6600662881
  14.2587099873    0.7144661996   14.0672455034
   5.3007456429   10.9843583398    3.5381311425
   1.8522146605   12.5162969331   16.8135005672
   1.6230034198   17.8841356773   12.9265872925
   1.4031693530    1.7389709200    9.0737161379
   8.7472331742   15.9805918602    6.5823810303
  -1.7227051228   12.3700586827   16.1652766903
  15.8241687578    3.8953721195    0.5710034813
   3.3931969530   10.4866580484   16.4726891210
  15.0729623076   11.5110903047    1.3720664346
  12.2469561556    0.7115109123    6.4253810317
   4.5059018798    9.4129488937    4.2843840211
  10.0338718764    9.9097768761    2.0363310122
  15.6669950590    6.1472701746   19.2175312409
   6.8784526169   10.2636888177    7.1926154842
  13.4113201222    2.1885434307   14.2552049695
   0.0023590224    7.6781170169   18.1796436471
  10.4593243263   16.2425327736    3.1341111682
  -1.6703446776    8.2840748451   17.9439086464
  -0.9107218721   19.2221386510   13.7917308798
   0.5421752807    2.2341316047   13.0616035606
   0.5497399595   17.1291658618   11.5430632195
   0.1762648947    2.5784458161    9.8129787217
   1.0821433950    9.2611916319    0.8518401017
   0.0442548608    4.0938278623    0.6298290495
   0.2809811102   11.6083694172   19.0478934217
   0.2730120533   11.7116715171   16.6894381160
  13.5960696021    0.9393148078   15.6516833730
   8.8229720327   16.6351216855    2.4612426122
   1.6674757487    9.3741437454    8.2883650969
   6.9453779308   17.1749031415    6.3119733432
   5.9344745514    8.8277766010    6.7535529966
   8.4097192557   10.5389816456    1.9371958717
  -2.0226029394   14.1755026768   15.7061006804
   4.9280947731    8.5513684281    1.2910285529
   8.1982635103   13.8088656943    7.1271885660
  12.3431003904   12.6814668697   14.0634011709
   3.4384591507    1.6694053730   16.7498700584
   1.4126789588    3.3343114548   18.4352974793
   0.6684106618    5.9413735559    6.2128386983
   4.4466404838    5.0424314871    0.8777210597
   0.2360572536    3.5016012673    4.8804597024
  10.8716720731   11.5788591201    5.7133837951
   5.3628490145   17.5843293758   10.3064870475
  16.3965083742    0.8680976474    1.9911414073
  10.9561325324   11.4685239808   16.3096471766
   3.3614313275   16.0203077593    0.4371047775
  11.9112377108   16.7767815557   16.0163940661
   5.3328542268    0.7316881078   10.1879219547
   2.7224170638   13.8736595809    2.4396451490
   7.5151679552   13.4698671584    1.7268881173
  12.2662111010   19.3041614673    4.7439226901
   5.2054476199   13.4943587819   18.6903796217
  -2.2616228845   15.8043285183   10.8922104748
   4.0202499861   18.5339684326    3.0031406418
   4.7962716463    0.9340202546    2.1577326432
  11.1793560029   15.8261167572   18.7392395349
   6.4408766093    2.7077188515    6.1035552371
  13.2656448650   18.3706794788   11.5323093330
  11.3151858103   14.7516390695   10.1751725645
   2.7217631879   15.0987272545   13.3494992457
   4.2384628445   17.7099413525   14.2558486988
   9.1639820983    3.3582002814   15.6837708381
   8.8291947462    3.2573733631   17.9871054622
  -0.1985041045   17.3045846393    8.0901085071
   9.2510217274   12.5230000418   11.3697423643
  12.5913730186   13.9594569491    4.3978026077
   1.5500650378   13.4223035843    9.5959008407
  -2.0046840987   12.4141533713    9.4496681188
  15.6499777038    9.3985385018    7.1487388750
  10.9849701704    2.7339290956   17.1306544163
   4.1933595815    5.3553255154    6.5998227070
  -1.2325286338   17.3768871020    4.4586660531
   8.9309752752    7.0686767747    4.0062062615
   7.7424953811    6.6113398948   15.3339018682
  15.4337703737   13.1398308447    3.5884368103
   2.4498507713   13.5041539650    6.5980318396
   8.6576723279    7.5844435835   11.7523146042
  13.2937638504    6.9530331353    5.2536464982
  -0.9369083545    8.3266836659    3.3620162621
   0.0359600967    6.2822483560   12.2687589769
   7.9722687918   14.4732062764   18.0460034956
  10.7273353529    6.4441742328    2.0134896436
  13.0347097331    9.4015247347    3.6551392683
   9.0571503674   17.5274121304   12.6474118031
  16.0476796948    5.0172474074   11.4465593044
  15.6472569737    7.0218764929   12.7772896005
  16.7733039552    5.3981835741    1.9338630297
   1.7703610317   11.0740144278   15.3506845930
  11.9820373949    0.7940711591   14.3700026812
   6.0885783958   10.4106937649    5.3781715518
   8.0824995883   18.6394860194    7.1731870479
   9.8936796385   11.7405607320    0.8611612649
  -0.1341010144    9.7130467016   18.2540732778
   0.1290296029   19.0488697046   12.0010352255
   1.4949130118    1.7998637193   11.0758203558
  -0.7971079016   11.4717306447    0.2700249065
   8.9252271614   16.2235240007    4.5533467575
  -0.6822546908   12.9977567554   14.4688393819
   3.6020058579    9.6663938003    7.3309581350
