B2 C140 Ca1 F48 H298 O66 
1.0
1.7795377480493734e+01 5.8353427590079687e-16 -2.9953188143916432e-17 
-2.8902140275665329e+00 1.9219138438717906e+01 1.0806245350319387e-16 
-7.2741965998423275e-01 1.3681070173328860e+00 1.9501426753798043e+01 
B C Ca F H O 
2 140 1 48 298 66 
Cartesian
   9.9337971227    3.5539246553   16.7546822178
  -1.1714290272    6.3370779150   12.1789074653
  -0.0530898236    1.4811295664    1.4902868100
   7.0285221829   13.7067791683    7.0120380903
   4.7607659361    6.5369320829    1.1389683689
  12.5091376743   12.4710610413   12.4661205227
   4.2718112721    2.8398087184   16.2283060433
   1.8266059422    2.0928340617   18.3136344432
   1.3239763599    2.7851068385    5.4766125807
   2.4376856801    1.4284676135   16.9450788205
  -0.5857728128    4.1206778180    5.8044996565
   2.8839395969    6.4263706409   19.1071522076
   1.7936963093   17.1096666955   18.3802156893
   0.6289876921    3.8759600286   17.6814256772
  11.7157617023   15.8289870170   15.1513031771
   4.8069137302    9.9912919749    0.7042119484
   6.1646858229   17.1898692377    9.4539131899
  12.2479847265   12.0260851203   16.2381389913
   9.5547661652   12.0694086163    6.7317300137
   9.4401686431   13.5442572789    6.4037065581
  12.7013939838   11.8430543861   14.7167488186
   3.9856600224    7.7652317508    1.0914280742
  11.2723720005    9.9814724107   16.8191851086
  11.8599890139   11.6096925840    6.1390443325
  -0.0442096466    5.2360861245    6.7064558101
   0.9627122060    7.3695200397    7.0316894585
   4.4152527105   18.9321658182    9.6637767505
   2.1851527235   16.3597999227    1.2220280776
  15.9017876515    1.7320912368    3.0614126901
   3.4874824045   19.4272549542   10.7337468246
   1.3457499040   15.1714106231    1.5303231386
  12.9014723689   16.8331976574   17.0390344935
   5.3181763501    2.3264464132   10.8878875617
   7.4150251707   13.7783315373    3.0286113607
  14.5989425053    1.0704938127    3.5337199738
   6.1128184991   13.5714372023    1.0740590086
   5.3921370160   14.9013555834   19.1190656570
  14.9532071927   15.2660191247   12.1159076842
   2.1445588364   12.8677212983    1.8151162445
  12.5547259995   15.8702026599   18.1091289235
   5.4136148346   13.5854846261   17.1126948966
   5.0165679528   17.8117875630    3.9283797515
   7.1961327197    0.4962640207    2.6885693602
   6.2395891839    1.6426006501    2.6331598159
   3.9142717007    2.2834195629    2.3062440577
  -2.7398148663   17.0399808799   10.5264731136
   6.8364954786    1.2572508415    6.5864837775
  12.0919974105   15.0707581632    8.8767566119
  13.6163802430   17.5402497331   10.4167759521
   3.5519373948   15.8438130285   11.8697661573
  12.9145356734   18.3634672013    4.4332401054
   7.0992477980    2.5988301032   18.2689539591
   7.5329002373    4.9590461793   19.1608117296
   7.7085850488    3.9483874533   18.0699063372
   3.6034653671   15.6918949980   14.3295340064
  11.9467644469   18.6955846139   11.7158878764
  10.0053994122   14.9718439083   10.2063337354
   9.2419909269    3.4244701669   13.3334834863
  12.0754059041   15.7492656531    0.3106376168
  12.0526802599   13.4692093686    3.2513040463
   9.3676784772   14.4078337682   11.4547764395
   5.3534047228    3.1700476908    6.4985516293
   1.4484455586   12.9623436818   10.9765165005
   3.5837315158   16.9402179698   15.0879027590
   0.1804409282   18.5050939960    8.5258126679
  10.2553010366    3.4528462172   14.4433343426
  11.2744824885    4.6006566360   14.1117788690
   5.4173012933    4.6574163397    6.1308650605
   4.3546454065   19.1978355420   15.1348619010
   8.5449678601   12.4053863687   10.7350727804
  -1.4496310279   13.5310175607    8.7125935082
  15.0089661104   11.5506498044    8.6440536830
  -0.6615502139   16.8726281268    6.8667266945
  -1.6640409710   10.5784557615    8.1258314587
   5.6024783855    6.7633897036   15.5293784100
  13.5109830273   15.0284370131    4.5788168929
  -1.4865326396   17.7793276097    5.9355565075
   2.8159078874   13.6460562570    9.0810643494
  15.8389718464   10.2011574301    5.7614955781
   3.6256982861    6.2597557556    5.3886171589
  11.5258693356    2.7326960969   18.3993899630
   2.0049640930    5.5130414589   13.3921669802
   8.8788271501   20.3976211010   18.6150252963
  14.4796147793   13.9426272292    4.9236121875
   6.8395756326    7.4405302056   16.2419618635
   2.6726517784   14.6457993667    7.9293534921
   7.4384765220    7.4184891560    3.9610908285
  -0.5876458090   17.8569611376    3.7527737360
   6.7292115138    9.0054197093   15.9891853197
   9.4739825149    7.7084623971    9.5310882464
   0.3323879387    7.7130940884    3.4257056415
  12.7434852816    3.6226999110   18.6840583447
   2.0803273616    6.0016017257   10.7886631764
   1.2317297822    5.7424762427   12.0743700414
  10.7333353203    5.9118572051    3.0610626927
   9.3466690918    5.9649884466    3.7315220253
   8.6124835610   15.8881276608   17.0037858014
   8.5647778887    8.4159395954   10.5168811030
  11.9468244260    9.2173688295    3.8708015439
   8.4266529941   17.6208119199   11.8061537787
  -1.3256853511   13.0925684636    4.0716646607
  14.1197155769    6.9852510471    6.0884149614
   7.1595108915    8.6445337493    9.9354049019
  12.7834356657    9.6398201042    1.7584198947
  11.9217320382    6.2489008338    1.0494311141
   2.7778400486   14.3071038366    5.5068003127
  12.5532310834    8.6474423187    5.2071955266
  15.8697027854    7.1034332865    3.3561572508
   7.9725378816   18.4574093642   13.9480908188
   9.0149616602   13.7367489632   18.0575460146
  14.7812101667    8.2063199651   14.7231146629
  15.8218287106    8.2823426876   13.5799808220
  15.7506343706    6.1195852768    2.2489255890
  14.9967371510    3.3138136093   11.0302086329
   8.6231232486   12.6967589237   19.0191474704
  14.9310315882    4.9300907580   11.2094461462
   8.6703408635   19.2862951066   14.9591569346
  14.2362741352    5.6369431978   10.0406778220
  15.6959471392    9.5927405220   12.7233577995
  11.0243250055    1.0848866859    7.1358325228
   2.3742052394   10.2810723837   15.7286505109
  -1.8127931578   11.5164270312   19.2609667236
   0.8013587257   13.5901446083   14.9471551583
  15.5364002521   12.0881190433    0.7241269808
   4.4961146490   10.7844474719    7.3422209932
   4.8393682415   10.9188966034    4.2124192444
   9.1486629288   17.2092937071    6.0318591695
   7.9456126300   18.1283648623    5.9399725442
   1.3485114276   12.6142976880   15.9427527692
  -0.8250283668   20.0252984554   13.1400982724
   0.9192472129    1.6511297411   12.4147535738
   0.6546457142   18.2585940128   12.6698630311
   1.3649770188    2.1074102961   10.0864834742
   9.0468468763   11.0306834413    2.0161712463
   2.4794504083   10.2136515122    8.2984460635
   5.6018376331   10.2920477509    6.4075448109
  13.6172181589    1.4081004431   14.6265451474
  -0.8072125916    8.9051603090   18.4685040892
  16.6388538911    4.7721384649    0.6717400102
  -1.4775694700   13.2310504460   15.5572156674
  -0.3794757102   10.9571763729   19.3794253870
   9.6430238591   16.8016789786    3.7331356603
   8.2430004993    6.8562424876   13.6464737709
   6.9914101880    1.9405015926   17.0606375134
   8.1356959925    6.1189358170   18.9467177858
   9.0913795631    4.5828539652   12.5908499506
   7.9491360467    1.8685033185   19.0053940549
   8.6251202189    3.1790031168    0.8585008218
   5.8702302247    2.6973755810   18.8636913659
   6.2051278732    5.3289293862   19.3950187446
   8.0610342764    3.0275114008   13.8420296909
  12.0313820678    4.3939103384   12.9350649365
   9.7083581622    2.4942127899   12.4402750455
  12.2200674866    4.7148737362   15.0562888293
   4.3395854775    7.1414044300   15.9241335931
   5.6791112543    5.4383084496   15.6000779836
  10.6501908385    5.9279317751   13.8702953743
   5.7016159375    6.9745281978   14.1283775828
   2.8502728097    4.4929336673   13.4137163686
   7.8661526131   19.6849705453   17.9746368623
   2.7438258204    6.6861401623   13.5619145894
  10.7124773607    7.8947644168   10.0404313668
   1.2691945599    5.6313790122    9.7377618461
   6.7688079217    9.2909419845   14.6536342121
   7.9768409878    9.3918019707   16.5188194733
   1.1707675525    5.3067416090   14.4623679945
   9.4873887255    8.0740179716    8.1631043671
   9.4726375279   18.7052193478    0.4971319752
  13.5756090270    3.3141531119   17.6979997841
  10.0372760743   19.9839536429   18.1418635115
   3.0731469451    5.0610701726   10.7811210952
   9.1179824002    6.4384613283    9.5119667930
   6.3543721812    9.2011602411   10.9848167400
  14.0898745537    1.8449337617    0.3214798100
  12.3915743776    4.9059383918   18.7174361221
   5.8028404200    9.7923790376   16.5871429473
   2.6635697153    7.1929313332   10.5535975640
   6.5519908226    7.5509482400    9.5044999399
  15.0368180301    9.0982974251   15.7283678407
   7.2272664078    9.5364681986    8.9177207588
  13.7812430968    2.6807092079   11.1026049578
  13.4735576700    8.5410427417   14.2062190351
  14.5297935161    5.0927653543    8.8454133112
  15.4093514790    2.9722594091    9.7524631423
  14.6458665591    6.8721183276   10.0540996377
  14.5922828455    6.9718635851   15.1906286333
  -1.4350209498    9.4311214450   11.5237797610
  15.7752432220    2.8385002800   11.9736507380
  -1.3631120763   10.5975681214   13.4063839617
  12.8794166798    5.4946730648   10.1828911693
  14.4023758385    9.9920025406   12.3768576043
   0.8955422699    1.4965368826   18.4317464823
  12.1193983461   13.1062906439   16.3830099270
   1.8826724124    2.1207880240    4.7575763499
   5.2895112283    6.5741817416    2.0873535042
   5.6966453398   16.9094510505    8.4495651676
   9.8629544754   11.9237271758    7.7713437063
   5.5753415885    6.6763733438    0.3434965471
   5.0711828602    2.6347155161   15.4437076444
  16.2555545098    4.2964589780    5.3623095792
   0.1381470936    2.4979394826    1.8343592564
   0.9494498123   17.7965344489   18.0791624479
  -0.1624172904    1.4890370098    0.4109778434
   6.2497168129   14.1721965901    7.5962261413
  -0.1126994965    3.9603229182   18.3814865386
   0.6885359089    0.9099333137    1.9879325058
  12.3077036243   11.4182141883   12.3140523131
  -0.6454301689   19.5848755340   17.1399628773
   6.7294010708   13.7468701838    5.9581911741
  12.6288824654   15.2151039034   14.9458420488
   5.7148178115   10.5364419634    0.9724795248
  13.4965621194   12.7577526801   12.2557662868
   2.6798680660    5.3023386168   19.0386366670
   2.0940207760    7.0359399953   18.7412912380
  11.0334527975    9.8770767262   17.8594601502
  12.1101279945   10.7104830977    6.8255272199
   0.9184073504    2.1182461338    6.2209465581
  16.8558672537    3.3777015728    6.5705293652
  10.3910712304   14.0431694573    6.7910205603
   4.7339581620    3.3712583231   17.0639292699
   4.8632527119   19.7726167923    9.1735590203
  10.9717739555   15.0852277677   15.7073297261
  12.3689275828   10.9542082403   14.2784198323
   1.3706936531   16.1189075203   18.3109067186
   2.5846114404   17.3232886381   17.6959858250
  11.2996065653   16.3157703590   14.2694359081
   7.1034830869   17.7314390364    9.0507003307
   0.3223685172    3.2001263832   16.8907741490
   2.7773794339   16.7119980115    2.1770991472
   0.7034785907    8.2890384953    6.4757181330
  13.1195656485   11.7781896605   16.8792379172
   1.9917422150    3.4973050205    5.8829824881
   6.3283857697   16.2551851405    9.9302024848
   8.7688341563   11.3979644592    6.5406425070
   3.8511670239   10.4889501253    0.8482230898
   6.8486696368   12.6005700465    7.3118137061
   4.1480125932   11.1245736248   19.1375674134
   3.8168342981    6.4796823778   18.4546725124
  11.8930399898   13.1307433110   11.8844101562
   2.4912420828    1.8105856904   19.2133533193
   3.4469332228    3.5109226777   15.8011585748
   0.9445310747    4.9235447281   17.1857599606
   1.9037146999    1.8974489104   16.0810417077
  16.6591641456    1.6806021914    3.8763758445
  15.5906607996    2.7214604452    2.7188874208
  12.4185554001    9.8014567312   16.6156742286
   3.2017688170    7.6272712774    1.9064587453
   3.3137612552    7.9658948627    0.1375445501
   2.0188553509    7.3489092018    7.3841092861
   0.7549980957    4.9121240515    7.4001685564
   1.5693956307   17.2282514407    1.0236947713
  12.3346365875   11.6204150198    5.2091723045
   4.1748095848   19.8503690332   11.5620463854
  12.1626372559   12.5264946993    6.7082306065
  10.7971908206    9.3354424349   16.1120639648
   9.1164127967   13.9656821321    5.4577845652
  13.7467885120   11.6793044265   14.6162964863
   3.8564494548   18.2332419241    8.9860175488
   7.2435489675   14.8139669077    3.3445518911
  -0.9253287849    5.3921342720    7.3561004705
   0.3450780230    7.1532092878    7.8885629609
   5.4607226209   14.4333758397    1.3181799851
   6.2960518411    2.8782904053   10.9408223009
   0.8838220103   14.6724829627    0.6901192813
  12.9761318772   17.8985208738   17.4564297980
  13.9870991104   16.6391331805   16.6661422502
   4.4273525379   15.2818105290   18.7131395154
  13.9606923552   15.5476468334   12.5848001346
   8.4782242877   13.5060101807    3.1871776158
   4.5796822753    2.8958911212   10.2489870362
   2.8505986411   18.5911964412   11.1129853300
   5.4243121871   12.4971339847   16.8516651082
  15.0192831037   14.1668886075   12.0847531305
  14.0746981304    0.5868314335    2.6508874797
  13.9814545642    1.8828463843    3.9378080975
   4.6577897490   16.8856693780    4.3348831101
   6.0786647196    1.0482504231    7.3534505666
   4.2985095258   19.0961332327    1.6635252323
   0.6235479072   15.4710775923    2.3389726412
   6.1966978924    1.9438345566    3.8140885520
   2.8563621853    1.7905230312    2.2942796536
  -2.1074562417   17.6106886873   11.2669410182
   1.1772737268   12.4545441106    2.2476228674
   2.2224163969   12.8051739348    0.6811529718
   6.6615877786   13.0849011590    3.6061745075
  12.3960570765   14.8361662763   17.7066787864
   4.8264195460    2.2403005637   11.9056943092
  13.3358523618   15.7153898388   18.8753980315
   6.3249708702   14.2153953792   16.7470717456
  11.8845324663   14.1261299245    8.3334569134
  13.0719272947   16.6222855441   10.6063635385
   5.4342536286   12.7323743020    1.4476199294
   2.8564984127   15.6525951070   11.0167198449
   5.7674004274   18.2912643230    4.6237213119
   4.3616733934   15.0266477111   11.9633867026
  13.1808064687   15.0478395792    9.0904566630
   4.0986178938    3.0646151905    1.5819412609
  -2.0909999420   15.7673332047   12.8083683563
   6.1775731749   15.5107475863   18.6254933315
   2.9215269402   12.2470280373    2.1906539968
   7.8040259755    1.1853570421    7.1185394219
   6.7882024044    0.5608582036    5.6907754793
   4.4438525061   14.0099878540   16.6788855982
   7.3791042443    4.3003912264   17.1042944916
  11.7253620058   19.7103194947   11.6151345254
   3.1757617190   14.8879878829   14.9276698153
   4.6157927198   15.2055081841   14.0120434875
   9.7495516422   14.3030799043    9.3740749528
   3.9989212835   16.8188288582   11.7274630260
   5.5273033768   17.4871189689    3.0024571800
   8.2859034106    0.8827604709    2.7285675130
  -2.1320599777   17.2823720669    9.5701057875
  13.9500216484   18.8822799267    4.5213575458
   6.6359630743    2.4010190503    1.9802983238
  12.9277265753   17.8998074759    3.4298839203
  12.8712391858   17.6294294877    5.2485656725
   3.9516961840    2.8805606800    3.2015178934
  11.7812912635   15.9840523825    8.2223774744
  13.4908313500   18.0031863833    9.4797187908
   9.8091384178   14.8070133085   12.3532781384
  -0.0957740698   18.8810498777    9.5441592123
   1.7719144436   11.9214332705   10.6773692758
  11.8949381968   13.8905355297    2.2892813729
  11.0776386895   12.9877629520    3.5308961840
  11.1442549658   18.1347260504   11.0614847277
  12.8627177907   16.5000876006    0.2599256005
  11.0929071417   16.2654267078    0.4370547668
   2.0381306511   13.3389244685   11.8138981539
  11.7482564333   18.3192072353   12.7589751030
   0.3917084751   12.9871346865   11.2675537479
  12.8658244648   12.7537910523    3.1545376438
   4.5627853571    2.6629429462    5.8874574497
   9.4866126015   15.8082754721    9.9010393856
  -1.9530275366   13.8750827223    7.7973482502
   9.0230018393   11.5905753152   10.1510057547
   5.1226104974    3.1116910813    7.5404943388
  12.2159543473   15.0917484200    1.1806998041
   5.8503758244    4.8561185321    5.1208894005
   6.0699952497    5.2333913290    6.8295394540
  14.4570543362   11.9157023771    7.8369263856
   5.3009422829   19.6273136245   14.7392006291
   0.0267319423   19.2981919737    7.7432744128
   1.2453279323   18.1686384892    8.5038296134
   8.2859655662   14.9130786337   11.4072213012
   3.9572993836   16.6973286101   16.1162000706
   2.5010585143   17.1383353132   15.2954519565
  -0.4424218283   13.1259305566    8.4179287826
  -0.8200787205   11.2499701692    7.7812489601
  10.7070409264    2.4717041915   14.5697839342
  13.9625580348   15.6111701154    3.6547723686
   4.6411892744   18.9937768075   16.1788069277
   8.1857119941   13.1725055509   10.0985871776
  15.0225091990   10.9700436682    5.5263165287
   3.4354105640   19.7325896344   15.0429853583
  -0.9260149674   18.7552145497    6.0223538030
  -2.4956893435   18.0293640199    6.2822054099
   7.5850223311   12.0832164735   11.3152718225
   2.7371755518   12.5940008712    8.8472163676
  -1.2368783574   14.4560546330    9.2825636969
  13.2331557202   15.9012683706    5.1686889918
   3.8152998938   13.7514243507    9.6358996879
   0.4015842063   16.5512550119    6.4824856280
  10.5988951931    3.0847841217   18.9789395405
  14.3420334120   11.0850212602    9.3650329002
  -1.2690884028   15.9176931422    6.8959000895
  15.6323098044    9.4090450641    5.0266078233
   4.2008131711    6.3384606334    4.4435588930
   7.1239056708    8.4529381793    3.7464968066
   3.7516103909    7.2217122138    5.8801800590
  -1.4274342245    9.8347817282    8.9244562892
  13.9533665426   13.1989011284    5.5818137644
   0.3297456156    7.0963780851    4.3726716894
  -0.9106864223   10.6392099830    5.6395040782
  -0.8546646032   17.6808219649    2.6561980636
   0.4013740991   17.5274602310    4.0084857147
   1.7875338195   15.1245061810    8.0101476040
   0.5892518322    7.0531383451    2.6349357010
  15.3424963278   14.3394112988    5.3326336490
   3.5622120095   15.2881791424    7.7793653294
  11.4567720076    6.6516110077    3.5506670667
   6.6320919291    7.3491303990   17.2800801651
   2.5686400868    5.9839000406    5.2811157795
   1.0489483166    8.5563373689    3.4272235362
   6.7691885477    6.7300187007    3.4207540806
   8.0850870572   16.8348241733   17.2422483396
  11.1390196719    4.9028340058    3.2023462099
   7.3288175076    7.2005251289    5.0495659290
   0.8719555315    4.7176330923   12.0615331698
   8.1269319716   18.3641013065   11.1095495378
  11.2358484880   10.0705333953    4.1012839012
   8.3498458206   15.6243566498   15.9395931955
  13.5595864642    6.7113460348    7.0555609321
  11.3329808794    8.3907020700    3.4391925967
   9.2140491791   17.0961697590   11.2632566973
  -0.4702004544   18.9233383548    3.9167300566
  12.2052014251   10.5496869007    1.4360759035
  12.7008624689    6.6938902542    1.6227533891
   8.7846239965    5.1562883185    3.2017643135
  -1.1981213490   12.7642057606    5.1086494173
  12.3250762522    8.7957566760    1.3477849238
  12.2728286717    5.2984677099    0.7634752113
   9.6865824737   16.0887807005   17.1791331720
   9.3254610373    5.7536037796    4.8390959374
   7.6833158844   16.8514880384   11.8837091802
   1.9474417874   14.9102752872    5.1487461252
  -0.8777108540   14.1336101072    4.2060000194
   9.0376779906    9.4741993824   10.6073714123
  14.7419891546    7.8020942396    6.3198655467
  -0.7517324275   12.4544750171    3.4044143881
  14.8933078969    7.4223549211    3.5520533442
   3.7868418833   14.9393876641    5.4603748280
  14.7441654221    6.1852664003    5.6793852462
   7.1343780856   19.0864625628   13.4079559925
  16.0614989285    6.6609223606    4.3925112311
  11.7291963347    8.3417663081    5.8507537990
  13.7508951151    9.6626501365    1.1710918262
   2.9502513876   13.4744370430    4.8407904061
  13.2248299115    9.3950938446    5.6544269420
  11.7849937149    6.9611475370    0.1225546724
   9.0798824749   13.2619621749   17.0922811629
  -0.9423425296    8.3135606761   13.9887586384
   9.1953480029   11.7272523504   18.9027003303
   7.3397264145   17.6325984829   14.3440567084
   9.9265880667   14.1408415957   18.4808437231
  14.9603740518    5.4398439385    2.6115369021
   9.3327232527   18.8332777602   15.7349953471
  15.2861732926    6.5172743420    1.2610497920
   7.5185709873   12.5489800770   19.0598788759
   1.8736282559    9.7750884051   16.5018416811
   0.7459229098   14.5868527055   15.5178531772
   9.9903835909   17.8379394138    6.1054650789
  10.1359187348    1.7077567218    6.8898859874
   5.0307712663   10.9488991300    8.3188489416
   3.8733669817   11.3401260810    4.5481062035
  11.4833646083    1.3670989247    8.1436212038
  16.0156456353    9.6282780093    0.3612531072
  -2.1044765461   11.2624815300   18.2146230334
  14.5346845510    5.1887098571   12.2311119773
  15.7607225788   13.1233217199    0.5712922969
  14.6717182175   11.7791427454    0.0714423431
   0.1049996331    1.0893990712   11.9854721954
   2.6454895712    1.5585376754   13.7448555640
   0.1044658941   17.4601460405   13.1723424336
   0.7111816569    1.2675537777    9.8811823546
   7.9168183477   19.8296356879   15.4844706711
   4.2166037944   11.8062692518    6.9978861054
  -2.4381860257   13.5871003608   15.1035612972
   9.8040962777   17.9128316331    3.7725616517
   2.9068598272   10.3611120575    9.2827685954
   2.5442791993    9.5066635245   14.8811292541
   8.0241162085   18.7231105207    5.0672971577
  -0.2291778721    7.1991452261    0.0200477012
   1.4850075020   13.7067865287   14.1227585704
   9.0699477267   11.6986574849    2.8626455516
   1.9189071893   11.1202118268    7.9633711283
  11.3442975888   19.6849727183   14.3515946586
   4.9894423165   11.5689510921    3.3483642359
   2.3625265672   12.9174091854   16.3110970177
   1.5448005520   18.4090670152   13.3468258518
   2.4645023609    1.8602089538    9.7903552578
   8.8517995425   16.5431892422    6.9039436760
  -1.5242399805   12.2192170846   15.9623143070
  15.7184830102    4.0006038975    0.8030962718
   3.3359716171   10.6802440233   16.1264767291
  15.2893306049   11.9941759710    1.8919587021
  11.9179857965    1.3663402129    6.5975178067
   4.9112212457    9.8556362042    3.9058457099
   9.7814447138   10.2076628014    2.3112402384
  15.6392584246    6.8568935149   19.2568939521
   6.5240444166   10.2931953342    7.0714212223
  13.8135369480    2.3688225278   14.1044277564
  -0.2975789445    7.9673959118   18.1624039148
  10.6033673600   16.2812565151    3.6934953326
  -1.6827035469    8.9880955482   17.8295929428
  -1.2070351866   19.2141364244   13.9309259843
   0.4461636458    2.2354051059   13.3069148250
   1.0459207934   17.8116633985   11.7025687610
   1.0653075211    3.0592910376    9.5827494865
   0.5602135727    9.0996171462    0.8818102593
  -0.2234023799    4.1818930416    0.5248562918
   0.3197206477   11.8294346558   19.2596173350
   0.6157437740   12.4064467690   16.7790489136
  13.6261758768    1.6740917250   15.6416354696
   9.0586527386   16.4082868091    2.9254806736
   1.6801273021    9.4682023300    8.3784577691
   7.1487337412   17.4361418175    5.9640671585
   5.3985402472    9.2923208726    6.1388259624
   8.0239626296   10.6175659063    1.8501660241
  -0.9647803556   13.7461772027   16.4092851438
   4.8657316809    8.7693376620    1.4612632924
   8.3603603846   14.1659334725    7.2753976744
  12.2652226531   12.8608389774   13.7796387856
   3.7927593369    1.5040837089   16.6259647613
   1.7741323697    3.4238902576   18.2814864645
   0.4829869955    6.3426062725    6.0664149848
   3.9743738091    5.3318433887    1.0040500074
   0.2556131108    3.4872738932    4.7646148908
  10.5227575379   11.5217981356    5.7274749747
   5.4727165975   18.0873546916   10.2365975645
  16.3617005881    1.0802155172    1.9426975112
  11.0999379650   11.3186685920   16.4479217985
   3.0889915768   16.0556645011    0.1626573238
  12.0152382766   16.9538969247   16.0074492649
   5.5798184237    1.1432796087   10.2297019601
   2.3695394165   14.2590134789    2.1922182005
   7.3436465558   13.7136402115    1.6051293198
  11.8558882891   19.2770398888    4.6465261727
   5.4568369860   13.5690015563   18.5241088982
  -2.6104438461   15.6836725569   10.8232577848
   4.0238427875   18.7750462502    3.7668146790
   4.9220262947    1.1728477761    2.2746533235
  11.3640663239   16.0693071657   18.8321732329
   6.6595722247    2.6593379804    6.1354749405
  13.3188157663   18.5628325534   11.3923331357
  11.4926721514   14.9980927803   10.2122589077
   2.8289799594   15.5852726046   13.0440437993
   4.2266367771   17.9951060821   14.4166070372
   9.4230199573    3.9146130685   15.5242397644
   9.2020683543    3.8420630028   17.9211177467
  -0.7009672347   17.2410179025    8.1978700679
   9.4290814256   13.0476758058   11.6218956702
  12.1733633234   14.4968139464    4.2582907523
   1.6850474383   13.9257564341    9.8738850616
  15.5613649023   12.6273183575    9.5292794025
  15.7133557392    9.6851113024    7.0695431629
  11.2027963587    3.0368361873   17.0087684563
   4.0755826024    5.2070256974    6.1940974301
  -1.4451418045   17.2312720214    4.6292793615
   8.8595060341    7.2411222297    3.7217017797
   7.9470594816    6.8938115932   15.6735003891
  15.0155003691   13.1336411685    3.7740423400
   2.7270237128   13.7642472148    6.7790517288
   8.6196743468    7.7756052127   11.7085872557
  13.3190230541    7.3864144869    5.0317176624
  -1.0675143611    8.2462351489    3.2308353630
   0.1509011688    6.6553519206   12.3931815945
   8.0735381561   14.9066570976   17.9805524347
  10.5882119627    6.1985724790    1.6216934409
  13.0450891505    9.6985070495    3.0654009592
   8.9653915893   18.0337048380   13.0434078548
  16.3280751820    5.2988309874   11.2452684708
  15.5285395276    7.1642846745   12.6449879187
  16.8925378697    5.4906281813    1.8279585840
   1.5959910370   11.3663473691   15.1439192513
  12.2263027690    1.1573384977   14.3216145870
   5.8918912006   11.1328640340    5.2238398368
   7.7503466024   18.9804196661    7.1350388444
   9.5701608334   11.7948338783    0.9421659151
   0.0530301773   10.0235337764   18.4119613161
  -0.0170193011   19.4593322382   12.2374473936
   1.4279223591    2.5518899010   11.5061097828
  -1.1245540606   11.4998093437    0.2421302367
   9.0342938556   16.2782811358    4.9140440140
  -0.4630846272   13.1879631874   14.4738576867
   3.4841339835    9.8160410201    7.3898558471
