B2 C140 Ca1 F48 H298 O66 
1.0
1.7832184305151536e+01 -6.7920811122680206e-16 -4.8124451667809991e-18 
-3.0717091139217882e+00 1.9258437506404398e+01 -2.1569012966574518e-16 
-2.1938913923051459e-01 1.4733263326884094e+00 1.9400394516147610e+01 
B C Ca F H O 
2 140 1 48 298 66 
Cartesian
  10.3364231456    3.8741247312   16.7862684420
  -0.9724253650    6.3738018709   12.0482471575
   0.0753768378    1.5928519752    1.5276919955
   7.2005002862   13.7147857976    7.2675184923
   4.7128483899    6.5780093839    1.0087105163
  12.8001821561   12.6715349232   12.3812187302
   4.4655770733    3.0519850703   16.4386553733
   2.3634057785    1.9520711587   18.1428497224
   1.5640607156    2.6144802377    5.4883726249
   2.8239408860    1.4108994953   16.8553918076
  -0.3990135556    4.0488546960    5.8864253287
   3.1666533210    6.5418507427   18.9986086974
   2.2656301042   17.4591735122   18.1981680149
   0.9701773205    3.7914317606   17.3088763944
  12.0756665181   15.9799601319   15.0791021724
   5.1230578167    9.9863260529    0.8041067361
   6.0055213290   17.0341852314    9.4339667712
  12.3853281181   11.9786599541   15.9826647723
   9.6405196297   12.0264600328    6.7965186692
   9.4315766486   13.5650442494    6.5512209364
  12.9105231660   11.8650663215   14.6070208092
   3.9927265472    7.9244376847    1.0351365948
  11.9944198464    9.6979174804   16.7822821406
  11.8384163341   11.8375358632    6.2601419249
  -0.0516875943    5.1188500148    6.9736919728
   0.8294569298    7.3059926415    6.8715363759
   4.6914785652   19.1027409404    9.6793691661
   2.0479870381   16.4711781753    1.1353318192
  15.9099199052    1.6968376155    2.8296783081
   3.7548964520   19.8780143303   10.6248195946
   1.1783547975   15.1675947759    1.5101540802
  13.2139313560   16.9566998298   16.8050023958
   5.4020680839    2.5573100028   10.7807174418
   7.3591031290   13.9414565587    2.9943529760
  14.7582784154    0.8635705421    3.3300869139
   5.8707732805   13.6653566741    1.1317418465
   5.6795102226   14.9166630237   18.9647898296
  14.9465615616   15.3737898598   12.0850552630
   1.9703621130   12.8115702981    1.9095550559
  12.8838254037   15.8983270285   17.9027922289
   5.8813487971   13.4921859315   17.0789230164
   4.9077811601   17.8632170251    3.8722532451
   7.2623090596    0.4595286126    2.6255943098
   6.3811636813    1.6585969813    2.6722121853
   4.2886555709    2.4975301514    2.0944086475
  15.0609432269   17.0904757141   10.4061300184
   6.9969979713    1.3384526192    6.6523175292
  12.3170459337   15.2324961336    8.8280673558
  13.6434322164   17.7688897597   10.2918721687
   3.6536830086   16.1970325274   11.8514329091
  12.9563787214   18.4382559353    4.3670034453
   7.6723494555    2.6952507876   18.1314023281
   7.9255979295    5.2120145045   19.1117247178
   8.2084066278    4.1345148047   17.9953658906
   3.9153297726   15.6101733116   14.1117032820
  12.0592592077   18.8893120115   11.5855580067
  10.2204116330   15.0749419418    9.8870349120
   9.6443595169    3.4904536725   13.1402169971
  11.9975955000   15.8614143700    0.0247489532
  11.9481000913   13.4307462961    3.2874766248
   9.6300981852   14.7267320673   11.2582896395
   5.5053699755    3.0863673491    6.3159292586
   1.4821330533   12.9043378450   11.1838124446
   3.7590165472   16.8564420434   15.0002205160
   0.0843557528   18.5244140364    8.5779010964
  10.6958512867    3.7612525063   14.2976846930
  11.7752377186    4.8569283650   13.8960616329
   5.3867960972    4.5399739041    5.8394465471
   4.5230701053   19.0619485133   15.0656259013
   8.7291253275   12.5645176731   10.7254405775
  -1.5858961320   13.5658158835    8.7370117052
  15.1336035006   11.3817747645    8.8512003478
  -0.6216381895   17.0067492326    6.8579713610
  -1.5619406988   10.6868735750    8.1186012099
   6.0170372529    6.7878959605   15.4708342494
  13.2509748875   15.0869693845    4.5344166456
  -1.5686752277   17.8426888135    5.9541332334
   2.8677114610   13.7293000763    9.3095486085
  15.9800003249   10.2889570418    5.8720895060
   3.7999868787    6.2136782107    5.3496340646
  11.9841346046    2.7994198406   18.2447539493
   2.3124848173    5.7278518612   13.3362869516
   8.9916106841   20.5706159433   18.4886186641
  14.4016060049   14.0291538497    4.9917906436
   7.1236476838    7.6021444528   16.1103031380
   2.8044953554   14.4462836187    7.9549102684
   7.5381378730    7.3364096595    4.1140633777
  -0.6073847303   17.8196672502    3.7195174571
   7.1439147458    9.1250115516   16.0580063118
   9.7285758338    7.6332152943    9.5459477118
   0.4892975375    7.6790493929    3.0650122107
  13.2914722813    3.5312911758   18.6029081566
   2.2558533075    6.1084859514   10.7788214410
   1.4591229635    5.7955285401   12.0774362578
  10.7297739910    6.0195695344    3.0346437779
   9.3688499876    5.9769073496    3.6821094248
   8.9874538532   15.8087674624   16.7436091381
   8.7643574503    8.4034310242   10.4310724655
  12.2007816134    9.4130622568    3.7259925980
   8.4941509556   17.8618392741   11.8602870558
  -1.3533449899   13.1194505219    3.9934921141
  13.9767402839    7.1738791400    5.9917076447
   7.2693452312    8.7260704416    9.9752978763
  12.3900661403    9.9011901236    1.5178956845
  11.9637726692    6.3450865379    1.1296186762
   2.8223485049   14.4949194722    5.6396242951
  12.6563784889    8.8108117726    4.9978345561
  15.8938451125    7.2059983075    3.2010920292
   8.0267101175   18.7614132833   13.9431831254
   9.5000004744   13.8195781692   17.9579538345
  14.9275194425    8.1880019756   14.4813725328
  16.0827230127    8.2164969782   13.3883324633
  15.6062310666    6.1524328487    2.0941769206
  15.2126145039    3.4627342748   10.9399727268
   9.1185251219   12.8307165500   19.0940434548
  15.2803784010    4.9853040711   11.0980613612
   8.8401074237   19.5333137939   14.9814629175
  14.6022263825    5.7568276983    9.9079023336
  16.0786742133    9.6040859765   12.5935758998
  11.2759184775    1.1703999206    7.1287066776
   2.5380089416   10.3975078763   15.5759750051
  -1.6586929340   11.7231260434   19.1766565310
   1.2507662463   13.7058529285   14.9058958074
  15.3198647015   12.0597240912    0.8054946788
   4.6430262639   10.9596125938    7.2639039841
   4.7044006238   11.1141998044    4.0625858685
   9.3654329492   17.5900785546    6.0208822018
   8.0100100064   18.2919673860    6.1086999183
   1.7578330919   12.5474553917   15.6989145175
  -0.7580426181   20.0294028298   13.0915406321
   1.1764449197    1.4707729079   12.4489708597
   0.8975334930   18.4837361342   12.5433974059
   1.8831463442    2.3393762309   10.3494368773
   8.8088952817   11.1907473931    1.9683933613
   2.5573026448   10.1259763315    8.3050854660
   5.6119695771   10.3964487702    6.2760129010
  13.7938237611    1.5369153943   14.6875366999
  -0.5172692004    8.9560017026   18.5728217189
  16.5655956818    4.6944577456    0.5279058216
  -1.0796764964   13.3526041364   15.5199294205
  -0.1280899463   11.2505026857   19.1449486472
   9.7279754563   16.6666786835    3.8477326094
   8.6306142006    7.1121184580   13.4443859953
   7.7448116708    2.1328913533   16.8742119420
   8.6128336394    6.3197303921   18.8117867762
   9.2139859106    4.6537444897   12.4562625715
   8.5142800079    1.9718969807   18.8573984218
   8.6797567065    3.2143185608    0.8212379344
   6.4397694359    2.6564068314   18.6697357100
   6.6971053065    5.5113385787   19.2606652885
   8.4415288882    2.9874717157   13.6815693153
  12.2869147192    4.4616243431   12.7960352708
  10.1140044453    2.6057745333   12.2691843311
  12.6311120198    5.1053816777   14.9336238103
   4.6908112243    7.0836985789   15.7354790433
   6.1600936490    5.4893141047   15.6761587459
  11.1499092525    6.2195607917   13.7618381046
   6.1029916439    6.9572928423   14.0015648460
   3.0360231654    4.5466487653   13.3327958081
   7.9688703393   19.7570925959   17.8458508467
   2.9951764845    6.7351323691   13.6195442400
  10.9476441797    7.8503893635   10.0719823294
   1.5584418985    5.8737363333    9.6069341362
   7.0706118261    9.5076894380   14.7450903869
   8.3504229549    9.5253840952   16.3976605153
   1.4807479692    5.5027099763   14.3858367275
   9.6378292882    8.0653233230    8.2705222637
   9.1215162652   18.9626185964    0.3995061268
  14.3720823963    3.4967233077   17.7550215992
  10.2473836771   20.1288091009   18.0471159505
   3.4342927284    5.4446945290   10.6738430762
   9.5811257826    6.3080877876    9.5104299157
   6.4622341964    9.1450000803   10.9935040794
  13.9064806901    1.7115078129    0.4500547322
  12.9471825317    4.8174429551   18.5873427783
   6.1537880590    9.7098008493   16.7906520038
   2.5513994670    7.4007191737   10.5957282821
   6.4879951099    7.6430938680    9.4532290804
  15.2070782690    9.2816946710   15.3059297505
   7.2489571536    9.7092806439    9.0315093877
  14.0056763087    3.0583728670   11.2764699808
  13.6441515056    8.2898432537   14.0442679761
  14.6885810190    5.2047694493    8.6274603452
  15.6491358094    2.9753425501    9.7113645222
  15.1097136394    7.0404023199    9.8402532940
  15.1489398990    7.0236575404   15.2272524584
  -1.0239552759    9.4693551087   11.4175492133
  16.0992188114    2.8253397783   11.8616278612
  -1.4177628665   10.5034027372   13.5065310041
  13.2735290217    5.8276964736   10.1858202603
  14.8215478186   10.0605364919   12.1538484286
   1.5606246095    1.4727002581   18.8034347905
  11.7227629967   12.9105022442   15.9555552665
   2.0507388704    1.9211019761    4.7836447104
   5.1299092634    6.5396943365    2.0031024207
   5.4399082562   16.6890701901    8.6015486526
   9.9866442717   11.9649156100    7.8669728965
   5.3687908752    6.4954946781    0.2002619862
   5.3171586110    3.1182963944   15.8420853784
  16.7101533595    4.4554462802    5.1441207354
  -0.0213579089    2.7119060231    1.8464316240
   1.2482400334   18.0102485237   18.0076098779
   0.2899750551    1.4591192422    0.4015230187
   6.6226311401   14.1038316950    8.0633998255
   0.2837296255    4.4910875064   17.9794563018
   0.8173989910    1.1107938775    2.1338790237
  12.4080188688   11.7538945183   11.9354126425
  -0.4363005853   19.5781432270   16.8665060612
   6.9487768500   14.1404733903    6.2580446129
  12.9120572529   15.8906030503   14.3437207837
   6.0262090807   10.4978582205    1.2046120411
  13.9160936773   12.6636312358   12.2893999829
   2.4091330865    5.6828794610   19.1250500052
   2.4906457001    7.3466349582   18.6348505460
  11.7031721525    9.4526812395   17.8411148869
  12.1584572444   11.3682793168    7.2220455544
   0.9347019169    1.9222421604    6.0724469051
  17.0115692122    3.1275164816    6.3693460682
  10.3663280700   14.0481607423    6.3978086301
   4.7627387801    3.4863205127   17.3876328919
   5.2581266562   19.8288241603    9.0612852348
  12.0170501786   15.0345320298   15.5354084026
  12.6516418772   10.8072529434   13.9847937143
   2.0389100117   16.3521012641   18.1059989759
   2.9614544806   17.8099298799   17.3870740095
  11.1348607882   16.0210709426   14.4790404116
   6.8895612233   17.5018859845    8.9197310703
   0.3983441047    2.9738428992   16.8527382255
   2.6599116491   16.6756988714    2.0793554758
   1.3130693988    7.9716393755    6.0918482065
  13.1130440325   12.0955099633   16.8600268283
   2.3642684560    2.9820919312    6.1567710768
   6.3380927101   16.1555782108    9.9903978839
   8.7136307744   11.5217027150    6.7432316867
   4.3306468809   10.7096472493    0.7910737576
   6.9731017326   12.5632094303    7.2260003088
   5.0701603374   11.2700763484   19.1515377035
   3.9732812993    6.2949029766   18.2215622576
  12.3466418029   13.5836130440   11.9293059406
   3.2229407299    2.2549822517   18.6800211465
   3.7014587628    3.5934822956   15.8347651993
   1.3054436019    4.5204429509   16.4234472921
   2.2559965122    1.6375500391   15.9420155888
  16.5757986390    1.7562334116    3.7639305311
  15.7085320537    2.7225640460    2.5609707795
  13.1703907266    9.6554810973   16.8547074037
   3.0652345443    7.8451292472    1.5435160124
   3.6719310553    9.6781566812   19.3323333660
   1.5011100889    7.0477242700    7.6390680496
   0.7491915343    4.7794212839    7.7405241378
   1.3696225110   17.3918430433    0.9663140764
  12.6270755039   11.5736344056    5.5399233891
   7.4158586572    1.1843985223   11.3698396006
  11.8837612544   12.9123109516    6.2916333855
  11.7667454379    8.9289539274   15.9380034895
   8.8997357229   13.7643996700    5.6045709414
  14.0700007102   11.8996903775   14.6293580788
   4.0804295899   18.6151772184    8.9154259430
   6.9747210821   14.9068613941    3.3788867332
  16.8943606216    5.3411896252    7.6743543748
  -0.0986910813    7.7777670607    7.2695965191
   5.2853453695   14.5431663311    1.1093372575
   6.3983061733    3.1583386166   10.7044765527
   0.5633620297   14.6630210940    0.6911026647
  13.3740486539   17.9341729321   17.1308595402
  14.0911660289   16.5856394768   16.2502221770
   4.6026002434   15.2494315557   18.7087085203
  13.9590744884   15.3289084600   12.4252177364
   8.5060010662   14.0820451727    2.9760655251
   4.6585329508    2.9075641984    9.9928504108
   3.3009943904   19.1354011124   11.1988972841
   5.8756882568   12.4429370156   16.8329166350
  15.3116986477   14.3892828788   12.0738063928
  11.5528944669   19.3300739550    2.5338403647
  13.8423337752    1.4687497601    3.4429061274
   4.6661637078   17.0523961065    4.6243917577
   6.1813073558    1.1414357788    7.4574713794
   3.8018060141   19.1042560991    1.9140245418
   0.4534048014   15.5265201200    2.2945440449
   6.3682897673    2.3388752238    3.5362317878
   3.1948488586    2.3944906545    1.8770399212
  -2.1293379541   17.5170175384   11.1909597541
   0.9619746622   12.2826246669    2.1192023171
   1.8240430797   12.5229669140    0.8520349321
   7.0275011689   13.1230327143    3.6598984612
  12.9347080372   14.8049355026   17.5491901222
   4.8974533512    2.3368692576   11.7285812342
  13.7847913550   15.9731940850   18.5721161718
   6.8328459654   13.8721253803   16.7057873034
  11.9986986288   14.2648010771    8.4081095718
  12.8849994123   17.0276588308   10.3351237258
   5.2869177097   12.8467227869    1.5985156753
   2.9623000909   16.0009241487   11.0944251796
   5.9418278556   18.3538905547    4.1797208236
   4.5567121192   15.5702221803   11.6865030571
  13.3866355188   15.2104358672    9.1598714391
   4.7005379624    2.9078328722    1.1214492277
  -2.2709862353   16.0422146646   12.7973091359
   6.3877134084   15.6358575123   18.5268221694
   2.6863148673   12.3249726252    2.5169955600
   8.0372185254    1.1794182812    7.0508479968
   6.8378063088    0.5647413783    5.9340503373
   5.0062183888   13.8900308503   16.6099645127
   7.7391909280    4.5268345599   17.0952974076
  11.8251607345   19.9329071286   11.4706399530
   3.7245077404   14.7172944268   14.6832379686
   4.9750248381   15.5771224424   13.8869246372
  10.0941274164   14.1954749196    9.3188871633
   3.9041404448   17.2570253026   11.9632721884
   4.8821409029   17.3795324707    2.9097241706
   8.2958373788    0.8033907952    2.4849876937
  -2.2250383384   17.3203328203    9.4344489739
  13.8259339514   18.9442082192    4.0051953318
   6.7057697251    2.4346853057    1.8596420090
  12.6670381455   17.7876305943    3.5263194400
  13.0789094249   17.9082333654    5.2836986347
   4.4037677650    3.2019566390    2.8980656778
  12.0281041126   16.0148174139    8.2201879768
  13.5865541111   18.3370044302    9.3158888992
  10.4103764340   14.9387851735   11.8480013969
   0.2359122397   18.7683711545    9.6227236373
   1.9967328136   11.9416435187   11.0374305835
  12.2950083269   13.7543396872    2.3012312639
  10.8321732778   13.3252493967    3.0562037591
  11.4862503008   18.4052369993   10.7016775571
  12.3822478196   18.1599970657   18.9797831712
  10.9854604584   16.1446880148    0.3861679131
   2.0524357365   13.2802104207   12.0359222601
  11.8251569050   18.4519169668   12.5379329800
   0.4175133442   12.5995387088   11.3489325710
  12.4340101577   12.4604714901    3.5747077771
   4.8551970153    2.4805159159    5.7698710917
   9.6943992693   15.9243423587    9.2215742614
  15.4870187936   13.6917636030    7.9654529313
   9.2089768685   11.6935324275   10.2397669832
   5.2243415933    3.1265624820    7.3490688967
  12.7121915242   15.4424857642    0.7689716493
   5.8691316099    4.7498260868    4.8551965375
   5.9778078074    5.0856336530    6.6958762139
  14.3545072903   11.7103078121    8.0652928361
   5.1694540776   19.7841080600   14.4633444925
  -0.1732873013   19.5473832884    8.0734462117
   1.1056967702   18.2553842409    8.2096673900
   8.6802427752   15.2930803569   11.5301434972
   3.9289656368   16.6396874657   16.0539116680
   2.6831724160   17.1919778983   14.8428613972
  -0.6095588671   13.2685884967    8.3268025131
  -0.7988041416   11.3488483346    7.7625460164
  11.2070423984    2.8029224025   14.5180201253
  13.6467551101   15.4825179151    3.6305957572
   4.7574720639   18.9755846559   16.1394095259
   8.3689235130   13.2404544862    9.9577742598
  15.4233643894   11.2307957107    5.6201677102
   3.4619930932   19.4995662302   14.8850254172
  -1.1404017410   18.8506275648    5.8362046976
  -2.5953739494   17.7814510685    6.3843764455
   7.8994406525   12.1729267785   11.3462588753
   3.1453130983   12.6855983904    9.2524303767
  -1.3959611744   14.4724199654    9.2680534172
  13.0688721595   15.9996278925    5.2164782682
   3.7623174540   14.1787643418    9.8550528810
   0.4481095378   16.9795120424    6.4228084456
  11.3388927068    3.1851451179   19.0220224504
  14.6267234987   10.7234316268    9.6350252786
  -0.8082686433   15.9667782549    6.8013377040
  15.7356795748    9.5223583325    5.0831163982
   4.5791294946    6.5627876126    4.5873775271
   7.1891046820    8.4400660234    4.1755492317
   3.9000667916    7.0042027650    6.1111585905
  -1.0359605386   10.0040271368    8.8115707181
  13.9620106565   13.3376553768    5.7158393370
   0.5968374216    6.9707225352    3.9966635095
  -0.8524281684   10.6039795618    5.7637372313
  -0.6143888369   17.2726616709    2.7317190377
   0.3501781138   17.7462315169    4.2396311910
   1.8179410459   14.9832346427    8.0491149650
   0.8839829036    7.0623608408    2.2278514421
  15.1959440763   14.6811728737    5.4841308510
   3.7975810649   15.0293796537    7.8943276461
  11.4777215416    6.5211606749    3.6464519511
   6.9273895475    7.3296972745   17.2294142349
   2.8806709969    6.1631572845    4.6977408788
   1.1416324842    8.5940754777    3.2240983467
   6.6453318668    6.7984190765    3.6741525149
   8.3575601900   16.7166233002   16.7360917691
  11.1769821799    5.0188365890    3.1000739442
   7.5450737372    6.9745092683    5.1173089429
   1.1720644998    4.6851906510   12.0235966440
   8.2309108512   18.8230231789   11.4201662623
  11.6750636577   10.4341290174    3.7902180227
   8.7282043049   15.4771640459   15.7191887980
  13.3664514158    6.8465712517    6.9427011201
  11.5951961378    8.6445673461    3.4105593760
   9.3404099000   17.3621340224   11.3285161237
  -0.8459796972   18.9515688048    3.6532448764
  11.4445346391   10.4037408741    1.8291346425
  12.7365057969    6.7718148676    1.8354207840
   8.7267002641    5.1485399868    3.2807653684
  -1.2123037247   12.7322446465    5.0289403994
  11.9727459205    8.9515239717    1.0503972829
  12.3093252649    5.2846170412    0.9487230313
  10.0696247450   16.0618691353   16.9427002839
   9.3059711288    6.1088286847    4.7833330368
   7.5255977935   17.2351047680   11.8237957276
   1.7944722279   14.7731594227    5.2361522329
  -0.8467420511   14.0744602597    3.9321205394
   9.1920990060    9.4197744655   10.4875232693
  14.6916475243    7.9991190829    6.2756142353
  -0.9876767607   12.5619703450    3.1574541910
  14.9987293639    7.8094754208    3.0253682056
   3.4120776468   15.3924748687    5.7280901708
  14.6652430742    6.3105462152    5.8107213713
   7.5692717918   19.5291277228   13.3555493448
  15.9977942371    6.7381813810    4.2289236256
  11.8660040605    8.6677493489    5.7884457346
  13.0599801538   10.3121192317    0.7833177854
   3.4140656054   14.1061339294    4.8262480462
  13.3973637564    9.4277127424    5.6686761814
  11.8960033504    6.7541163907    0.0875947402
   9.6004348795   13.3478896799   16.9833324583
  -0.8594262049    8.2563254165   14.0397203892
   9.5584607118   11.8423482748   18.7764212398
   7.3259720984   18.0799777228   14.4810189204
  10.5133999302   14.2056022911   18.3375944907
  14.7708680858    5.4772499307    2.4688123910
   9.5735070308   18.8592897241   15.4351107854
  15.2861749961    6.7925509464    1.2923552261
   8.0537845481   12.9039827398   18.9559150908
   1.9835951644   10.0996093457   16.5393579641
   1.3586104371   14.6074697610   15.5356492413
  10.1094472860   18.3518285706    5.8686645846
  10.5091122704    1.7436693575    6.5626414000
   5.0704889939   11.0957870327    8.2401374974
   3.6923996334   10.8756707027    4.5172309580
  11.6000891989    1.5406701885    8.1293814752
  15.7848372432    9.7208733903    0.5156651858
  15.7771239584   11.5755526967   18.1786360829
  14.4810203610    5.3195737412   11.9293970557
  15.5380134419   13.0732085706    0.9666259420
  14.5111787202   13.5356767878   19.3408216987
  -2.3481837593   20.0498890279   11.7254210073
   2.9986639373    1.5224583549   13.6370398617
   0.3683608264   17.7250498275   13.1392874665
   1.2834557231    1.6104940481    9.8585256696
   8.2018102901   19.7791245709   15.7340115390
   4.1888405507   11.9189727566    6.9630770943
  -1.9975208684   13.8013604369   15.2627056489
   9.5585779424   17.7306906767    3.4925530241
   2.9350825694   10.3579763517    9.3451501763
   2.6149033357    9.5576278126   14.8034809375
   7.8339000181   18.9582265516    5.1768201765
   0.0423108413    6.8960883587    0.0939593017
   1.8888694334   13.6921989655   14.0590894145
   9.0227456223   11.7104789401    2.8785814718
   1.9067462035   10.9379490280    7.9737150174
  11.1948866824   19.8491909880   14.5265404280
   4.6979845957   12.1122154655    3.4204591177
   2.6895065547   12.8135543832   16.1980852277
   1.6743395622   19.0019113102   13.1053689674
   2.8106876382    1.8256079225   10.5889607668
   9.5175130238   17.1326053394    7.0605078724
  -1.3370602326   12.2491871915   15.5975360915
  16.0633602589    3.8312870579    0.7635339479
   3.5829337743   10.6744823919   15.9752861083
  14.8886394757   11.4423923742    1.5893774148
  12.2268057691    1.2486713186    6.4565589713
   4.7631308006   10.2170629699    3.4085501243
   8.8301591333   10.0382869959    1.9636237046
  15.9636913063    6.7083721695   19.1311089651
   6.6576780045   10.3690437471    6.7778915327
  14.2783166919    2.1889452092   13.9892885323
  -0.3627213277    8.2780050020   17.7526755274
  10.8377446013   16.5691267527    3.7482904199
  16.1384504564    9.0644758994   18.6827589240
  -1.0139781710   19.2559511491   13.7764508042
   0.4242559173    1.6587497345   13.2147032065
   1.3877385014   18.1373827465   11.5392637982
   2.1543076783    3.1574099024    9.7624199034
   0.4803787903    9.6905408372    0.7227372658
  -0.2891951944    4.1710047876    0.2808439089
   0.3529166326   12.0216142840   18.5015251594
   1.2907102851   12.5031471319   16.7805668702
  14.0667879315    1.8086456800   15.7282029608
   9.1530807573   16.1052330802    3.1290542273
   2.1078574347    9.1375365251    8.4907475937
   7.2030070636   17.4784163528    6.1583988493
   5.4595733235    9.2928823312    6.1187253249
   7.7254104798   11.4164565529    1.6424394291
  -0.7815922486   13.8106881837   16.5087259457
   4.8978963034    8.8544263287    1.6165599630
   8.6657546767   14.0831730043    7.5799521920
  12.4529910357   12.9114087366   13.7721626752
   4.1299623638    1.6045027198   16.4940575209
   1.9931954553    3.3761713077   18.1285603419
   0.3306293866    6.1979469055    6.1321034630
   3.9300849972    5.3917601021    0.9499753422
   0.7450606507    3.7132040737    5.0496450011
  10.5471699841   11.4884707420    5.9468847287
   5.5426792152   18.1845882406   10.3322454218
  16.6008024325    1.0329155989    1.7661193821
  11.4394199567   10.9790834696   16.4454255899
   3.0603343936   16.3217332200    0.0926123333
  12.1376711298   17.1141746052   15.8582949529
   5.7691888401    1.3465928060   10.0379228002
   2.1197294123   14.2651160775    2.0964849478
   7.2044612820   13.7949043465    1.6665897916
  11.9144491734   19.4670918262    4.5392571731
   5.9383905002   13.6032291677   18.5139492577
  15.0828822976   15.7302949406   10.7023398825
   3.9633977210   19.0058606823    3.8483135236
   4.9428422115    1.2571237847    2.4043482383
  11.6978940238   16.1538042948   18.6103320749
   6.8275810277    2.6119195626    6.2237824720
  13.4074764609   18.7281659550   11.3162011143
  11.6650872494   15.1930668073   10.0731758808
   2.9647597794   15.6125463115   13.1290518960
   4.6589206471   17.8203707965   14.4435145475
   9.9647182810    4.3089470859   15.5313898725
   9.5895025611    4.0958830426   17.9466905258
  -0.8252544964   17.4685777255    8.2392794146
   9.5224850644   13.2948584427   11.5579474823
  11.9716242652   14.5302864194    4.2660762665
   1.6310844596   13.9036698389   10.0700637902
  15.7065459425   12.4693678225    9.5003426391
  15.8064910005    9.7813658199    7.1393470253
  11.4898855354    3.0531163449   16.9478652656
   4.0551391216    4.9231970523    5.8728519949
  -1.5800337696   17.2176390863    4.6230478112
   8.8165270568    7.2956834030    3.4679252147
   8.3215089847    7.0405373463   15.6457009692
  15.0304097827   13.2860710342    3.8749394419
   2.8824623415   13.6587406670    6.8081971135
   8.7724651268    7.8277962707   11.6637184716
  13.1967893351    7.5152040317    4.8542602475
  -0.8345247773    8.1429154067    2.8828871926
   0.3716689343    6.7667103021   12.1776508585
   8.5307522160   14.9834218577   17.8140965671
  10.6873040571    6.3814998756    1.6842064011
  13.2246229993    9.6717265681    2.7099588904
   8.9945706183   17.9682957037   13.2083947560
  16.6027592752    5.2509379200   11.2914151706
  15.8864003141    7.1285834495   12.5101287243
  16.7115798907    5.4379119102    1.7014713098
   1.8714362455   11.4128962709   14.8333945242
  12.4418805138    1.4489284875   14.4407212044
   5.6994029223   11.2347430925    5.0931014553
   7.8140931354   19.0644815652    7.2746576110
   9.7145142237   11.7430927958    0.9656179640
   0.2410871569   10.0880314981   18.2886408706
   0.0213716308   19.4974256694   12.0897101825
   1.3580710439    2.6932781353   11.6354830511
  -1.3239761679   11.5279543247    0.3026504103
   9.3191985396   16.4348601239    5.1976885327
  -0.1049698888   13.4457958135   14.5104706269
   3.6329359426    9.9601823921    7.3893401220
