B2 C140 Ca1 F48 H298 O66 
1.0
1.7782974395031971e+01 -9.4021516458707609e-16 -2.7551005495226682e-16 
-2.8406984893298262e+00 1.9246204868352489e+01 4.8911777523040498e-17 
-7.6002718492293853e-01 1.2460956987951741e+00 1.9536876978674197e+01 
B C Ca F H O 
2 140 1 48 298 66 
Cartesian
   9.9329786823    3.4694009870   16.8954757567
  -1.2583073440    6.3113187888   12.1122885190
  -0.1555162092    1.4504597507    1.5282684083
   7.0001603426   13.7036676892    6.9382624638
   4.8291089439    6.4303691847    1.1808322550
  12.5426247459   12.4620428050   12.4688402238
   4.2290222000    2.6633349584   16.1565017734
   1.9412594186    1.9343423099   18.3074149689
   1.3134810320    2.8596706248    5.5072326862
   2.3582040740    1.3650922185   16.9841392617
  -0.5753829287    4.0288810065    5.8047056730
   2.9621057806    6.3005828239   19.2019614004
   1.7901361701   17.0255606462   18.5117612807
   0.5589372857    3.8711690862   17.6986263371
  11.7329080897   15.7903887713   15.1788417545
   4.7219046265    9.9716497008    0.6457350048
   6.2597867093   17.2825116136    9.3388714657
  12.3259756224   12.0900575882   16.1571055606
   9.5602394672   12.0203455636    6.6575149310
   9.3851681810   13.4855912731    6.4432816511
  12.8047754963   11.8184486095   14.7413010162
   3.8809884741    7.7353814942    1.1533397851
  11.1520521196    9.9804066255   16.8666293643
  11.9988758177   11.5252758538    6.1380846496
   0.0618982928    5.1760515763    6.7441239848
   0.8916345481    7.2832386900    7.0580387229
   4.4886818282   18.7945177947    9.6394380598
   2.1858947364   16.4089748020    1.1762746553
  15.8642430361    1.7738764296    3.2005066748
   3.4931791257   19.2695325694   10.8216910140
   1.4699614388   15.1201003949    1.6685669962
  12.9500612872   16.7718900933   17.0828436544
   5.3650303993    2.2355671690   10.9324919695
   7.4494524302   13.7804879852    3.0256726785
  14.6000946463    1.1275583317    3.6727463402
   6.1196752866   13.6477566333    1.0465071871
   5.3763517412   14.8435609263   19.0231011829
  15.0101705515   15.2261033977   12.1579156724
   2.1827561168   12.8852802971    1.8474208005
  12.5278269239   15.7470647994   18.2247805065
   5.3854977473   13.4899162693   17.1817063917
   5.1237258280   17.8012329242    3.9011439727
   7.2051530844    0.4247188741    2.6598953557
   6.2011647225    1.6167467814    2.6394715000
   3.8826494376    2.1904908181    2.4021746956
  -2.6849939172   17.1212705548   10.6325579725
   6.7150424449    1.2861895568    6.5963785278
  12.0609537552   14.9798351414    8.9411776220
  13.6300885092   17.4329720440   10.5200080326
   3.6077535748   15.6918563252   11.9478116349
  12.9713170211   18.3505742039    4.4193335274
   7.0217105630    2.5009387189   18.3153102274
   7.5092382289    4.9066210883   19.2396701676
   7.7820406918    3.8674586948   18.0618754281
   3.5472938332   15.5755482868   14.3093568740
  11.9508893741   18.5921528904   11.7953503067
  10.0247719325   14.9166085630   10.1215778026
   9.1970252914    3.2547161083   13.2627242091
  12.1471408604   15.6851360938    0.4291349266
  12.0764491136   13.4857718449    3.2378075241
   9.3915213734   14.3803794609   11.4714494519
   5.3875181230    3.1884343409    6.4344371355
   1.5460329884   13.0315807468   10.8837974940
   3.5193817534   16.9249032957   15.1247852140
   0.2661142944   18.4050537271    8.4949986023
  10.1782378385    3.4347501791   14.4136269586
  11.2303934501    4.5456694838   14.1166696480
   5.4524274121    4.6956137842    6.2017552354
   4.4486009255   19.1211716884   15.2241370368
   8.5097570798   12.3403174924   10.6664922113
  -1.3251451671   13.4897368613    8.6926926968
  15.1209724294   11.5912748806    8.5954449413
  -0.6970024310   16.7978575901    6.9241847649
  -1.6591748996   10.5250062027    8.1142568982
   5.5616831577    6.7149742002   15.5073346498
  13.4760632607   14.9537719686    4.4605610616
  -1.3625890648   17.7845954895    5.9750953823
   2.8471759088   13.6632496048    9.0276487103
  15.7564156158   10.1906600092    5.7661889017
   3.7245731272    6.2321593044    5.4409090956
  11.4222259151    2.6311530138   18.4461154419
   2.0649690518    5.5091084064   13.3768905772
   8.8213634882   20.3130914353   18.6613452748
  14.5817306891   13.8929643516    4.9422852725
   6.7764872600    7.3105231506   16.2520017881
   2.7138544687   14.6511531696    7.8667352359
   7.4147171967    7.4179424542    3.9847468553
  -0.3949980359   17.9400475020    3.7167585548
   6.8556390708    8.8826677505   16.0517003282
   9.4997093952    7.7473751279    9.4621511407
   0.3827349379    7.7711745605    3.4264890372
  12.6752917276    3.4635473063   18.7585412371
   2.0296842688    5.8850884788   10.8787852004
   1.1416696602    5.6396314513   12.1219024294
  10.7499451265    5.8473242170    3.0604936522
   9.3746161356    5.9057910372    3.8090105065
   8.5684140086   15.8402388991   17.1507676680
   8.6083750709    8.4529734738   10.5935577572
  11.9408866396    9.1070282003    3.9805102180
   8.4484420747   17.4732295855   11.6844664813
  -1.2341619077   13.0911585511    4.0460099994
  14.2030625132    6.9581082117    6.1391191638
   7.2131405855    8.6313157323   10.0364192154
  12.8914615079    9.5860989028    1.7318866643
  11.9139044121    6.2048494443    0.9738190586
   2.8531640837   14.2622197856    5.4643911311
  12.4791532235    8.5853371710    5.3629556258
  15.8608480641    7.0577372579    3.4198975289
   8.0747063227   18.3276243480   13.9297142300
   8.9744200536   13.6796553349   18.1100269546
  14.6701746298    8.2145555156   14.7519507391
  15.8189807962    8.2294922272   13.6102947707
  15.7668703974    6.1254296932    2.2839036201
  14.9359074076    3.2655990127   10.9499992742
   8.5116793022   12.5673923083   19.1585843170
  14.9404124792    4.7803936773   11.2015454123
   8.7224329439   19.2723320477   14.9576513083
  14.1629663400    5.5118150388   10.0949781673
  15.7385821875    9.5653579016   12.7227120616
  11.1128037671    1.0605931528    7.1406070033
   2.3919057345   10.1935545145   15.8519505606
  -1.7887322009   11.3500226854   19.3431123992
   0.7638141262   13.5045955839   15.0713538878
  15.5690197408   12.0677246915    0.6349189601
   4.6057793902   10.7472051081    7.3219552350
   4.8677501447   10.9496348630    4.2962639636
   9.0729660115   17.1475102295    6.0119870357
   7.8997959477   18.1177461575    5.9153851864
   1.3766282128   12.4115030706   16.0409375932
  -0.7999805391   20.0397699690   13.2408344158
   1.0065027220    1.5028471131   12.4796208592
   0.6989316014   18.1909107564   12.6681775447
   1.2437022518    2.0310837975   10.1117740609
   9.1469304133   11.0146493684    1.9489822034
   2.4380907104   10.1959211783    8.3434346981
   5.7128107964   10.2608088100    6.4159305191
  13.5683446336    1.2944544871   14.7078029169
  -0.7051782766    8.7352970469   18.4941467241
  16.6148768959    4.7542221090    0.7325146825
  -1.4642115579   13.0982517651   15.5606046693
  -0.3633276543   10.8606132674   19.5174427532
   9.6348053513   16.8150406428    3.7432344955
   8.2509720636    6.7029594102   13.6063943741
   6.8428661783    1.8431514000   17.1544241008
   8.1981612084    6.0590026046   18.9658687558
   9.0017138112    4.5081278805   12.6247115826
   7.8522531098    1.7189993645   19.0956839386
   8.6824091304    3.1730085656    0.9333623936
   5.8778081735    2.6205569775   18.9481139769
   6.2453429134    5.1587868446   19.3604854147
   8.0307268851    2.9948315897   13.8782592060
  11.9634859558    4.2742756379   12.9885359371
   9.7150331212    2.3898078016   12.4327653216
  12.1823480885    4.5421339212   15.1295295759
   4.3653589426    7.0964152779   15.9797759765
   5.5729482914    5.3280533999   15.6526298211
  10.6188392210    5.7573023915   14.0096723465
   5.6352383246    6.9066467155   14.1732593761
   2.8713371921    4.3529330325   13.3923838561
   7.8840056849   19.6683487305   17.9624274930
   2.7476665594    6.6482428754   13.6185126469
  10.7803564133    7.8009907403   10.0205242423
   1.2831202729    5.6227424889    9.7984870474
   6.8048224322    9.1637701076   14.7012966500
   7.9550227879    9.3750570035   16.4973703098
   1.1572179118    5.1883119031   14.3457518841
   9.4498695666    8.1049317878    8.0920377461
   9.6682696084   18.6716247735    0.4233392921
  13.5274198051    3.3294441777   17.7134739488
  10.0692995932   19.8951267536   18.2092658358
   3.0388736317    5.0111024080   10.8418525420
   9.1676515626    6.4127436739    9.4581667153
   6.3879712175    9.1491459482   10.8889304492
  14.2133186210    1.9662309806    0.2896664258
  12.3772788724    4.8910801089   18.7475521017
   5.7959668106    9.7698376671   16.5991447694
   2.5786811370    7.0845311853   10.6118011294
   6.6195267339    7.4685451391    9.5797186985
  15.0506227283    9.0152331051   15.8166922378
   7.2198566062    9.5119168264    8.9181517989
  13.7821914384    2.5583956105   11.0369147796
  13.4820159500    8.5281562198   14.2582287112
  14.5906399513    5.0460004883    8.9306113437
  15.4722939923    2.8979759843    9.7841403029
  14.5623730396    6.9186328366   10.0000390354
  14.5850346625    6.8858345241   15.1625715671
  -1.5073252326    9.3963072266   11.5041991041
  15.7500408795    2.7599042749   11.9778838803
  -1.3899280848   10.5191737370   13.3527714878
  12.8274182587    5.3712136174   10.2302155399
  14.4624755073    9.9722462831   12.4711977830
   0.9424192866    1.5896368236   18.4389562719
  12.1720720169   13.0140446176   16.6255571918
   1.9767773278    2.2650001190    4.7533231483
   5.3036427284    6.3020459690    2.1901382601
   5.4963366428   17.2248852285    8.5191513284
   9.8476969083   11.8150796713    7.7005210377
   5.6164294467    6.6677725222    0.3735221008
   5.0912942074    2.4063960731   15.4316508306
  16.3303137360    4.5009903485    5.3825549911
   0.0452100192    2.4789311627    1.7518714380
   1.0367931204   17.7757694119   18.3044933869
   0.0250893782    1.3835916475    0.4032814752
   6.4651588649   14.4964838189    7.5705681820
  -0.3008551543    3.7558933902   18.3471458488
   0.7202954550    0.7388630334    1.8353287942
  12.2467457074   11.4407180853   12.2812413273
  -0.5339181922   19.5611541602   17.0336388035
   6.7196254068   13.8046932311    5.8705263336
  12.4379112867   14.9924309807   14.9392796075
   5.5631650244   10.6607854137    0.7742660126
  13.5378447356   12.5603746590   12.2309533979
   2.6069750725    5.2081111973   19.2090100998
   2.0656483015    6.8332101610   18.8759406383
  10.7852095217    9.7908380945   17.8582312286
  12.1697885750   10.6607025332    6.7776231282
   0.9006923608    2.2162675403    6.2527140229
  16.9418181252    3.2133269366    6.4568544836
  10.3951898428   14.0370920081    6.7287699973
   4.5905954616    3.3301995700   16.9786178593
   4.8818453713   19.6731245279    9.1233027609
  10.7444872343   15.2927704887   15.6678967726
  12.2613593876   10.8936640548   14.5975807071
   1.3938612920   16.0588412686   18.4276520871
   2.5272926190   16.9268052254   17.7424819494
  11.3983533711   16.1587182769   14.2535641596
   7.3136121948   17.4564281458    9.1203745492
   0.3408093600    3.2764409901   16.7775318024
   2.7946299910   16.5761019630    2.1118901233
   0.5391918661    8.2708263759    6.7108060481
  13.0731477263   11.5520405019   16.7313876946
   1.9331217806    3.6267006197    5.9972964828
   6.2898281203   16.3097376914    9.8458486098
   8.5656878267   11.5225627343    6.4077593366
   3.8238223056   10.6780982909    0.8045227393
   6.8288880968   12.6507712333    7.2153170012
   4.0543741322   10.9215941178   19.0964547585
   3.7659583011    6.6439149148   18.5078696957
  11.8358694271   13.0461512342   11.8265253352
   2.4817076752    1.5537102450   19.2510535373
   3.4204263397    3.2228735279   15.6980798884
   0.7144885085    4.9819509859   17.4646899749
   1.7205817294    1.6654874893   16.1122637714
  16.6922770388    1.9166086040    3.9061621787
  15.6371815343    2.8906840463    2.9426173770
  12.1866909334    9.6213396317   16.8331123324
   3.0840189410    7.7030272550    1.9628396610
   3.4931494025    7.8583376038    0.1386935516
   2.0495748605    7.4217118523    7.0956469468
   0.8107534309    4.8206026508    7.3945107635
   1.6222195196   17.2328342119    0.9081410860
  12.5080834977   11.2941355974    5.2227766942
   4.1332505440   19.7270375553   11.6517193737
  12.3763185791   12.4435319904    6.7378287565
  10.4614253794    9.3272720121   16.3608538122
   9.4317979323   13.6415277115    5.2807214655
  13.9241215054   11.7900449655   14.6359287611
   3.8888782816   18.2614674740    8.8278180345
   7.2378615330   14.7304182187    3.4858332393
  -0.7414189089    5.5993292738    7.3202788894
   0.5407929646    7.2340189893    8.0617381396
   5.5952630184   14.4966687263    1.3366047138
   6.2722831687    2.6000955740   11.1567155055
   0.8966346366   14.6437266118    0.8859598607
  12.9802781763   17.8530179002   17.4955683419
  13.9893335704   16.4923656675   16.7900164580
   4.3900291605   15.3438128739   18.9062547267
  13.9006440606   15.5965447095   12.3304403674
   8.2994904454   13.4490969833    3.5897346548
   4.7171773251    2.8621610605   10.3149687725
   2.8715980367   18.4310356513   11.2716098800
   5.5062632402   12.4324255977   16.8560675195
  15.0924456554   14.0857401357   12.2210751841
  14.1630742003    0.9489782599    2.7439698512
  13.8553918305    1.7118466930    4.2262110794
   4.6479819253   16.9110885677    4.3632493322
   6.0699931396    0.9465755663    7.3447552321
   4.4060858848   19.1895535329    1.5474091035
   0.6388140034   15.2799570689    2.3290012286
   6.2322802359    2.1948783920    3.7026014054
   2.9302659656    1.5990019952    2.3207428873
  -2.3415814868   17.8265118037   11.4089715879
   1.2265010659   12.5640167349    2.2786159137
   2.2600065496   12.7719697054    0.7142856052
   6.6693187172   13.0032180705    3.3953533406
  12.4850445615   14.7814369751   17.7169878333
   4.8780317639    2.0237460681   11.9061078698
  13.4387101591   15.8216476210   18.8683721901
   6.2676448234   14.0260305139   16.6909854362
  11.8284072792   14.1257294326    8.3299324151
  12.8864320830   16.5853781635   10.5640015933
   5.6156232698   12.6717279922    1.3936575105
   2.8197857611   15.5758376418   11.1448008025
   5.8291676979   18.2326385875    4.5911492113
   4.3657195272   14.8975224976   11.6468028612
  13.0775265729   15.2579756307    8.9742555692
   3.7627313216    2.9490571485    1.5855248118
  -2.0360280449   15.5083756249   12.9145031131
   6.2686732368   15.4313092608   18.6874818210
   3.0033837176   12.3104564107    2.1900398306
   7.7143560743    1.2287910507    6.9518245983
   6.6645821368    0.6234400817    5.6721261901
   4.4233326865   13.8672925275   16.7570972387
   7.2862079836    4.3626020516   17.2035613755
  11.6681459677   19.6157437598   11.7307771306
   3.1419947668   14.8585560726   15.0669931403
   4.7037831023   15.4724924240   14.2069419906
   9.7366368199   14.2881361147    9.2064001394
   4.0867456150   16.6862769143   11.8316813544
   5.7657464301   17.6324019718    3.0215745426
   8.2912251717    0.7724153394    2.9026079907
  -2.2256416560   17.1251076006    9.6093705068
  14.0144282668   18.7879258233    4.5635132338
   6.4075695290    2.4472608387    2.0882825605
  12.8674415982   17.6992598442    3.5695386013
  12.8566811270   17.6061687363    5.2296257436
   4.0189071900    2.6123781905    3.3934015010
  11.6352621184   15.8821985405    8.4342000178
  13.3955702096   17.7820487070    9.4787434832
   9.8112987801   14.9520372285   12.3720973432
  -0.0888400264   18.7224021432    9.4638863537
   1.7720060410   11.9691070828   10.5952500733
  11.9336426214   13.9153786969    2.2553923183
  11.3173639384   12.8102806160    3.5697964158
  11.4129589795   17.9383856722   11.0933032426
  12.8514507844   16.5376355245    0.2789077043
  11.0922355503   16.1748101369    0.3744534328
   2.1066186479   13.2137517744   11.8639118537
  11.7571950901   18.2569828771   12.8682762125
   0.4928655534   13.1174002114   11.1129190965
  12.9571733395   12.9102895611    3.2216728056
   4.5364691232    2.5832261152    5.9849161567
   9.6843980880   15.9350747097   10.0568845288
  -1.8105989299   13.7610638049    7.6908080100
   8.9572065124   11.5751479391   10.0352745711
   5.2204812727    3.0647795325    7.5035232084
  12.2618604338   15.2613845990    1.4523414634
   5.8410816302    4.8921067994    5.1916577029
   6.1016258903    5.0642905089    6.9443144582
  14.5759560773   11.9467607206    7.7744895209
   5.3961788563   19.6241162717   14.8811948434
   0.1028788015   19.1961812511    7.8156086850
   1.3723208854   18.2326934334    8.5722103237
   8.2831068578   14.5074406718   11.4993454066
   4.1662348515   16.6762072307   15.9937925314
   2.5605087833   17.3607510699   15.4484843603
  -0.3530580621   12.9531091391    8.4424604083
  -0.6132884764   10.9357977758    7.8819673510
  10.8760857916    2.5786413868   14.4800663076
  13.9585716848   15.4302494022    3.5377889434
   4.5972823843   18.7635323777   16.3288626140
   8.2456547101   13.0929615984    9.9246935335
  14.9072926955   10.9269794396    5.5657878243
   3.5828524199   19.8961708900   15.2752798487
  -0.7956636776   18.8308485620    6.0009742767
  -2.4349813556   17.8484581104    6.1587914850
   7.6102734846   11.8740514091   11.2686275913
   2.8397205037   12.7036523438    8.4734339304
  -1.1427844067   14.3569238720    9.4036460668
  13.4716265119   15.5846627637    5.3589381631
   3.7880389476   13.8469278697    9.5680577183
   0.2613995757   16.6793365736    6.4564737228
  10.5318399687    2.9356413506   19.1535028398
  14.4588884457   10.9690222975    9.1338443270
  -1.2802261714   15.8450183136    7.0612950220
  15.6932380764    9.3432717693    5.1188365984
   4.0280247123    6.0909585271    4.4185108548
   7.1290808817    8.4263210679    3.6218499428
   3.8358157098    7.2215722560    5.7995502697
  -1.4655511922    9.8857922211    8.9815053988
  14.2143380374   13.1261022379    5.6911596811
   0.5869432508    7.2259019704    4.3716596201
  -1.0134559309   10.6110135786    5.4434540415
  -0.9265246427   17.6614630374    2.7793926422
   0.5056710352   17.3679893057    3.7073986187
   1.8187662288   15.2228830165    8.0026141706
   0.6309101062    7.2161843334    2.6161947182
  15.3472662694   14.3745613966    5.5733054684
   3.4985310095   15.3526522579    7.9794608345
  11.4026398927    6.5671295184    3.6447552367
   6.6298613708    7.2214194968   17.2683956397
   2.6039724764    6.1418699194    5.3170048992
   0.9724042011    8.6612363364    3.4621819978
   6.9590149281    6.6638356375    3.3050840100
   7.9885926146   16.7723959640   17.4351048884
  11.1826877398    4.7849152379    3.1308008487
   7.0156603534    7.3184432020    5.0867570269
   0.6670439405    4.6724098794   11.8053295861
   7.8970723874   18.3291720618   11.1494880746
  11.1848190457    9.8678106422    4.0201903924
   8.5278343109   15.5059408901   16.0605564399
  13.5632632832    6.6973083996    6.9884973008
  11.4411588056    8.4346806329    3.2127844514
   9.3359602575   17.1061572398   11.1104892159
  -0.3792137879   18.9706307236    3.7559902224
  12.4605944879   10.6099274180    1.3548637209
  12.6498311795    6.6746493405    1.6933469326
   8.6056951391    5.3611505307    3.1827620837
  -1.0139547632   12.5863914764    4.9897208536
  12.2828915573    8.6813841296    1.4248884765
  12.2645011318    5.2436253827    0.5277485955
   9.6177679770   16.0744143507   17.2545201149
   9.5583356301    5.3302888788    4.6393899625
   7.7551426210   16.6966511305   11.9136112524
   2.0323969023   14.9392629149    5.3628149718
  -0.8340679869   14.1122787527    3.7639796697
   8.9652842392    9.5449644859   10.6760675140
  14.8601519685    7.6559244307    6.5204859720
  -0.7139867633   12.4415096256    3.3024338001
  14.8234584281    7.3409583818    3.4208414569
   3.8409099449   14.8365429213    5.2487309519
  14.6828298309    6.0148725182    5.8183137394
   7.2829540619   18.9828266833   13.4000130405
  16.2742569722    6.5589201883    4.3664128128
  11.7278644054    8.3851965570    6.0948539418
  13.9941975671    9.6385083213    1.3099802847
   2.6618366114   13.3715250125    4.8603622602
  13.1449380912    9.2773054870    5.8065646956
  11.8751598198    6.9909053730    0.0837256569
   9.0143140514   13.1431477194   17.1012955047
  -0.9349710676    8.1268901909   13.9729245202
   9.0396676785   11.6231136911   18.8802439336
   7.5496974985   17.5246991681   14.4712516243
   9.9617870710   14.0772974226   18.2912126631
  14.9447778257    5.3385174852    2.3695905688
   9.4556590586   18.7348363208   15.6822971379
  15.4753662287    6.8291488718    1.3225335445
   7.4160188134   12.2125953290   18.9209454338
   1.9204270367    9.7132429410   16.6208367684
   0.7515593003   14.4974696775   15.4631460812
  10.1299607778   17.4524349566    5.9997636199
  10.2586733386    1.7272313244    6.9385591270
   4.8370025691   10.7270314274    8.4192479631
   3.8231247514   11.2699121687    4.5882490856
  11.3604201257    1.2369889533    8.1956957025
  15.9695854252    9.6523177715    0.4255172525
  -2.0541504158   11.5084217756   18.2845590140
  14.4063791915    5.0384127419   12.1345498495
  15.7620179747   13.1333589659    0.5648924349
  14.6308386466   11.7106734856    0.1412311327
   0.2610399340    0.8463473366   12.0426532583
   2.6163670489    1.4799399504   13.7841765585
  -0.1217783297   17.5555238903   13.0829851073
   0.6559789742    1.1341356768   10.1532691097
   7.8266256826   19.5882269123   15.5798561530
   4.2291864397   11.7619941021    6.9720180320
  15.3262761296   13.4498806554   15.1648710733
   9.8196801228   17.8893713267    3.7967931552
   2.8600219582   10.4124599888    9.3377435926
   2.6198973110    9.5164290249   15.0380515684
   7.9152181813   18.7115542902    5.0652720648
  -1.1197533829    8.6475481889   19.4730553881
   1.3954880699   13.6038171651   14.1491953701
   9.0667741313   11.6631466367    2.8551235634
   1.9929938790   11.1384506811    7.9135036652
  11.4932850640   19.7462453157   14.3054283364
   5.2710369572   11.3251491622    3.3791559643
   2.2202821702   12.9269743898   16.5226989561
   1.5373582664   18.3734977525   13.4100519340
   2.2211057289    1.7282687613    9.6176085662
   8.9462689502   16.5479352932    6.9707119931
  -1.7041685326   12.1604402610   16.0184772437
  15.6452751667    4.1103519808    0.8315280709
   3.3590509041   10.5252693019   16.1651318832
  15.4101278615   11.7745099575    1.7758053196
  11.8295885460    1.0564169553    6.3497417211
   4.7964875018    9.8088376778    4.1574634503
   9.8595660570   10.1856898986    2.2165373330
  15.6250472765    6.7506957460   19.4004609050
   6.7236652579   10.3322885148    6.9228680880
  13.9344031344    2.1073946999   14.0540603606
  -0.0040838067    7.9600299943   18.0266462423
  10.5585133805   16.2494777033    3.5719953258
  -1.5513021574    8.8760311108   17.8411460550
  -1.2959940434   19.2513853931   13.9355073907
   0.5304473678    2.2312315895   13.2780631913
   1.0045451119   17.6946595847   11.7494540893
   0.6687602837    2.6697982513    9.3873212909
   0.5642454467    9.1010234515    0.9725765312
  -0.2881875314    4.2151991926    0.4939372419
   0.2750101389   11.7729584274   19.4753302109
   0.6714768977   12.1755089725   16.8095081289
  13.7526468109    1.4520007768   15.7471204846
   8.9680868144   16.6607662534    2.8855186182
   1.6973330390    9.4152411812    8.2789632547
   7.0195952717   17.5220754203    5.7739929941
   5.4660307226    9.2000547536    6.1934473057
   8.2326608254   10.5798431268    1.7945804838
  -1.3355099578   13.9383862631   16.3099637767
   4.8454810088    8.7766651698    1.3934333306
   8.3320565475   14.0668055640    7.1820123570
  12.2573615048   12.7828281525   13.8822984846
   3.7838811267    1.5265205331   16.7170472360
   1.8121710100    3.4430027407   18.3830597867
   0.5394733567    6.3702652253    6.0885718872
   4.0794262574    5.2807786258    0.9531052275
   0.1836600682    3.4063313853    4.7637159465
  10.5930860583   11.6415249059    5.7630621526
   5.4587742767   18.0954532597   10.3336849144
  16.3716641560    1.0143417657    1.8814856911
  11.0424095421   11.3757690903   16.4987522228
   3.1874608867   16.0873611717    0.1721650097
  12.0176812545   16.8886734120   15.9929760286
   5.4463039858    1.0666320390   10.1513535249
   2.4135509744   14.2471300105    2.2359242429
   7.4687040712   13.6626238896    1.6126091438
  11.8715264624   19.2463294220    4.5510802809
   5.3625448431   13.5371982625   18.5612224440
  -2.4743725385   15.6360508989   10.7950470141
   4.0211788345   18.7479682319    3.6427971161
   4.9267401635    1.1751973021    2.2672213772
  11.2666232858   15.9807157168   18.8655127106
   6.6016884952    2.6626940847    6.1133568561
  13.3776186011   18.4934065867   11.4429703421
  11.4301531618   14.9673745294   10.2766903946
   2.8324981041   15.5280785773   13.1434461227
   4.2310460398   17.9741812271   14.3619648383
   9.4820965651    3.7092272179   15.5997291545
   9.1382952399    3.6852437902   17.9681492687
  -0.4724346438   17.3468117652    8.2593011687
   9.4724761340   12.8442204208   11.6904251530
  12.2096080022   14.5167638877    4.2480050556
   1.7009000079   13.8339872976    9.8232112828
  15.6376693057   12.6047777644    9.4961295120
  15.7192762942    9.7050250694    7.0812212953
  11.1694851845    2.8969435635   17.0555806767
   4.1560586689    5.1649672355    6.3253944465
  -1.4256504708   17.3443952862    4.5960651885
   8.7996866908    7.3230819410    3.7790573769
   7.9714676208    6.8150282774   15.7564283720
  15.1427326340   13.1516029080    3.7722209770
   2.6705287398   13.7674450067    6.8082104787
   8.5923894715    7.7069563629   11.7599491685
  13.2955255478    7.3275767717    4.9941502587
  -1.0185709636    8.2075355847    3.3225432896
   0.1050273045    6.6175690227   12.2780094941
   8.1447072123   14.7865455337   17.9902128774
  10.6779253919    6.1778469387    1.6865586674
  13.0134534377    9.6273854012    3.2123877059
   8.9812288130   17.9249231906   12.9650445913
  16.2551749122    5.2307074995   11.2545958612
  15.5825176784    7.0896774502   12.8067756429
  -0.8208223913    5.4749512190    1.9029541321
   1.6037630796   11.2971573984   15.2473108616
  12.2110572327    1.1149345347   14.2987095670
   5.9280293089   11.0474891851    5.2684443380
   7.7661514412   18.8115102418    7.1471673422
   9.6059550100   11.8699702574    0.8570929196
   0.0364373426    9.9457951986   18.4244602557
   0.0127619442   19.3305480596   12.2701059198
   1.4644176665    2.4671741776   11.4414846336
  -0.9206277621   11.4932170096    0.1832744964
   8.9895011085   16.3424528541    4.9065722622
  -0.5189406686   13.1506508920   14.5029835045
   3.4805460801    9.7566472790    7.3975969750
