B2 C140 Ca1 F48 H298 O66 
1.0
1.8953170807768362e+01 4.5128729657394541e-16 -5.5922047538505687e-17 
-2.7901480579479698e+00 1.9790709688337124e+01 1.3694208874836697e-17 
-4.9065126447131091e-01 -1.1052682852056341e-01 1.9264611915095724e+01 
B C Ca F H O 
2 140 1 48 298 66 
Cartesian
  10.5536161939    2.0868632733   16.5971811846
  -0.9073627039    5.4315508385   11.7890356089
  18.7371165871    0.3319739665    1.1119066357
   8.1659512589   14.4248223034    7.2418461781
   5.6541667879    6.7432718404    0.7999546420
  14.5456544214   12.9718035176   12.5303135747
   4.0483124167    1.7725697388   15.8741748942
   2.6839512793   -0.0617870426   18.7100930591
   1.2053732458    2.9623449414    4.1198326149
   3.4413894850    0.1202692449   17.3916827939
  -0.3647096749    3.2149967084    5.8910800912
   4.1653212948    4.7255882622    0.5544923662
   2.5796020263   15.8090321476   17.7063690111
   1.3734203649    1.9277149154   18.4395947991
  12.7079840568   14.9368716198   15.4403273599
   4.6277056573   10.1702895654    0.3304957814
   6.2316511955   16.2570441058    8.9085943347
  14.2734639308   11.4586566321   15.7369773408
   9.3136303445   11.5618086390    6.6960002166
   9.9456106379   12.9378347313    6.6405937792
  14.0332170261   11.5465856627   14.2873611003
   4.5790571506    7.8036999116    0.6636174341
  12.2574990345   10.8099532180   16.8206487126
  11.4330990642   10.3674662575    6.7303043935
   0.1930770468    4.3475604990    6.7132972544
  -0.1536884231    6.8110207576    6.6470046893
   4.9308794131   18.1635625958    9.2985835825
   2.5482307229   16.1448649058    0.7573732304
  17.3602195683    0.6793869171    3.0702299062
   4.0091249695   18.7613290593   10.4114728428
   2.2362026974   15.0901298443    1.8446299547
  13.9478588608   16.1432326689   17.1825473620
   6.0277953382    1.1605430451   11.0135074351
   7.6144635000   13.0413905634    3.6460658429
  15.8954254518    0.5483402255    3.4722710522
   6.1610113365   13.7233428633    2.0257497323
   6.1285742408   14.2507225473    0.5944810567
  -0.8547800786   15.1335007434   11.4193924965
   3.3111344177   13.8143354496    3.4688142236
  14.2879386851   14.9984263636   18.0059305228
   5.6277789205   13.6423437313   17.6112276103
   4.6413369301   17.5200120085    4.3016486822
   4.7767167195   19.5815067635    3.3597480532
   6.9129755587    1.2133336351    3.4472099882
   5.0152673780    1.9795825301    2.2018341375
  -2.0986034839   17.0565236298   10.9434313691
   6.4242151458    0.9778674365    7.1002097737
  13.3863343737   14.2953016601    8.6550875947
  15.4229552966   17.2143364395   10.4703807110
   4.1943565755   15.2894348980   12.0170632965
  13.6626311748   18.2165506705    4.1802577083
   7.6104567220    2.3864352576   17.9214364735
   8.7860867019    4.3941364394   18.6903752208
   8.7266314417    3.3047548865   17.6828202960
   4.1470959352   15.4607047842   14.3656322852
  13.4036934406   18.0653256175   11.4115808657
  11.6992547680   15.3528811117    9.8769757065
   9.9091047466    2.1821701562   13.0131775183
  14.2381682766   15.6330152144    1.0488570117
  14.0801792803   12.7859666163    5.5244702345
  11.0316918384   14.7655528926   11.1770336043
   4.7812150250    2.6555974051    6.5398998894
   1.7020171945   12.5107718593   11.6612496284
   4.2038087780   16.9424978158   14.6397381743
   1.0435109975   17.9668769756    7.8914523888
  10.9753095071    2.1443097524   14.1721411097
  12.1340543172    3.0934937712   13.9021451117
   4.8765565300    4.1090336725    6.1000934697
   5.4150406903   18.9783017271   14.2198596034
  10.2550780696   12.4982384970   10.3721527434
  -0.6781801171   13.2666070684    8.4050947879
  16.9575969197   11.2032711333    7.8509554957
  -0.8834929532   17.2685786812    6.6931270010
  -0.9425591916   10.4485853865    7.0145876396
   6.3981089708    6.1287878154   14.5924093977
  15.2734465555   14.4423381735    4.4615890825
  -0.6891342185   18.3815918668    5.7140754752
   3.0667762846   12.4992320508    9.6718730924
  16.8489305386    9.9183085483    4.9514514768
   3.9831722576    6.3531172107    6.3385894041
  12.0696750018    1.0259636124   18.2298520983
   2.6012420206    4.6727964628   13.1621119620
  10.0955584561   19.5313061623   18.1891810177
  16.5366262769   14.5412221659    3.7208949433
   7.5262778754    6.4511532624   15.6661075951
   3.5322971873   13.4523317562    8.6624779610
   8.9243756895    7.4035897115    5.5646854835
   0.2563060966   18.7923547473    3.5393118328
   8.0801150541    7.8422328608   15.5546088360
  10.6672306058    7.2979716366    9.8317969226
   1.1973416057    6.1481343915    2.6165776864
  13.0919460536    2.2238846125   18.4926595039
   2.2002748784    4.7899335946   10.5932500056
   1.4531898190    4.6626326898   11.9950963267
  10.8217255146    4.9660353750    3.5159246485
   9.6474249920    5.5483923433    4.1197722237
   9.3015682758   15.5760936798   18.2110386744
   9.7269160506    7.7670467024   10.9389836037
  13.6802406706    8.0958321484    3.4231023455
   8.7270059585   17.8233892050   12.1434923894
  -0.6439737322   13.2243390813    2.9444432648
  14.7693187584    5.0486919559    5.4466035237
   8.1694007828    8.0428530103   10.4258157382
  14.7752369868    9.6518386338    2.0293008321
  12.4616718597    5.2825142160    1.7800121165
   2.7154655144   14.7840273631    6.8603950314
  13.8106786990    7.1215935293    4.6261255261
  17.8015558396    6.4454546552    2.8011252116
   9.0137117169   17.4325791790   14.6195739976
   9.5070012845   13.2644766663   17.9417394266
  16.1410027599    7.4519954597   14.2497193982
  17.3957743737    7.2941541442   13.3087405564
  17.0124723182    5.7114813927    1.7409041314
  15.6330281056    2.8335823405   11.3592034183
   9.3039295043   12.0194740730   18.6895333394
  15.9942104917    4.2530139184   11.0407617163
  10.5445691509   17.8058452002   14.6370669612
  15.7114941988    4.7173798646    9.5967450922
  -1.0674315094    8.5811749029   12.4880324687
  10.7589224313   18.8021603929    6.9854123766
   2.9369071133   10.2513586357   15.1903639575
  -1.4302237749   10.8153749361   18.9960263047
   0.9384298392   13.2548198715   15.2322721464
  16.8402124870   12.9384826250    0.1320796740
   4.7939903962   10.2297597478    6.5050036971
   6.1012810353    9.2269667050    3.6356690829
  10.0082594885   16.6385240397    4.6940205268
   9.2053731552   17.7204726302    5.4230724215
   1.8910121074   12.2996791450   15.9961373701
   2.7792854057    0.4683632461   13.0044574403
   1.4463334326    1.0921160154   12.7247721608
   1.1593992713   18.1305266016   12.5234792964
   0.5582053775    1.2673955171   10.4724281865
  10.2536581599   11.0148849578    1.5709411774
   2.5131033703   10.0435177390    6.3946157080
   6.2056457097    9.7551199054    5.9656090114
  12.3224055634   19.3633098479   14.5281368253
  -0.7071873255    8.0333142190   18.3496388313
  17.2147350356    4.1124962805    0.0690436153
  -1.1639369070   11.9562946663   15.1227403143
   0.3590485364   10.2243182012    0.1162410869
   9.7066235099   17.6164023121    2.4586278116
   9.6994462273    5.7721050268   13.6037602117
   7.4809258277    1.6712268446   16.7246689593
  10.0000157668    5.0257724776   18.5437850219
   9.3512248244    3.5599797240   12.7563684271
   7.8905463682    1.4779656220   18.8163520998
   9.2990493174    3.9488393207    0.6787563832
   6.3817616128    3.0028828230   18.2037451410
   7.8443753509    5.3332441373   18.5545587459
   8.7652412479    1.6608480026   13.4057780967
  12.5563536639    2.9687255559   12.6273171882
  10.2358401949    1.6794602615   11.8329110866
  13.1866943804    2.8718582735   14.7406401693
   5.2385827538    6.8132357428   14.6233635197
   5.8914386877    4.7663823734   14.7999862257
  11.9457878915    4.5119825838   14.0306510723
   6.8583375833    6.1703824759   13.2963640886
   3.6816191821    3.7749061115   12.8941277727
   9.0910174539   18.6181396072   17.9371618652
   3.0726069417    5.9261040184   13.3160236628
  11.8236681445    6.7735976637   10.4193429145
   1.3734304089    4.9774381482    9.5853803421
   8.6325265044    8.0538231372   14.2795926823
   9.0901101516    8.0034804997   16.4845952674
   2.0543406990    4.2429098895   14.2987292597
  11.0749419323    8.3027015352    8.8988620989
  10.9776682340   19.3303279585    0.1350975920
  14.2094587851    2.0882182242   17.7321446507
  11.0616996743   19.3842860566   17.3026841604
   3.0137728651    3.7854370900   10.3769271478
  10.2450434091    6.2596252366    9.0536075394
   7.4717673956    8.3552840450   11.5521092723
  14.0261665949    2.5370531438    0.5095158095
  12.5530679130    3.4460144338   18.2111129020
   7.1132887323    8.7903063448   15.6751916813
   3.0167620952    5.8874863274   10.7455948064
   7.7058124944    6.8820646861    9.9958986499
  16.4449569929    8.6286209738   15.0205290911
   8.0285706923    9.0826832190    9.4770307608
  14.3473972287    2.5501353762   10.9504358806
  14.9803214481    7.5461295965   13.6715109652
  16.2569497578    3.6878142568    8.7917034656
  16.3451378588    1.8178599618   10.7645159157
  15.9974808664    6.0103355008    9.2192733896
  15.9904772539    6.4156919997   15.0752045832
   0.0267790631    8.1320869929   11.7581071731
  15.6689182304    2.6170808613   12.6969511477
  -0.7658198301    9.6936310822   13.2509217883
  14.4126257976    4.6466935557    9.3556578932
  16.9954884772    9.0252559622   11.6536538383
  -0.9364839989   19.0132363071   18.5442507749
  15.1145239032   12.2200924564   15.9382566949
   1.3431252482    3.0660725284    3.0309938646
   6.5080785289    7.0861760328    1.4220641272
   5.8981957004   16.2257546153    7.8604179484
   9.1067713989   11.0512833830    7.6336648609
   5.5437294251    6.3683405225   18.9545163181
   4.4442609414    2.7425759884   15.7135645025
  17.5111520508    3.1356484624    6.1981456401
   0.4868264520    0.9423698646    1.6646866230
   2.5318807352   16.8624516611   17.3164729264
  18.5424966624    0.9458586676    0.1245960825
   8.2197694173   15.4510484246    7.4533642157
   0.7876017705    1.4132272986   17.6209300238
  -2.5204599337   19.1989797397    0.7462751128
  13.6411008492   12.5572956383   11.9455567811
   1.4425916083   19.1659632314   17.2796080976
   7.9785035918   14.3674738769    6.1439808230
  13.6851297470   14.7283724138   14.9885061361
   4.9150481744   10.8692066787   19.1631249342
  15.4284269870   12.4454837371   12.0904408358
   3.8774868465    3.9183157894    1.2471899561
   3.2759868839    5.3656770043    0.3822720510
  12.6694058527    9.7728466684   16.9270640966
  12.2388890935   10.1995194527    5.9932658224
   1.3455408977    1.8443244762    4.3253991230
   0.1444813156    2.2810345079    6.3802743168
  11.0048182824   12.7029433674    6.8685520616
   2.9829834875    1.6940107517   15.4498761383
   5.8252083442   18.7867774646    9.1257990254
  12.4763450372   13.8837203988   15.7454034752
  13.0485552954   11.3043997782   14.0554632402
   1.6913982851   15.2489008765   17.4979114651
   3.3959738509   15.3493418851   17.1442361837
  12.0638003801   15.3060652142   14.7063136378
   7.2399445376   16.7683128432    9.0157746658
   1.9367204329    2.6483025248   17.9049573366
   2.8532382260   17.0581581529    1.2589477318
  -0.9500007608    7.5456665977    6.4422639909
  14.6454896802   10.4785304172   16.0592676712
   1.9209441168    3.4257270673    4.7856357558
   6.3535428047   15.2638547219    9.3402184770
   8.3857689026   11.3597730242    6.1420090770
   4.5589327138   10.1408086059    1.4261789253
   7.3892174040   13.9853262548    7.8500867651
   3.2583150509   10.1897198746   19.0278207186
   4.0675024687    4.2778688888   18.8723334667
  14.5609430924   14.0156253572   12.2502741204
   1.1364225233   19.3683552904    0.1636536660
   4.7683580850    0.9193892134   15.3641004973
   0.7387480178    2.3968670359   19.1036127335
   2.7413808372   -0.0947331215   16.5979668467
  18.0916756985    0.3118265794    3.8470495651
  17.4909767529    1.7208859863    2.8165259715
  11.3537784022   10.7806004849   15.9988913961
   4.1557074847    8.1779078419    1.6224015878
   3.7786536662    7.3865425230    0.1536126064
   0.7583418931    6.7461821480    6.1216545016
   1.1959869773    4.7983146589    6.3400798167
   1.6064258515   16.3107591497    0.1324831407
  11.7756893008   11.1230178234    7.4080110565
   4.6023857980   18.8060054366   11.3127006936
  11.1238878592    9.4097507605    7.2125331908
  11.7678536111   10.9519337113   17.7287957995
   9.9701111468   13.1976282924    5.5223366756
  14.7692657817   10.8038677384   13.7043728531
   4.2805947841   18.0879451312    8.4275066968
   7.8839914895   14.0560056747    3.9058357749
   0.4102036597    4.0858597409    7.7860398321
   0.2867496304    6.8853772911    7.6367720001
   5.8698752346   14.5405820517    2.6719145445
   6.9120245916    1.3914581789   11.6240125668
   2.1079832474   14.0253454519    1.3316638084
  13.9219339298   17.1323629889   17.7120906798
  14.7733321949   16.1613282100   16.3891077407
   5.2189903200   14.8532211205    0.4522598072
  -1.6044995584   14.8793368539   12.1581582827
   8.4418764131   12.3641740774    3.6516599172
   5.6298197555    2.0339755061   10.4623465289
   3.0973480402   18.0703467991   10.5496026939
   4.8674017734   14.5142616644   17.5345727664
  -0.5312349646   14.1992338097   10.9458804444
  15.5134674571    0.6244111364    2.4609480762
  15.7741022841    1.5927569250    3.9747733713
   5.7016645588   17.2905689533    4.2478507559
   6.6001713792    1.3740728236    8.0426030570
   4.3493481102   19.0611835085    2.4737710758
   1.3890970806   15.2966669475    2.4206530992
   7.2120586594    1.7789006076    4.3255876691
   3.9376624948    1.7346913606    2.1340703021
  -1.8920227169   17.0814157790   12.0178497256
   2.6718789396   13.9725117882    4.2775712177
   3.1402669595   12.8263326900    2.9016741596
   6.7681928548   12.5205164852    4.1785434601
  14.1327787005   14.1818186080   17.3393195044
   5.4055614218    0.6124512384   11.7009357865
  15.3173903253   15.1935808448   18.3911112205
   5.2343933456   12.9334122393   16.8737346970
  12.4578555023   14.3280655101    8.1838955939
  14.6946409368   16.3350972447   10.1440136515
   5.3830472761   13.0405088347    2.2813332485
   3.5194378892   14.9763431045   11.2619067065
   4.3380617401   17.2401120115    3.3280602369
   5.0678348557   14.6662086716   11.9248765587
  13.6410689656   13.2887348787    9.0201745806
   5.6883232499    1.6430447683    1.3947353146
  -0.0292683991   15.6387249370   11.9872914015
   7.0242849252   14.8960336271    0.4185673431
   4.3217321626   13.5300339701    3.8460523438
   7.3247743519    0.5080539529    6.8870712025
   5.6340292138    0.2260970830    7.0374182980
   6.6494104608   13.9861578399   17.3822526256
   8.4705165626    3.8778424260   16.7656939790
  12.9394985127   18.6408367213   12.2742068735
   3.5490728917   15.0739713867   15.2105261363
   5.1826411287   15.1283377042   14.3420133638
  11.3247480294   15.0454680150    8.8541691179
   4.4455791967   16.3823238736   11.8234416603
   4.1077983027   16.8065419556    4.9580261707
   5.8535654753   19.7199814301    3.2475710106
  -1.6862938303   17.9789074912   10.5994619513
  14.3063932093   18.2243039867    5.1304262422
   7.2668255323    1.8390409444    2.6250077274
  14.2777538731   18.1667341858    3.2029703609
  13.1812309817   17.2461611763    4.2116862689
   5.2044083999    2.9932570165    2.4732959754
  14.2909179792   14.6126946033    8.1039412537
  15.3869448537   18.0624858263    9.6631433391
  11.5848649894   15.2262927783   12.0624216801
   1.2921744526   18.8472549934    8.5878199202
   1.0496156705   13.1785541984   12.3444819289
  14.0862274818   11.9895506792    6.2136512535
  14.1514033158   12.3277519971    4.5546552675
  13.2777887567   18.8061080768   10.5573429575
  13.7868761757   15.2130662871    1.9087612973
  15.2418574799   15.5657659160    1.3698849605
   1.1125200245   11.5538842225   11.5768839960
  12.8425072713   17.1918590935   11.1908880548
   2.4028912260   12.2583582806   12.5562113036
  13.2258634421   13.3812261028    5.6537370865
   4.1146980755    2.1356826658    5.8784129157
  11.4624707236   16.3713418998   10.0624615007
  -1.0872791753   14.0890626859    9.0043701661
  10.3467269908   11.4691683340   10.8958024529
   4.6016664920    2.6815369284    7.6601688759
  13.9428814722   16.6844755190    0.9300589223
   5.0120954418    4.0257589177    5.0019426786
   5.8534443612    4.5918372846    6.3768086946
  16.4055413048   11.8260121415    7.1754214892
   6.2957997432   19.3391493581   13.6894329657
   1.4592405348   18.1252479358    6.8372862580
   1.5606407185   17.0530798768    8.4236090250
   9.9960828242   15.0882077540   11.2797921544
   4.0686748499   17.1755516856   15.6981647803
   3.4336608744   17.4390344067   14.0109535555
  -0.8319173390   13.4250921197    7.3637548462
  -0.2847052516   11.1754971125    6.4719210897
  11.4368571922    1.1218199847   14.0333606821
  14.5544180654   13.9902123752    3.7539482175
   5.3233242734   19.5578407620   15.2051839469
  10.8184218582   12.6502170913    9.4380391559
  16.9304909600   10.9702872663    4.8259987636
   4.4256558084   19.2883482508   13.7107243004
  -0.0480800660   19.1897045244    6.0559181936
  -1.6841693432   18.8199461838    5.5442877929
   9.2383025889   12.9429990689   10.2825656037
   2.5559959913   11.6511441516    9.2156289553
   0.3502324895   13.2682937655    8.6425691153
  14.9089288086   15.3683143454    4.7549790526
   3.9438478665   12.1031622720   10.1502850193
  -0.2601735001   16.3603449489    6.2372426281
  11.2221919142    1.1100669663   18.9381184772
  16.4270284588   10.3683738331    8.3622327546
  -1.9068156701   17.1108232246    6.7709645577
  15.7507393026    9.5881677531    4.8784927997
   3.3178374078    6.8560406352    7.0579291936
   9.3329833968    8.2564149994    6.0727030745
   3.7945142223    6.5537555236    5.2939610089
  -0.4593052670    9.8525142443    7.7621274171
  -1.5422904946   14.8856255572    4.2730123755
   1.0885479398    5.9793786957    3.7265579693
  17.4807273620    9.4365967792    4.1720690011
   0.0396732087   18.5140139366    2.4745172084
   1.2733427670   18.9616056136    3.6636190158
   3.6826925561   14.3874945163    9.2545622390
   1.1627611852    5.1441577377    2.1721677293
  16.2859781625   15.2027397036    2.8886438988
   4.4449423774   13.1234966645    8.1722412778
  11.6302827349    4.6958816875    4.3237365469
   7.0646836364    6.3658378566   16.6474201770
   5.0643532521    6.5766405086    6.5748191195
   2.0713499277    6.7247793126    2.3428342758
   8.3434105796    7.8455802802    4.8050101043
  10.3464509660   15.4670594396   18.7148680394
  10.5024135782    3.9324197086    3.1251135888
   8.3709342516    6.7124058426    6.1799700610
   1.0975307391    3.7022147478   11.9873401457
   9.1395640259   18.8332446094   12.3553102881
  13.0068451453    8.9016292084    3.8314880745
   8.7413505840   16.4358549514   18.5962575651
  13.7976574359    4.6642384440    5.8684633882
  13.2114300277    7.5525472183    2.5742912048
   9.5893944531   17.2773680107   11.6054742398
  -0.3347349903   19.6987080340    3.7503438382
  15.5181931526    9.5924344055    1.1680827185
  13.4555925604    5.4343769959    2.2994656266
   8.8710380685    5.7626393365    3.3691482281
  -0.1244300243   13.3388816860    3.8991231643
  14.9975658453   10.5361026742    2.6382303794
  12.4244186324    4.2067875853    1.6384957697
   9.4856797450   15.7489147248   17.1778554854
   9.1837084000    4.9074911727    4.8813994647
   7.8054172478   17.8286624443   11.4526333235
   2.3004582450   15.5816547524    7.5678244255
  -0.3792170680   13.9852019894    2.2337057864
  10.1529694693    8.7803955084   11.0686771617
  15.1778521159    5.6071314687    6.2605050082
  -0.4456813566   12.1854110681    2.6370185371
  17.2689966867    7.3283963765    3.1154771081
   3.6843023496   15.1232391876    6.6003689017
  15.5746038288    4.3258599467    5.1123368308
   8.4187680601   18.1890810860   15.2248714877
  17.9999990251    5.7366734525    3.7038100171
  12.8192175712    6.8794782328    5.0347331249
  13.7481585253    9.5648934244    1.6737112531
   2.0406358254   14.6744792156    6.0835707197
  14.5261891525    7.6591210648    5.4204261471
  12.4499797263    5.6785988261    0.7796253600
   9.1246942115   13.2133235795   16.8965963697
  -0.6577604600    6.8823895205   13.8893870559
   9.3745618528   11.1015642961   18.0852613092
   8.9378490738   16.4742375798   15.2329750246
  10.5726330186   13.6544982878   17.9671463667
  16.0694020182    5.1623368717    2.2143549472
  11.1314860098   17.0434337655   13.9991000848
  16.5408602366    6.4626431254    1.0053743483
   8.1840826546   12.0929366007   18.9972277646
   2.9309493886    9.7700532554   16.1297818044
   0.4902087235   14.1494502023   15.8970377167
  11.0411245222   16.8688239333    4.7476767778
  13.3352579999    0.1199833632    7.0425375740
   4.8640991649   10.2722530627    7.6133899449
   6.3694940466    9.6710521348    2.6683753882
  11.2205073584   18.6416648665    8.0379225086
  17.1960266823   10.4569755269    0.2895401717
  -1.6111881436   10.8859110040   17.8626173715
  15.5699836499    4.8284146269   11.8050511978
  -1.8257522227   14.0245335926    0.1791222142
  15.7607433627   12.6512998693   18.4654936323
   0.6318353460    0.2090586735   12.6830358844
   3.5161899932    1.3424112386   12.9118307189
   0.7278506202   17.6636570896   13.4389160673
  18.5645360886    0.7080799332   10.8046413118
  10.8401935425   17.6185186298   15.7039626914
   4.5973447296   11.2789141159    6.1928179504
  -1.8304332277   11.6969899118   14.3282432478
   9.4014249583   17.2225532265    1.4349097845
   2.4489786711   10.3805477293    7.4906994009
   1.9602201216   10.0185593872   14.7226526500
   9.2434359746   18.6803053454    4.9530263788
  -1.6093735641    8.5463176150   18.0619731026
   1.5465070592   13.8529020774   14.4613016163
  10.6189947373   11.3385842631    2.5197224828
   2.4159635841   10.8396780674    5.6402617985
  15.5361186974    0.4576682785   14.0994427651
   6.5346875926    8.1795139497    3.8444173758
   2.3696855235   12.8801840611   16.8177638304
   2.1537449932   18.5544691960   12.8718258166
   1.0913617122    0.4318396781   10.0083722766
   9.8500783158   15.5937642422    5.1496063004
  -0.8608476775   11.0040604347   15.7670351469
  17.0837509905    3.0657709641    0.5408760988
   3.7674491098    9.9944002888   14.4937188276
  16.2509120684   12.6076755577    0.9393335422
  11.5723481013   18.6446102238    6.1738224463
   4.9832210011    8.9791175062    3.7935051229
  10.5802186290   10.0333306633    1.2409935890
  15.8471540571    4.5887657737   19.0637160388
   6.8220653206   10.2384292628    6.7166110345
  12.3358105978   19.5803163558   15.6263468021
  -0.3503556088    7.6584193964    0.1417517718
   9.1505750588   18.4489604954    2.8149870035
  -0.3753727632    7.3018969410   17.7271800007
   2.5727986234    0.1116854120   13.9998435890
   1.2337340518    1.7267642358   13.5589333602
   1.3123237511   17.4657054784   11.6578449796
   0.3303250361    2.1353280376    9.8322661083
   0.3498807146    9.8687022437    1.1424276308
  17.4136342051    3.8400943395   18.4714835875
   1.0736442670   11.0495846139    0.0555474718
   1.3068229690   11.5542825501   16.4688696149
  13.0120781521   18.4275293931   14.4033766254
  10.8518961807   17.6654994311    2.3169302009
   1.7161012977    9.3787327294    6.1272198894
   8.2171822049   17.5401672949    5.5551535911
   6.2888098900    8.6490169631    6.1374610573
   9.1879970912   11.0020079127    1.6953375704
  -1.6992747544   12.6919458658   15.7848451541
   4.6961257264    8.7910939618   19.2283346078
   9.5017721377   14.0419636322    7.4404985101
  14.4276620311   12.8708945652   13.9150623708
   3.9078951623    1.4018800879   17.2657277774
   2.1798201598    1.1385663497   19.2644709668
  -0.6911654605    5.4981498462    6.4679095553
   5.2432747784    5.4704376815    1.2913104033
  -0.1295671205    3.3328933202    4.5249977698
  10.3203415861   10.8936399861    5.9205951609
   5.3395752992   16.8900535505    9.8036471529
  14.8522647304   19.7003403570    1.8899161260
  13.1905202919   11.8711791168   16.5895415547
   3.0497781172   15.8197300401   19.0293318522
  12.7552237209   15.9511475933   16.5295083182
   6.4783393697    0.3242862455    9.8841175389
   3.5521315267   14.8705066864    2.5453730619
   7.4003857769   13.0677684304    2.2258828879
  12.8483636589   19.2892156260    4.3411630668
   5.6300180071   13.0866993920   18.9155020691
  -1.3930272223   15.9271791941   10.3938712311
   4.3607493248   18.9104093786    4.4926842962
   5.4821475750    1.1503271975    3.4068554698
  13.4176591826   14.7271563889   19.1266888114
   6.1306515188    2.0252238619    6.2254845357
  14.7401786996   17.7796135561   11.6942358953
  13.1104437643   15.0883142088    9.7806449054
   3.4946643892   15.1352804994   13.2018783184
   5.5046179965   17.5708044127   14.2672639400
  10.2352957869    2.5465396981   15.3514587136
   9.9786016586    2.6208196939   17.6484316032
  -0.4387059627   17.6153350997    8.0066076078
  11.1048738767   13.3200255842   11.2750496355
  15.2709432292   13.6123775287    5.5469849447
   2.2565955696   13.2577631930   10.5979514703
  -1.3716004996   12.0070579807    8.8861899719
  17.3853530522    9.3690148360    6.2057558452
  11.5744992254    1.2141992982   16.9139761224
   3.8079686178    4.8716900250    6.5492539164
  -0.2835113357   17.7716450076    4.4410409070
  10.0086662789    6.7432392266    4.8659865943
   8.5975964430    5.6497514357   15.4462325525
  16.8109138682   13.1902765224    3.2592330170
   2.6043806882   13.4741668338    7.4946202997
   9.6894631536    6.9005403841   11.9050393853
  14.5054261272    5.8826907576    4.3129418418
   0.0862830445    6.9685208901    2.2627944180
   0.3960146314    5.6205386574   12.1514974496
   8.6866510383   14.2626187460   18.5747833222
  11.3524642905    5.8239423831    2.4583676205
  15.0192292877    8.5376741412    2.9229672502
   8.3374543724   17.2227066570   13.3350550113
  17.4118592689    4.4146336432   11.1200895435
  17.0953200529    6.3410531731   12.3426954617
  17.9492891340    4.8198404514    1.0551984007
   2.8517185570   11.7676543178   15.1622719344
  10.9929498959   19.0681710834   14.1602203505
   6.5151261054   10.2011525412    4.6288213103
   9.5557754800   18.0241373652    6.8673573688
  10.6922925809   12.0319990132    0.6219292184
   0.2201630416    9.1122763742   18.4648469760
   0.2888657950   19.2105191176   12.0471170626
   1.3532168726    1.7924591613   11.5325119797
  -0.8415071748   12.2840790211    0.0381013162
   9.4590440058   16.5637268561    3.3769897026
  -0.0079986017   12.5980016061   14.4201720319
   3.7275758925    9.3748035723    6.1443160642
