B2 C140 Ca1 F48 H298 O66 
1.0
1.7812803378332458e+01 3.1340918134593781e-16 6.1187650067144802e-17 
-3.0078188256596943e+00 1.9261168848432774e+01 2.5568872814903580e-16 
-5.3711580178044105e-01 1.5841343395637857e+00 1.9456758353334298e+01 
B C Ca F H O 
2 140 1 48 298 66 
Cartesian
  10.0220974618    3.8283192391   16.7866131394
  -1.0491481749    6.5885214491   12.0981422418
  -0.0862748817    1.6035624994    1.5339050361
   7.1416670985   13.7448189986    7.1187622726
   4.7613299918    6.4940481782    1.0261370079
  12.5948851913   12.7267352442   12.3688692467
   4.3551451265    3.0427357110   16.3007785935
   2.1062070407    2.1291764962   18.2914464078
   1.4050002650    2.7418067871    5.4866650271
   2.5296330691    1.4997704541   16.9455528193
  -0.5883396870    4.0691677861    5.7743128553
   3.0048731969    6.6137463873   19.0991381013
   1.9264097447   17.4549415726   18.3173861064
   0.6867865866    4.0626899502   17.4555597972
  11.8487038560   15.9946866382   15.1211081207
   4.9477526038   10.0063372634    0.7595312782
   6.1500887065   17.2226267547    9.3725565194
  12.2660730144   12.2098095109   16.0454198612
   9.6092289530   12.1347050817    6.7514814871
   9.3157396424   13.7192051244    6.5535287760
  12.7872795257   11.8981134356   14.6625976159
   3.9196579001    7.8917303635    1.0749985396
  11.6515009708    9.9597096925   16.7759471670
  11.8001596486   11.7913764423    6.2080243893
  -0.0845487891    5.1351313343    6.7814205831
   0.8256486045    7.4238635995    6.9676094378
   4.5057371487   19.0732775359    9.5921140050
   2.0733854374   16.4323007733    1.1685799114
  15.8993761086    1.6811176593    3.0280870942
   3.5824858630   19.6711256938   10.8676717685
   1.3403935097   15.2090430316    1.5636609827
  13.0261854241   17.0515123370   16.9471761904
   5.3401052612    2.5993203142   10.8143451050
   7.4813582549   13.9303727935    3.0496085592
  14.6417152046    0.9049199821    3.4232327653
   5.8401488293   13.6549706678    1.0537939169
   5.3958431542   15.0564630982   19.0074983530
  14.8818791697   15.4481034967   12.1079776645
   1.9993334233   12.8354100131    1.8177952447
  12.7351274003   15.9934458317   18.0451553855
   5.5887697682   13.7153079661   17.1034300641
   4.9197613431   17.9113438580    3.9674448384
   7.1342657943    0.4806681649    2.7074910894
   6.2511662733    1.6338053015    2.6702740893
   4.1068860655    2.4226584443    2.1907642314
  -2.7056126273   17.2655039457   10.4817762590
   6.9404521326    1.2372649343    6.6628826549
  12.1831536973   15.1697765791    8.8751078382
  13.6624112021   17.7947501636   10.3440971286
   3.5495200001   16.1023351036   11.8788579775
  12.9044132002   18.5718489961    4.3368741933
   7.3614427290    2.8342837356   18.1442988911
   7.5947704498    5.2828359776   19.1391284448
   7.9100500549    4.3054681136   17.9136191170
   3.6995460568   15.7271790967   14.1949385059
  11.9122958950   18.9727785149   11.6358485778
  10.1266077975   14.9953491322   10.0884227432
   9.3806984643    3.5516496586   13.2487429935
  12.0420732677   15.7530912862    0.2237748067
  11.9131083669   13.5583361083    3.2628028864
   9.5121722122   14.7640332811   11.4559431391
   5.4481806950    3.2169066988    6.4635398434
   1.4414829105   13.1006919789   11.0905010990
   3.5430155911   17.0435715639   15.0871277681
   0.0114593380   18.5213585076    8.4832786489
  10.3271412483    3.8560220447   14.4223167757
  11.4169172112    4.8766092592   14.0247199312
   5.4198137293    4.7613606482    6.0391453939
   4.3598826955   19.3123375237   15.0763955860
   8.4814414800   12.5606479765   10.7137524744
  -1.5406119139   13.6143220658    8.7343768508
  14.9738614087   11.5867456913    8.7774267405
  -0.6863168012   17.0041564212    6.8457526567
  -1.7524074822   10.6718734836    8.1788584179
   5.7132030118    6.9424143177   15.4384336427
  13.4138230882   15.0873580540    4.4244051310
  -1.4590651474   17.9051922115    5.9129395389
   2.7752183864   13.7704707474    9.2789147748
  15.9104321433   10.3743419114    5.8127697720
   3.6240233361    6.3460428771    5.3343255659
  11.6786979813    2.8537786712   18.2758434124
   2.0610342648    5.6855694415   13.4245765784
   8.8253421521   20.6788940672   18.5441751958
  14.3878147734   14.0454608776    4.8996883250
   6.8061169897    7.6228985389   16.2031034047
   2.7096560733   14.5767065935    7.9731115009
   7.4876257592    7.3956358012    4.0292825900
  -0.6496006196   17.9297856412    3.8343390458
   6.9799318623    9.1541677295   15.9632475360
   9.5195443051    7.7268153835    9.5812480916
   0.3163025675    7.6674423972    3.3313175658
  12.9753583177    3.6691338825   18.6073946798
   2.1608307499    6.1469633353   10.6973506642
   1.2390165728    5.7807157879   12.0534102716
  10.7007485310    5.9802445023    3.0268478539
   9.3277195444    6.0106508073    3.7718553190
   8.6632117783   16.0106681639   16.9157429561
   8.5447846238    8.5460522634   10.5082192284
  12.1139471206    9.3223508392    3.8729580041
   8.4528249019   17.8207023211   11.8649559774
  -1.5322236725   13.2062990986    4.1461235087
  14.0675404749    7.1769980546    6.0480525565
   7.1317411592    8.7163405256   10.0318001364
  12.5653264720    9.8247421775    1.5549302705
  11.8880214451    6.3295253330    1.0913663343
   2.8072387268   14.5106652836    5.5059655334
  12.6334064025    8.7596087522    5.1354040239
  15.8329560876    7.2675986085    3.3049983070
   7.9116633744   18.7628885760   13.9231868748
   9.2014799761   14.0804404749   18.0364343714
  14.7898087674    8.3190890629   14.5743078401
  15.8334504317    8.3367578252   13.4079425043
  15.5893697698    6.1968327177    2.2033995818
  15.1040120616    3.4799465045   10.9752289464
   8.7257399812   12.9786754427   19.0332871704
  15.0969701554    4.9753647880   11.1508739757
   8.6171630481   19.5753796292   15.0276416278
  14.3995040010    5.7097802900    9.9055389387
  15.8152232323    9.6762160013   12.6754938475
  11.0894999719    1.2889780270    7.1495825129
   2.3892382477   10.4966064248   15.6315279815
  -1.7841164033   11.6553546255   19.2125074778
   0.9670808578   13.7792327685   14.9045376385
  15.3774712672   12.1852569465    0.6981546327
   4.5310712843   10.9816068426    7.3400723249
   4.7693041517   11.0232409814    4.1780665958
   9.1763394854   17.4154757269    6.1069959139
   7.8993634749   18.3224704556    6.0209129034
   1.5507337537   12.6468320407   15.8192915626
  -0.9106824885   20.2695523194   13.1348794810
   0.9227263829    1.6350840288   12.4897038414
   0.7805399005   18.4698516164   12.5472554245
   1.7227653004    2.3562844198   10.2162900918
   8.9148480521   11.1018933787    1.9869634982
   2.4498063285   10.2557490531    8.3108073064
   5.5996005279   10.4800149211    6.3600281550
  13.7032114340    1.5832262081   14.6485611192
  -0.7480315341    9.0677172995   18.5473962538
  16.6342665654    4.6656014176    0.5363137468
  -1.2614493199   13.4029910505   15.5598525014
  -0.3275005217   11.3196153212   19.2864269714
   9.6770593141   16.7926553110    3.7750702037
   8.3650795441    7.1122708723   13.5478846656
   7.3103550685    2.2033218502   16.9935576213
   8.3146741062    6.4213275015   18.8254326429
   9.1904410967    4.7142385446   12.5453871681
   8.1986922292    2.0350747866   18.9723609950
   8.6582192682    3.1351183294    0.8319168644
   6.1269338226    2.7997781526   18.7117292007
   6.2403473774    5.6201847027   19.3461817379
   8.1947230967    3.1246035812   13.7367286928
  12.1051946674    4.5495308889   12.8478977067
   9.7897209097    2.6210291154   12.3480034625
  12.4094708095    5.0551385548   14.9801284286
   4.5323494877    7.2475731436   15.8176949205
   5.9294573381    5.5554847460   15.6072984528
  10.8625438580    6.0682944550   13.7834674310
   5.8815043966    7.1026128118   14.0998580432
   2.9189534361    4.6659673214   13.3615503819
   7.9064634902   19.9059291432   17.9891746329
   2.8248362678    6.8562233816   13.5833154435
  10.7730515975    8.0546444573   10.0170632788
   1.3452749591    5.7924116012    9.6696233224
   6.7723565274    9.5828850081   14.6267393903
   8.1061366214    9.5971815317   16.4585162056
   1.2728335293    5.5803298281   14.5878800081
   9.5937110692    8.1620745318    8.2890913538
   9.1807988339   18.8717655681    0.4160708840
  13.9517314109    3.5276978552   17.6491303969
  10.0876567292   20.2046495239   18.0934378127
   3.2090290436    5.3009014973   10.7394870113
   9.1710399804    6.3684694330    9.5717454895
   6.4140348509    9.3297078817   10.9602868067
  13.9257307684    1.8333572573    0.4018824496
  12.6039804594    5.0168623348   18.7075118275
   5.9089897584    9.8817449829   16.6313070558
   2.6488766011    7.4246619338   10.5244127763
   6.4580409173    7.6806502638    9.4451988754
  15.0750336502    9.2751637773   15.4766230363
   7.2271276176    9.6740864650    8.9463531186
  13.8328182837    2.9379312745   11.2073265414
  13.5786622446    8.5779470752   14.1487540031
  14.5178173874    5.2040266759    8.6826951485
  15.4980793848    3.0879003556    9.7683945400
  14.8071230424    7.0637048821   10.0510961169
  14.7961006502    7.1444579206   15.2661584214
  -1.2661339202    9.5322789699   11.5836889312
  15.9560619589    2.9604058394   11.9367321307
  -1.4507226752   10.6472003567   13.4595246384
  13.0781358485    5.7859749310   10.1379792337
  14.5792490217   10.1165928873   12.2984909510
   1.1542422498    1.5593470531   18.3915854232
  11.8892949582   13.1930687001   16.1334895806
   1.7101710108    2.2732967185    4.5163073547
   5.3374431569    6.4279661051    2.0078007772
   5.4477283024   16.8989085753    8.5749470500
  10.1024692943   11.9516616639    7.7165326405
   5.5618652761    6.5700624750    0.1968009334
   5.2458489103    2.9741338521   15.5979586073
  16.4286796662    4.4909247811    5.1300815703
   0.0785712599    2.6358625204    1.6956342414
   1.0617755752   18.0138095509   18.1087033292
   0.2301069090    1.4478226215    0.5202048248
   6.4551649221   14.2949134719    7.8306939489
  -0.1276231335    4.4890845253   18.1427369171
   0.8036375190    0.9927378164    1.9800002683
  12.2934386542   11.6613564367   12.3045643272
  -0.5980760187   19.6755157019   16.8152810870
   6.8708918007   14.0220799627    6.0862390332
  12.8391567251   15.7789678737   14.6604255112
   5.7670284220   10.6355960385    1.0527977361
  13.6465311064   12.8207876451   12.1975448101
   2.4730247908    5.6591969135   19.0939932301
   2.2638369400    7.3427832071   18.6751696534
  11.2626359062    9.6765470248   17.7562343166
  12.1354074549   11.1422102885    6.9918554836
   1.0194594166    2.0194316890    6.2286763754
  16.9092257375    3.2351544064    6.3815647741
  10.2792921547   14.3241234991    6.5715965188
   4.6756155909    3.5285450972   17.2723953271
   4.9107874765   19.9968212274    9.1316052177
  11.4129285567   15.0749923268   15.7522265997
  12.2997957049   10.9662985605   14.3960279760
   1.8492933888   16.3941535386   18.1356070681
   2.7135188126   17.6430349313   17.5596421265
  11.0930757001   16.1770035996   14.3586135632
   7.1651514828   17.4975338351    9.0945229761
   0.1528109022    3.3090638988   16.7852531527
   2.7260469461   16.6886180731    1.9659590987
   1.1463493088    8.2938259256    6.4137540892
  13.0939038185   12.0402127223   16.7513104171
   2.2925737341    3.2617255840    5.9128680626
   6.3019021224   16.4562464803   10.2210483317
   8.5715457770   11.6708771577    6.6395146367
   4.0723315349   10.6961051247    1.0016701827
   7.2000789262   12.7151611965    7.3038137231
   4.5131848489   11.3992904641   19.1059294447
   3.8146977065    6.6999919734   18.3700359408
  11.9613305345   13.3259439274   11.6795232173
   2.7713490881    1.7456653876   19.1940879446
   3.5077098842    3.6105903507   15.9991382376
   0.9616485303    4.8244407120   16.8010417546
   1.8035350725    2.0315976996   16.2609949737
  16.6074104908    1.7415214390    3.8438390938
  15.8078874966    2.8414646363    2.8787457613
  12.6624474814    9.8324036780   16.7607836094
   3.0608366161    7.8504020248    1.8194157283
   3.5734721423    8.1246435565    0.1336336642
   1.8676365468    7.1892515513    7.4376473872
   0.6667404418    4.6334116091    7.2898115635
   1.4711425345   17.2841567793    0.8843494473
  12.5337294501   11.6065050614    5.3436203865
   7.2566965257    0.9598709156   11.5625094136
  11.7363685123   12.8663580243    6.6409996999
  11.0659719874    9.2661557195   16.1629401905
   9.0855653452   13.6589179523    5.4227225908
  13.9599210410   12.0043783985   14.5865806594
   3.8132032071   18.6237511746    8.8530353447
   7.1403421750   14.9089269610    3.5268939695
  -0.8914132095    5.5460907446    7.3508044084
   0.1809080996    7.9007004320    7.7111183698
   5.3274841523   14.5458410723    1.4476143487
   6.0907404058    3.2897107425   10.9784901824
   0.7855413941   14.8484665489    0.6763287698
  13.1040642741   18.0832901770   17.4288717122
  13.9824981165   16.8323630307   16.4924045898
   4.4778151305   15.3638726985   18.5127838644
  13.7576250255   15.6446767038   12.4108532878
   8.4932045627   13.7577974921    3.3542573024
   4.5727120886    3.0877956436   10.2857412860
   3.0637183128   18.8380363378   11.4334521831
   5.6261447072   12.6678584213   16.6982971520
  15.1625901423   14.3417472481   12.2678122911
  11.3415438521   19.4589065128    2.6788982903
  13.7794488900    1.5589706416    3.5786621539
   4.3985096504   17.1043183261    4.5551933938
   6.2019473414    0.9111730494    7.3494160459
   4.0845490728   19.0829263472    1.6697912538
   0.4849968004   15.3494022879    2.1896186939
   6.2352170068    2.2569295232    3.6256694248
   3.1251124316    2.0361695558    1.9499579597
  -2.2428149071   17.8198420224   11.2984190564
   1.0977041185   12.4853679777    2.3465349311
   2.1329836028   12.6955837232    0.6843883210
   6.9793351878   13.1218632995    3.6320970278
  12.5150051761   15.0970337743   17.5588097547
   4.9711613654    2.3740847455   11.8165818502
  13.5951227386   15.9510614046   18.7387159483
   6.3595116528   14.2978996621   16.5407013229
  11.9257307962   14.3278840582    8.2629513420
  12.8889266132   16.9616428714   10.3682928212
   5.4509140989   12.8064531302    1.6095316332
   2.9222835251   15.8539086651   10.9621695078
   5.8158523021   18.1907631654    4.4927554480
   4.5022671650   15.5997158449   11.7180233628
  13.2159489152   15.2219807467    9.0605808949
   4.4006569470    3.0423583407    1.3162909190
  -2.2197001142   15.9518939732   12.7448165629
   6.2798193707   15.6548628390   18.7414721171
   2.9620458283   12.4724108197    2.2976535124
   7.8899919170    1.2184564864    7.1307842755
   6.9770672650    0.5704200624    5.7835317652
   4.6000056022   14.2343617538   16.8507411534
   7.4649098264    4.7478918037   16.9999290122
  11.6167034397   20.0597808723   11.7443407543
   3.4217621025   14.9064541156   14.9150411421
   4.7895449429   15.5675695611   13.9232569073
   9.8377856704   14.0740418450    9.4219851922
   3.8004352265   17.1893765224   11.9111381313
   5.2812455446   17.6503334910    2.9627777641
   8.2657331284    0.8436627569    2.7735582039
  -2.2308802774   17.2141500373    9.5359531211
  13.9229055305   19.0359283796    4.3013507705
   6.5219481706    2.3893069637    1.9746195668
  12.6741129409   18.0002988983    3.4064942657
  12.9112572539   17.8141481414    5.1383920434
   4.1398952833    3.0087896015    3.1522794601
  11.9600224451   16.1056427056    8.2855375410
  13.4458591146   18.1287825171    9.2418036004
  10.0733340231   15.1718152625   12.4264754046
  -0.1658956132   18.7451228836    9.5383365942
   1.8081432584   12.1054126164   10.7740287537
  12.1492214715   13.9741814098    2.2605706909
  10.9738691169   13.1327578569    3.4176012780
  11.3066957159   18.4356006063   10.9870931121
  12.1531240094   18.2065340960   19.3000964843
  11.0237276783   16.1713745955    0.1274413099
   1.8960143358   13.4321764464   12.0646229539
  11.6368289925   18.6174654628   12.7053653457
   0.3878167305   12.9519381390   11.3274083207
  12.6013699542   12.7896827124    3.4820912401
   4.5940769933    2.7612760416    5.7801672439
   9.7824867909   15.9924716672    9.6366922469
  -2.1072589101   13.9935506377    7.7756957799
   9.1315432896   11.7614669894   10.3388338502
   5.1526172574    2.9542462159    7.5588829060
  12.1682324849   15.6183098620    1.3526969862
   5.7370637027    4.6466136343    4.9858984221
   6.0538145729    5.4316893049    6.5989139037
  14.3438265721   11.9648987270    7.9858235206
   5.1164334014   19.9613585004   14.5579506015
  -0.1992670320   19.3070452847    7.8253005253
   1.0932186367   18.2596186334    8.3547512478
   8.5056664070   15.0601348612   11.4658269062
   3.9933034018   16.8558424207   16.1144766019
   2.5400204981   17.3391634739   15.0093472601
  -0.5115982943   13.3180702728    8.3654046280
  -0.9951643019   11.3795659760    7.6858666498
  11.0383972896    2.9513906470   14.5927383776
  13.7882513313   15.7172225909    3.5437429415
   4.5934461367   19.2209631634   16.2152973682
   7.9841207679   13.0217574301    9.7733733332
  15.1984010408   11.1871364941    5.6126875548
   3.2998901957   19.8187276448   14.9794673051
  -1.2052998582   18.9587472796    5.7216126735
  -2.4675152899   17.8869948276    6.3251440245
   7.7014042507   12.1389935402   11.3169090662
   2.8911233018   12.6945097319    8.9884761024
  -1.4722581829   14.3986511068    9.5419909825
  13.3896589952   15.4335016093    5.4223693608
   3.5868240819   14.0514749782    9.9340602817
   0.3200910408   17.1528288322    6.5966072625
  10.9756457089    3.1501487396   19.1252871332
  14.3755424381   10.9842042534    9.4426528240
  -1.1558262673   15.9736861912    6.7676528609
  15.8978076346    9.5995172851    5.0661817166
   4.2195251047    6.4539079225    4.4800247674
   7.1693753872    8.4027907433    3.9047924786
   3.4828838438    7.1663416009    6.0388309994
  -1.1218983418   10.2419569068    8.9566730137
  13.9354580119   13.3340018348    5.6413351186
   0.2835124623    7.2235508700    4.2608298154
  -0.8076233750   10.7302135083    5.6814731955
  -0.8527913445   17.6349425512    2.8345936248
   0.3767485621   17.6844975728    3.9540955597
   1.8396363192   15.2310629861    7.9078015897
   0.6062828751    7.0459921280    2.4847734784
  15.1432416674   14.6085759589    5.5207087217
   3.4140107679   15.3520653950    7.9987922500
  11.2927379029    6.8226104893    3.4651590078
   6.7029150078    7.5162445221   17.2981008520
   2.6280388227    6.1632239116    4.9316319809
   0.9977921601    8.4562631397    3.3027580702
   6.8588523386    6.7441005810    3.3897401716
   8.2878073342   17.0259986897   17.1197248545
  11.2410802644    4.9762655072    3.2241862248
   7.4137318444    7.1209216078    5.1877121232
   0.7179844943    4.9330523467   11.6618121394
   8.1659722529   18.8185605932   11.3282586522
  11.5203375933   10.1157992703    4.2216791409
   8.4549607122   15.6195230234   15.8239620357
  13.4498296007    6.8899404063    6.8830073344
  11.3156948439    8.7955910805    3.2328605135
   9.2537727339   17.2557694227   11.3621241816
  -0.8894919855   18.9397375625    3.8754458364
  11.7579004567   10.6403004610    1.4361488994
  12.5911483121    6.8756692999    1.8392511863
   8.6137214842    5.2800066158    3.3681428149
  -1.2737219945   12.5929033826    5.0034020329
  12.0544799708    8.7669101962    1.4488803711
  12.2453692138    5.2088484170    0.9526833766
   9.7368360163   16.0673250454   16.7992279334
   9.6311669707    5.5454725029    4.6944769377
   7.5715330646   17.2315605340   12.0208502992
   1.7931115374   14.8699611838    5.2949415555
  -1.0202941420   14.1903605813    4.0313157012
   8.9315154155    9.5669104499   10.4599877004
  14.6718988600    7.9769310415    6.4426353237
  -1.0689781722   12.5874445694    3.3497186398
  14.8441995466    7.8274588315    3.4851100313
   3.4253644298   15.4607883123    5.6435190781
  14.6080471226    6.2936762659    5.7371502944
   7.2725619030   19.4274475545   13.2704115378
  16.2624262984    6.6497056994    4.1514542106
  11.7759742947    8.7827628229    5.7472514613
  13.3392580489   10.1319246811    0.8152699244
   3.0621168895   13.8134456438    4.6721491010
  13.3070559381    9.4728648190    5.4978957907
  11.8736358067    6.8881581340    0.1737024043
   9.3127308129   13.5382956981   17.0053731732
  -0.9744893453    8.2860061980   13.8598218503
   9.2625093886   12.0924661707   18.7426106808
   7.2168046109   17.9433891728   14.2665040621
  10.2126432343   14.4715570834   18.1291593652
  14.9492262569    5.4008575944    2.6239773438
   9.3158471316   18.8053374752   15.4201057429
  14.9815050591    6.6675638535    1.3224378868
   7.6573756715   12.5945448059   18.8326355696
   1.8096720681   10.0939275951   16.4225294353
   0.9876685659   14.8053862211   15.2860856040
  10.2499499720   17.8181197616    5.8590915134
  10.1503098685    1.8615938708    6.8759351706
   4.9409066114   11.0644295470    8.3827078373
   3.7328354267   11.0350052836    4.5955594277
  11.2481323565    1.5075641577    8.2060467304
  15.9260547373    9.3860600348    0.4367904153
  15.5951090020   11.8663314966   18.2363969338
  14.3929103382    5.1699721232   11.9306187208
  15.6661903794   13.3276723733    0.7895800344
  14.3772307044   12.0194760164    0.1463338175
  -2.7403709103   20.1187633753   12.0096418776
   2.6603043208    1.6536667186   13.7579279549
   0.0957835859   17.7307376684   13.0746662544
   0.9526589498    1.5993070835    9.7869462956
   7.8453255188   19.8951823308   15.8695549612
   3.9374957194   11.9023253807    7.0316251906
  -2.1589024272   13.9985304329   15.2006089884
   9.5518009165   17.8298165334    3.5758394136
   2.8969367385   10.4952681715    9.3222729818
   2.6145158089    9.7980404860   14.8942815277
   7.8888752102   18.9867883198    5.1647892717
  -0.2558396593    7.2215028831    0.1186183218
   1.5040521893   13.9445946343   13.9280940342
   8.9784396668   11.7549615493    2.8751003320
   1.8791423091   11.1340773545    7.9496753639
  11.4524494457   20.0340081947   14.4127103641
   5.0581381765   11.7995564387    3.4895464077
   2.5165170247   13.0074477457   16.1966386453
   1.5824061363   18.8194168711   13.2978823627
   2.6881050183    1.8470885860   10.0095164777
   9.3607380737   16.9333374186    7.0389332088
  -1.6169383319   12.4336198353   15.8040268545
  15.7966433063    3.8857001395    0.7199452901
   3.2784209729   10.8891498833   16.0000056875
  15.2076049632   11.8076179042    1.7282118990
  11.8771698938    1.3697282720    6.3820555691
   4.8202470908    9.9998589915    3.5433808866
   9.3232895647   10.1611245854    2.3267201988
  15.7049929376    6.9442783531   19.1889920570
   6.6225143473   10.4358718091    6.6716486345
  14.0955470369    2.3488722696   13.9447369014
  -0.2512506936    8.3578856464   17.7921248893
  10.7352604463   16.4530672032    3.6630906400
  16.0683643253    9.2954997598   18.2623922140
  -1.4476646201   19.4821459465   13.7262773092
   0.3559224727    2.2419734861   13.2081545251
   1.1126848265   17.9496888403   11.7101493874
   1.4480493063    3.2249755431    9.5053742057
   0.4350259545    9.4423458208    0.9305414122
  -0.2168665846    4.3162808871    0.2413399127
   0.3035003581   12.2064973813   19.1144772128
   0.7805272404   12.4986443130   16.5576822027
  13.9326186567    1.8612210047   15.7114865146
   9.0477953834   16.2542415052    2.9562792373
   1.7853559550    9.3996220064    8.2714055032
   6.9944160621   17.7373043523    5.9107864321
   5.2725409758    9.3903613984    5.9761434114
   7.8927772765   10.9520609274    1.8114515236
  -1.0191698190   14.0439982753   16.4243053254
   4.9431398293    8.8298118319    1.5319416672
   8.3730159403   14.3060360934    7.4482149146
  12.3346556513   13.0279782037   13.8229693468
   3.9859227162    1.7068908302   16.5466193157
   1.8588829167    3.5726363073   18.1860245350
   0.4827586228    6.3748373572    6.1229602754
   3.9409282240    5.3580039368    0.9079529546
   0.4408284056    3.6582517596    4.9639842817
  10.4597113300   11.4609638297    5.7721573455
   5.4264466365   18.2369831388   10.2128279065
  16.4998979707    1.0217882461    1.8147488907
  11.1920952730   11.3323022003   16.4212146007
   2.9767967362   16.1796217994    0.1010211177
  11.9356280684   17.2063997213   15.9185265891
   5.6295989495    1.3405931499   10.1299488018
   2.1391406455   14.2535997991    2.1062284453
   7.1967365364   13.8014546028    1.6311047936
  11.8696174828   19.5183879956    4.6460570140
   5.6770832945   13.7079396968   18.5173029372
  15.0286792167   15.7667181813   10.7083758489
   3.9502708537   18.9474905747    3.8551660084
   4.9705828442    1.2969266534    2.3354092945
  11.4438532923   16.3246437694   18.6908365010
   6.7702953090    2.5919718112    6.1963255300
  13.3233047982   18.7471660892   11.3499378840
  11.4881422249   15.2448183383   10.1528808104
   2.7910186615   15.7947583908   13.0696627149
   4.3882044604   18.0384479998   14.4107448155
   9.6576602106    4.2305715622   15.5669970427
   9.2609986439    4.0987079099   17.9041130665
  -0.7917175072   17.4663001967    8.2277340375
   9.4263350757   13.3013521759   11.5961387007
  12.1063655520   14.5387468728    4.2869421929
   1.5891708203   13.9860398215   10.0702751450
  15.5675396838   12.6118449787    9.4924381183
  15.6789860590    9.7502023240    7.1054945505
  11.2709598681    3.2224257665   16.9917955883
   4.0117074442    5.1051619230    6.0748490173
  -1.6398465703   17.1856526731    4.6834872060
   8.7824085020    7.3239720903    3.4919931788
   7.9334442836    7.0987951631   15.6747626040
  14.9557027231   13.2930299715    3.8292801389
   2.7243427627   13.7449456568    6.7209652368
   8.6845444385    7.8755082913   11.7144601504
  13.2499830234    7.4797813489    4.8638728284
  -0.9981859424    8.2148210008    3.0704320763
   0.2966757973    6.7721333470   12.4474573728
   8.2537690369   15.0486816835   17.8534330806
  10.5739956780    6.3053723352    1.6621320662
  13.1151693698    9.7152558199    2.9321360809
   8.9563163504   18.2004017471   13.1553757266
  16.4304940036    5.4370236528   11.3436004303
  15.7555902500    7.2729478321   12.5594077270
  16.8561675853    5.4852657588    1.7664876697
   1.6011918569   11.5854744703   15.0240228943
  12.3133731005    1.3300132367   14.3182913727
   5.7481078519   11.2171767772    5.1808512682
   7.7177236053   19.0869105148    7.1855064932
   9.6270448013   11.7361982076    0.9402508982
   0.0335304384   10.2401051082   18.3572306706
   0.0367772238   19.5719457156   12.1083851960
   1.3773859488    2.6716922565   11.5341585072
  -1.2143411633   11.4788918472    0.2247204230
   9.1384663735   16.3868635440    5.0488252963
  -0.3419884608   13.4267187527   14.4679739308
   3.5178742380    9.9501577865    7.3714204957
