B2 C140 Ca1 F48 H298 O66 
1.0
1.8950567919763269e+01 3.6997360036462829e-16 7.3590802256919372e-17 
-2.8151268248799934e+00 1.9780008973186511e+01 8.4470421241918785e-18 
-4.6667324001804095e-01 -1.0355474118228465e-01 1.9275126099379744e+01 
B C Ca F H O 
2 140 1 48 298 66 
Cartesian
  10.5650489665    2.1097683221   16.5997070783
  -0.9225926550    5.4343406823   11.8149382753
  18.7287332287    0.3302918644    1.1175224896
   8.1564337557   14.4034099234    7.2509827443
   5.6318317850    6.7331405373    0.8060514284
  14.5503467036   12.9458697146   12.5431477803
   4.0624500360    1.8035298503   15.8863059495
   2.6999171519   -0.0403716414   18.7418921005
   1.2027075385    2.9768023510    4.1233752622
   3.4620623583    0.1247858428   17.4066854636
  -0.3609006879    3.2123447695    5.8919588027
   4.1542827613    4.7375692453    0.5477620287
   2.5920828236   15.8136403468   17.7134247576
   1.3698506555    1.9226083222   18.4478519379
  12.7185007332   14.9279335496   15.4132077638
   4.6205929394   10.1559197819    0.3467075654
   6.2115276941   16.2407431131    8.9092064387
  14.2792530027   11.4577631307   15.7524204425
   9.2939982296   11.5671694925    6.6995136385
   9.9268770145   12.9177959084    6.6327150769
  14.0223959886   11.5287839758   14.2913158712
   4.5742966336    7.8024925805    0.6473496393
  12.2567364357   10.8062869077   16.8440246004
  11.4277833443   10.3699497013    6.7410619194
   0.2068991690    4.3281113114    6.6970417017
  -0.1543066143    6.8027736588    6.6474748661
   4.9217469738   18.1717564378    9.2948485761
   2.5287795669   16.1268332633    0.7494502928
  17.3694327189    0.6634218362    3.0716421909
   3.9981724361   18.7692475246   10.4271416861
   2.2284590214   15.0701138982    1.8345195146
  13.9440759432   16.1489485210   17.2070304621
   6.0314536698    1.1626741536   11.0154040380
   7.5941802694   13.0300814577    3.6509116500
  15.9019899823    0.5505274176    3.4669297847
   6.1500098982   13.7154235409    2.0339111555
   6.0948991019   14.2524589523    0.5908180026
  -0.8563836965   15.1342915538   11.4288886426
   3.2996373386   13.8094941081    3.4835223466
  14.2793573883   15.0061042864   18.0203575300
   5.6175221332   13.6501189789   17.6187727078
   4.6250921651   17.5187976539    4.3197622699
   4.7454285530   19.5857249296    3.3660627699
   6.9287821608    1.2131606472    3.4533694615
   5.0172603398    1.9665933420    2.1966737743
  -2.1195116989   17.0485906873   10.9510506897
   6.4118213384    1.0027594508    7.1021286179
  13.3955899635   14.2997941813    8.6734505632
  15.4056757828   17.1987996356   10.4775266467
   4.2084761892   15.2750662950   12.0240661225
  13.6426904051   18.2030759655    4.1780332705
   7.6332821975    2.3890031972   17.9297959688
   8.8206804311    4.3964932308   18.7042653161
   8.7452707681    3.3074942290   17.6847979582
   4.1536342154   15.4589467760   14.3614147829
  13.3980994917   18.0662942061   11.4126824192
  11.6865973584   15.3464033331    9.8964636430
   9.9341719082    2.1880094329   13.0268094854
  14.2197884786   15.5969863201    1.0563448522
  14.0751548763   12.7975999353    5.5409577078
  11.0415483284   14.7675758068   11.1813672406
   4.7701319052    2.6735743677    6.5222289919
   1.7138045774   12.5122850202   11.6754002566
   4.1793021514   16.9285581074   14.6396645643
   1.0233576705   17.9340510823    7.9101207386
  10.9856133888    2.1230310473   14.1748721882
  12.1558412597    3.1238723845   13.9197429586
   4.8730700369    4.0983375966    6.1140171247
   5.4030645651   18.9718234708   14.2219497487
  10.2666235028   12.4914599408   10.3969754986
  -0.7053899622   13.2597204564    8.3999842755
  16.9521901125   11.1862020596    7.8394846893
  -0.9071744809   17.2727306886    6.6783242236
  -0.9480734040   10.4317486932    7.0040528714
   6.4125934741    6.1172250985   14.5881671546
  15.2602094516   14.4286109522    4.4739322962
  -0.7199886485   18.3738475715    5.7084705859
   3.0602619356   12.4947501912    9.7033491908
  16.8411039529    9.9179727411    4.9431643094
   3.9727697821    6.3441382375    6.3278239810
  12.0822452179    1.0340446113   18.2516391452
   2.5905709281    4.6678623476   13.1525044470
  10.0766356692   19.5206636397   18.1836430227
  16.5154243477   14.5319145939    3.7071623024
   7.5273084338    6.4437616201   15.6641619083
   3.5371851212   13.4460632827    8.6737053305
   8.9204938791    7.3961930132    5.5794976783
   0.2199155966   18.7887915586    3.5457035580
   8.0871846617    7.8459309403   15.5355442380
  10.6789562135    7.2946466455    9.8258788793
   1.1868827873    6.1382390641    2.6332536653
  13.1044937080    2.2543312752   18.4939997799
   2.2231315244    4.7692657557   10.5920886427
   1.4558679109    4.6726381725   12.0127657276
  10.8152002119    4.9715613826    3.5062071159
   9.6291580846    5.5611208207    4.1286482157
   9.2932844073   15.5789668231   18.2347086249
   9.7195642460    7.7635759815   10.9160316412
  13.6643978779    8.0776768362    3.4319778227
   8.6997368894   17.8031761316   12.1441362357
  -0.6568462294   13.2380724574    2.9359634161
  14.7579412534    5.0291872347    5.4589158450
   8.1775683447    8.0382282808   10.4220228561
  14.7714457045    9.6366936471    2.0399377877
  12.4582622450    5.2602528144    1.7845466334
   2.7082542641   14.7823785619    6.8802879442
  13.8223080694    7.1141590072    4.6145884833
  17.8059419703    6.4273743809    2.8015513742
   9.0025929144   17.4249773143   14.6199462620
   9.5054124623   13.2712617656   17.9577235437
  16.1431828433    7.4482777287   14.2515990022
  17.3951640895    7.3109440275   13.3006117014
  16.9879946514    5.6894637870    1.7651422605
  15.6417945278    2.8374908884   11.3710244784
   9.3121600081   12.0285573007   18.7013603730
  16.0055144335    4.2467979268   11.0617619036
  10.5373861011   17.8026128865   14.6522921185
  15.7186281970    4.7024575139    9.5950246011
  -1.0612520133    8.5904997530   12.4869298691
  10.7327030673   18.7731656940    6.9921976038
   2.9504546089   10.2727173909   15.1898737922
  -1.4160122763   10.8005127221   18.9921824803
   0.9461983186   13.2666905429   15.2552834765
  16.8243016242   12.9372103017    0.1384965023
   4.7683000619   10.2481155220    6.5073214427
   6.0853814475    9.2236938128    3.6186898391
   9.9938573856   16.6509927579    4.7019830485
   9.1775941807   17.7350671292    5.4358843777
   1.9119469464   12.3164826757   16.0111171365
   2.7774132018    0.4552501242   13.0134288648
   1.4782241648    1.0765496571   12.7330443474
   1.1478529975   18.1522299472   12.5301158791
   0.5623795857    1.2645949169   10.4907582198
  10.2624862994   11.0060054254    1.5679234041
   2.5088468489   10.0386488423    6.3913636178
   6.1974859522    9.7505976577    5.9730967801
  12.3028975106   19.3427486693   14.5359600740
  -0.6856361667    8.0358101053   18.3640985663
  17.1954027381    4.1235969390    0.0684808255
  -1.1424173583   11.9721054656   15.1460846760
   0.3300247530   10.2103693916    0.1187822241
   9.6784666507   17.6178374553    2.4543312681
   9.6990091755    5.7712204141   13.6149531769
   7.5004899265    1.6820236842   16.7251245617
  10.0050147754    5.0225186682   18.5654301997
   9.3514809807    3.5571979537   12.7767629790
   7.9042256485    1.5014667718   18.8339149334
   9.2875877700    3.9646079196    0.6706834766
   6.3971660384    2.9936105625   18.2083602092
   7.8631688267    5.3351714581   18.5860650951
   8.7716085224    1.6555350969   13.4077784117
  12.5633930283    2.9629034482   12.6321269083
  10.2493459015    1.6880895421   11.8420487259
  13.1893771154    2.8568449850   14.7414167876
   5.2606058445    6.8021587357   14.6220438230
   5.8947344439    4.7831220475   14.8141572984
  11.9514755736    4.5105991509   14.0270373651
   6.8588581316    6.1746775177   13.3089837904
   3.7062910560    3.7895427646   12.8999641192
   9.0780504885   18.6220173696   17.9394220236
   3.0731057076    5.9273965828   13.3227606286
  11.8367041886    6.7730063882   10.4209719820
   1.3743347613    4.9640154961    9.6049871490
   8.6362619692    8.0538860643   14.2990207559
   9.1034320938    8.0089126740   16.5133771175
   2.0556013688    4.2443058345   14.3193100065
  11.0818227618    8.3008912640    8.9005196541
  10.9487859294   19.3330563197    0.1287749963
  14.2221227890    2.1002354351   17.7413315899
  11.0398701360   19.3821231255   17.2989508714
   3.0170182475    3.7771428149   10.3632348140
  10.2572072600    6.2753745041    9.0704844815
   7.4631474383    8.3651657929   11.5501138809
  14.0292913479    2.5352439591    0.5066330934
  12.5659082914    3.4339003318   18.2139131485
   7.1264531509    8.7734291685   15.6925006154
   3.0339217595    5.8922354310   10.7560744394
   7.6901313434    6.8889874439    9.9931008779
  16.4619075153    8.6230559600   15.0203791360
   8.0274775929    9.0772898910    9.4716185614
  14.3570796610    2.5498111181   10.9507653462
  14.9994180690    7.5447819004   13.6890610295
  16.2686812451    3.6803523041    8.7864798756
  16.3663185938    1.8264979675   10.7828400172
  16.0087752902    6.0061272461    9.2346482218
  15.9977176284    6.4077379388   15.0841255701
   0.0436735505    8.1200863893   11.7754879996
  15.6699276581    2.6293582139   12.7138503232
  -0.7620276019    9.6734655658   13.2647076833
  14.4092093798    4.6553883039    9.3530846250
  17.0000032328    9.0141599046   11.6498975786
  -0.9135002518   18.9981743227   18.5459560084
  15.1213095461   12.1557620368   15.9397077282
   1.3127333718    3.0873311180    3.0127405382
   6.5363406269    7.0586017113    1.3450875859
   5.8579479850   16.2159181687    7.8813392179
   9.1349880400   11.0955648043    7.6665993670
   5.5908162552    6.4345856235   18.9684779885
   4.4158279665    2.7180849910   15.7103768293
  17.5058688753    3.1222601442    6.2103951808
   0.4855176702    0.8927815679    1.7078612514
   2.4838047620   16.8272046147   17.2698613372
  18.5296004307    0.9108450622    0.1555050667
   8.2100831519   15.4855462354    7.4558261654
   0.8208985605    1.3847782930   17.6483709301
  -2.5499368951   19.2002327429    0.7501332853
  13.6517251075   12.5616644124   11.9712585145
   1.4612828746   19.1694264657   17.2657608541
   7.9570662059   14.3658473003    6.1687929224
  13.6851024229   14.7134555442   14.9502088866
   4.9213127014   10.8607273046   19.2241640396
  15.4503976257   12.4693197554   12.1247242914
   3.8751779606    3.9359602989    1.2379035055
   3.2850832329    5.3946722803    0.3777010627
  12.6501244530    9.7640802253   16.8638346568
  12.2027391314   10.1964593854    5.9525045647
   1.3359444229    1.8821247583    4.3105883383
   0.1617093150    2.3144653957    6.3877779814
  10.9893914309   12.6522379065    6.8877140023
   2.9987326304    1.7212125251   15.4331586305
   5.7965362260   18.7542255881    9.1725424647
  12.5047468238   13.8322081862   15.7942663281
  13.0057237284   11.2633174130   14.0330234558
   1.6684786238   15.2532642525   17.5457188791
   3.4147778071   15.3401948781   17.1288745767
  12.0569482556   15.3046619053   14.6727614670
   7.2014978530   16.7617146499    8.9485375264
   1.8886682673    2.6065842390   17.9494995716
   2.8003137306   17.0596358426    1.2916789997
  -0.9379395059    7.5368827037    6.4424577705
  14.6477344655   10.4558054647   16.0777077347
   1.9678465947    3.4811960605    4.8041227228
   6.3290722989   15.2263447011    9.3327935235
   8.4236322721   11.3592592153    6.1264947630
   4.5471090229   10.1264349191    1.4236816641
   7.3748659768   13.9307081068    7.8549027395
   3.2281902112   10.1998818536   19.0479807474
   4.0969256745    4.2802803023   18.9073111245
  14.5327009974   13.9624560876   12.2530514041
   1.1663777255   19.3722903937    0.1881932899
   4.7764609332    0.9658866978   15.3554556814
   0.7453133660    2.4085214511   19.1251637469
  -0.0642433255   19.6631002913   16.6021848970
  18.1005752981    0.3309413695    3.8186624947
  17.5038447178    1.7028816571    2.7905818034
  11.3604694875   10.8144241597   16.0186716109
   4.1659714251    8.2130083744    1.6337646534
   3.7159150901    7.3731777655    0.1336199353
   0.7320542616    6.7421302849    6.0803880835
   1.1167231139    4.7892303326    6.3578451448
   1.5747142417   16.3236266981    0.1134398027
  11.7699972376   11.1230932048    7.4865088905
   4.5765313060   18.7555596112   11.3136691092
  11.1146475534    9.4043523983    7.2079103345
  11.7698012546   10.9023073517   17.7702193574
   9.9631760858   13.2092655106    5.5609896484
  14.7432452431   10.8269888721   13.6409840037
   4.2408263336   18.0416392351    8.3995737386
   7.8429651906   14.0510262380    3.8529085545
   0.3731894327    4.0908525168    7.7609593017
   0.2527585521    6.8637523069    7.6102808099
   5.8185995506   14.5380531525    2.7276712215
   6.9112170365    1.4057472091   11.6056645178
   2.1247592970   14.0055175070    1.3729999956
  13.9125190294   17.1339103357   17.7394903711
  14.7737844358   16.1364677365   16.4213239535
   5.2105169141   14.8677181409    0.3924661286
  -1.6206389159   14.8825127167   12.0921324350
   8.4322278848   12.4043068502    3.6235061853
   5.6030060663    2.0040457238   10.4858100658
   3.0923464653   18.0605049976   10.5378948528
   4.9658550769   14.4943630113   17.5528039307
  -0.5268543772   14.2068181083   10.9616695874
  15.5299657994    0.6616127573    2.4532504474
  15.7681484338    1.6045335469    3.9879713384
   5.6897831330   17.2886342596    4.2944178014
   6.6375186744    1.4237082780    8.0495033710
   4.3295737721   19.0138668031    2.4449730743
   1.3275274773   15.3247595238    2.4126889873
   7.2412467105    1.7937523151    4.3015312183
   3.9701823021    1.7010389891    2.1121583700
  -1.9277644254   17.0207614325   12.0410472652
   2.6497019182   13.9990954481    4.2884772289
   3.0670201419   12.8326189315    2.9506417433
   6.7781340030   12.5598530772    4.1717248765
  14.2222375819   14.1956636252   17.3476155132
   5.3890876812    0.5796745977   11.6438183763
  15.3058520546   15.1917806381   18.3720078430
   5.1973822224   12.9423892594   16.8975209827
  12.4839436317   14.3310159744    8.1304561093
  14.6935941561   16.3458074321   10.0937624061
   5.3610810585   13.0377220980    2.2576151022
   3.4903761388   14.9832650569   11.2647948365
   4.3068495773   17.2303667169    3.3362882086
   5.0664680299   14.6027526340   11.9155985133
  13.6290081811   13.2453436660    9.0626165285
   5.6829875527    1.6168174875    1.4027442353
  -0.0411297282   15.6191771341   11.9873867193
   6.9614305916   14.8937103796    0.4164417254
   4.3136872779   13.5388802893    3.8667004972
   7.3137574405    0.5259070696    6.8385167193
   5.5774127080    0.2491224748    7.0514896220
   6.6716410449   13.9787733150   17.3636030126
   8.4840332557    3.8787135701   16.7422432222
  12.9415294386   18.6118080112   12.3256021852
   3.5130136726   15.0969774087   15.2745659996
   5.1684913028   15.1299474329   14.3754554268
  11.3336081622   15.0652105889    8.8482575620
   4.4652043251   16.3548990128   11.7747328279
   4.0587335483   16.7918453050    4.9526645069
   5.8114123315   19.6985135660    3.2801429005
  -1.6976714437   17.9794316466   10.5581793969
  14.3183365604   18.2497056508    5.1679811514
   7.2863638413    1.8630605232    2.6297015744
  14.2559912997   18.2022042473    3.2530784403
  13.1463097544   17.1936326162    4.2462984729
   5.2244249649    3.0108001908    2.4741514500
  14.2963409155   14.5867331192    8.0573237964
  15.3447772769   18.0560486780    9.6628263695
  11.5504344757   15.2473711357   12.0637322872
   1.3247218389   18.7814480364    8.5925958547
   1.0332957277   13.1518562547   12.3459205254
  14.0945671228   11.9333299622    6.2840041300
  14.0820060691   12.3058081741    4.5478969682
  13.3247035027   18.7918312320   10.5693334510
  13.7550194071   15.2009804416    1.8712093142
  15.3146820024   15.5541674718    1.3683412805
   1.1697414074   11.5139820559   11.5496115491
  12.8134246274   17.2047327143   11.1818328754
   2.4151482122   12.2638928745   12.5384466008
  13.2405198626   13.3690931850    5.6682249311
   4.1043624937    2.1402871202    5.8682496930
  11.3979840829   16.4053782707   10.0481923120
  -1.0813347777   14.0679548134    8.9911675974
  10.3752899222   11.4914504363   10.8852948757
   4.6217729966    2.6390135165    7.6473583770
  13.9068984250   16.6500378060    0.9103926179
   4.9704910063    4.0520379558    5.0064559662
   5.8309964930    4.6270312670    6.3676199725
  16.3376027372   11.7857419173    7.1792464538
   6.3018017432   19.3500664788   13.7127074713
   1.4479205675   18.1092879791    6.9209038382
   1.5209967356   17.0670428264    8.4361106042
  10.0104947953   15.0933035268   11.3016683052
   4.0380186987   17.2120635307   15.6739655542
   3.3808959991   17.4294371148   14.0039648849
  -0.8651113168   13.4564898259    7.3575848209
  -0.2725860450   11.1429146091    6.4919743091
  11.4473762573    1.0818242988   14.0149472939
  14.5660810076   14.0533642429    3.7886457847
   5.2837077259   19.5491359403   15.2389941198
  10.7658786881   12.6086548307    9.4341027951
  16.9116459128   10.9832200076    4.7972680753
   4.3699135716   19.2035737851   13.7197939819
  -0.0555223685   19.1845602422    6.0534533622
  -1.7046285882   18.8104198475    5.5686504004
   9.2494470155   12.9229563290   10.3039649343
   2.5481730835   11.6105846818    9.2412640198
   0.3876710754   13.3097470901    8.6664910230
  14.8653939415   15.4430041152    4.7607925727
   3.9560200360   12.0788860063   10.1741410582
  -0.2673868295   16.4217271314    6.2656920584
  11.2823713086    1.1387086039   18.9336709922
  16.4568105624   10.3897781425    8.3686698852
  -1.9162965221   17.1253273301    6.7504302037
  15.7511736148    9.5828725574    4.8751532760
   3.2396768817    6.8566950418    7.0741826618
   9.2699308580    8.2820731539    6.0767160768
   3.8119590893    6.5725143860    5.3249100513
  -0.4703616682    9.8367018360    7.7794177255
  -1.5481866249   14.8681295539    4.3081961740
   1.0596242998    5.9350848844    3.7237676374
  -1.4490960790    9.4533886896    4.1938078653
   0.0302428634   18.5157478947    2.4143385490
   1.2970897987   18.9581925745    3.6487166667
   3.6531156559   14.3084093938    9.2636140985
   1.1584411414    5.1740157780    2.1542193724
  16.2564278219   15.2208515672    2.8714268790
   4.4622673329   13.0873360095    8.1723349983
  11.6610300312    4.7088048560    4.3094750407
   7.0324409129    6.3832029549   16.6363278482
   5.0681007333    6.5963393600    6.5702741138
   2.0951850784    6.7082696044    2.3630264209
   8.3575449049    7.8622617861    4.8336161124
  10.3942174659   15.4405581179   18.6970840616
  10.5170256097    3.9394352763    3.1564293197
   8.3635408473    6.7022593059    6.1739730904
   1.0960605994    3.6631771008   11.9589789016
   9.1539767804   18.8235044254   12.3717704846
  13.0125511581    8.9634763107    3.8403136749
   8.7620859548   16.4304475732   18.6436904937
  13.8531665495    4.6513650903    5.8802172208
  13.2070709318    7.5013368707    2.5799515039
   9.5499781915   17.2889463322   11.6328762616
  -0.3646289462   19.6936535681    3.7410252782
  15.5407011199    9.5832078885    1.1675612193
  13.4967285001    5.4333319858    2.2666991602
   8.8535664471    5.7083333944    3.3831975244
  -0.1374172016   13.3240458852    3.8894803704
  15.0008761124   10.5164845576    2.6545049472
  12.4163543818    4.2208390683    1.6630924878
   9.4421383720   15.7840354476   17.2063667363
   9.1407622816    4.9007625658    4.8609956742
   7.7660971401   17.8277025571   11.4587597343
   2.2975350701   15.5585325468    7.5809309450
  -0.4310590551   13.9732323286    2.2093933720
  10.1664655718    8.7341604244   11.0874338204
  15.2023333567    5.6001774380    6.2496715265
  -0.4628825702   12.1719388631    2.6092716463
  17.2173546638    7.3014178115    3.1757747148
   3.7272508690   15.1365631058    6.6326075782
  15.5462860968    4.3306151647    5.1089272517
   8.3987016074   18.2018764881   15.2077831067
  17.9607947292    5.7460622652    3.6647655288
  12.7779395835    6.8783771939    5.0371544294
  13.7122296563    9.5370289010    1.6542869958
   1.9952195523   14.6303552053    6.0379944584
  14.5071709882    7.6011936673    5.3902489049
  12.4493821773    5.6855109920    0.7492074380
   9.1379173948   13.2084931621   16.8949450005
  -0.6865317773    6.8543358954   13.8427916639
   9.3631313494   11.0746812673   18.1222329764
   8.9806951474   16.4531478206   15.2438985400
  10.6172834485   13.6000530528   17.9567005189
  16.0641395842    5.2298897126    2.2212234376
  11.0996399805   17.0236184660   14.0359174680
  16.4968115594    6.4621827690    1.0648686730
   8.2437116713   12.1207730418   19.0260650268
   2.9898619720    9.8012712208   16.0990950289
   0.4772747796   14.1255194647   15.9122583237
  11.0498575475   16.8671281397    4.7776262547
  13.3367250316    0.1007523235    7.0363023254
   4.8911874161   10.2575059082    7.6373435543
   6.3776851680    9.6458771927    2.6753921901
  11.2479224972   18.6521649238    8.0213843118
  17.1448220825   10.4776449802    0.3292730898
  -1.5667395064   10.8820053726   17.9200924622
  15.5751754287    4.8944078141   11.8123550007
  -1.8960238644   14.0472121306    0.1763781936
  15.7474306312   12.6490129341   18.4550144976
   0.6661369978    0.2673568227   12.7072248635
   3.6077591230    1.3245855190   12.9141348350
   0.7155875372   17.6167816864   13.4401373813
  -0.3450571450    0.7298849826   10.8365593440
  10.7959733789   17.6021609123   15.7213529130
   4.5806030624   11.2984165866    6.2347956681
  -1.8385147569   11.6981147310   14.3336052377
   9.3848634272   17.2526809303    1.4616086503
   2.4469294155   10.3929781328    7.4885152609
   1.9794412155   10.0107855402   14.7249619648
   9.2754420505   18.6696917128    4.9527638435
  -1.6178563275    8.5083347317   18.0905691280
   1.5448172267   13.8844698129   14.4807621807
  10.6619029178   11.3822327142    2.5155326919
   2.4101847002   10.8225387148    5.6207088609
  15.5613509504    0.4611718795   14.1005937178
   6.5039379394    8.1865513427    3.8398381525
   2.3970658348   12.8489105818   16.8898084770
   2.1053828032   18.5571644223   12.8349001724
   1.0535843794    0.4762053632   10.0302213591
   9.8672218714   15.5879849515    5.0769140383
  -0.8676133240   11.0562788347   15.7364386948
  17.0713733942    3.0475772381    0.5637019847
   3.7260627708    9.9706818941   14.4976414448
  16.2700460422   12.5501903259    0.9538034552
  11.4913992965   18.6343131449    6.1859773106
   4.9828607131    8.9761216283    3.8031917845
  10.5648286296   10.0613014334    1.2667548213
  15.8646772402    4.5415910092   19.0351772641
   6.8100537297   10.2683992338    6.7017581867
  12.3539886825   19.5687073092   15.6211838261
  -0.3269023584    7.6167394842    0.1135406557
   9.1491227554   18.4847705009    2.8021422127
  -0.3322772925    7.2962098526   17.6878010384
   2.5768252376    0.0885145908   13.9897643311
   1.1984898159    1.7738359195   13.5870412240
   1.3207301199   17.4520963760   11.6433472943
   0.3221197930    2.1548850160    9.8796867804
   0.3447523987    9.8465523451    1.1103494862
  17.4148786560    3.8824931490   18.4713547155
   1.0732005147   11.0176960137    0.0526054947
   1.2741966092   11.5694019202   16.4892057358
  13.0119021908   18.4394256587   14.3767401150
  10.8220608708   17.6922927162    2.3525090912
   1.6871499690    9.4041788827    6.1175437148
   8.2092621891   17.5339088434    5.6063391522
   6.2999840582    8.6449364790    6.1190441884
   9.1396675577   10.9883462721    1.7113262467
  -1.6504492551   12.6711581741   15.7970829916
   4.7210353126    8.7908919683   19.2238998217
   9.4922321698   14.0428072665    7.4506786944
  14.4336559048   12.8802092963   13.9214444404
   3.9311663888    1.3947367509   17.2644464622
   2.2077540364    1.1273621882   19.2697638472
  -0.6876429247    5.5007491279    6.4591953513
   5.2249354451    5.4590803256    1.2978414622
  -0.1309531052    3.3355490687    4.5262763125
  10.3024216862   10.8982619181    5.9253607094
   5.3393980174   16.8735066344    9.8058717198
  14.8356317873   19.7006992873    1.8978994646
  13.1997824355   11.8709305700   16.5909000099
   3.0420671411   15.8072970318   19.0587255029
  12.7449623717   15.9473688368   16.5323374185
   6.4819709901    0.3134942470    9.8983741030
   3.5322451967   14.8645969452    2.5381984986
   7.3944824011   13.0672359550    2.2237390834
  12.8165477670   19.2748799213    4.3377330805
   5.6411020512   13.1035062110   18.9294105439
  -1.4085252212   15.9147307712   10.3901870719
   4.3472296789   18.8880462614    4.4870623532
   5.5038781474    1.1518779776    3.4181615215
  13.4193139726   14.7091174278   19.1480828606
   6.1285427707    2.0201138702    6.2397711612
  14.7346704392   17.7848641146   11.7051508041
  13.1008161661   15.1011339304    9.7822305952
   3.5020225734   15.1476887098   13.2212911987
   5.4915367104   17.5669867287   14.2846952888
  10.2500291715    2.5362646487   15.3672942354
   9.9729421131    2.6017733865   17.6599142376
  -0.4640595802   17.6283232930    8.0182409351
  11.0989465842   13.3147416758   11.2904471347
  15.2765243707   13.5919204319    5.5523749696
   2.2402313214   13.2440504767   10.6053229910
  -1.3769227295   11.9837907433    8.8974208176
  17.3887521229    9.3620255556    6.2159147686
  11.5919887831    1.2278610764   16.9233657800
   3.8022023739    4.8774009398    6.5591091498
  -0.2981601932   17.7797962040    4.4525538277
   9.9926924790    6.7229822584    4.8573912315
   8.6154808305    5.6630061651   15.4468896614
  16.7969737027   13.1891679834    3.2472938624
   2.5808043084   13.4717150202    7.4955429819
   9.7057778131    6.8924333599   11.9133557802
  14.5215798172    5.8711280013    4.3106939762
   0.0747087668    6.9663201222    2.2545759770
   0.3964130547    5.6108603566   12.1530551057
   8.6801212666   14.2576294960   18.5859591192
  11.3455730053    5.8401442076    2.4596974228
  15.0072792837    8.5220636762    2.9216904130
   8.3341180354   17.2220163782   13.3263089803
  17.4120340903    4.4277039826   11.1283369891
  17.1027607421    6.3386635123   12.3451588375
  17.9467942160    4.8188517199    1.0466420399
   2.8576010722   11.7706000597   15.1667741237
  10.9719579461   19.0663639539   14.1641876994
   6.5009226648   10.1992154759    4.6304278063
   9.5474398793   18.0054467561    6.8623366390
  10.6843198757   12.0188597533    0.6214022463
   0.2356640007    9.1173634477   18.4803420006
   0.2886075140   19.2000476502   12.0713155370
   1.3593138234    1.8061221069   11.5380673526
  -0.8503505669   12.2776918534    0.0650394108
   9.4418771296   16.5639141634    3.3792087954
  -0.0063699120   12.6130993671   14.4223614466
   3.7229175960    9.3864501677    6.1541629071
