B2 C140 Ca1 F48 H298 O66 
1.0
1.7833987018823006e+01 -1.9363568391047232e-17 -7.3866983152975146e-17 
-2.6851772202458966e+00 1.9229504747286210e+01 1.8875422232886505e-16 
-1.0293852056040247e+00 9.5730371114031276e-01 1.9479388837926525e+01 
B C Ca F H O 
2 140 1 48 298 66 
Cartesian
   9.6776362196    3.0856575463   16.8713972657
  -1.2914077387    6.1085246513   12.1580463131
  -0.0995677393    1.0421908973    1.5658684334
   6.9096392321   13.7187514719    6.5853407480
   5.0623231426    6.2322473633    1.4031974218
  12.3402364048   12.5405677713   12.6091807779
   3.6984333082    2.3930877023   15.5115874571
   1.6851712075    1.9097627304   18.4325602943
   1.3946224555    2.8199986412    5.4604928003
   2.1152536202    1.3872057645   17.0935601103
  -0.6594755353    4.0193066612    5.8738515653
   2.9253649930    6.0806715474   18.9152648332
   1.7404306993   16.3220587180   18.7583307227
   0.3053454334    3.8578213907   17.6691747753
  11.7239136178   15.5907278773   15.2339240845
   4.3756888267    9.5985719182    0.5347869705
   6.3920418119   17.1973626187    9.3127926758
  12.4053293672   11.7537073233   16.2885445529
   9.7392261566   11.8936735537    6.4238930205
   9.3729326989   13.4263518434    6.2463587755
  12.7215288053   11.5146495538   14.7812891659
   4.1478194827    7.3569374321    1.2317122750
  10.7118424560   10.2215117139   16.8096197584
  11.9817508836   11.4722008920    6.5610866692
   0.0024308616    4.8731235342    6.9130129840
   0.5248887052    7.1847784272    6.8430086719
   4.4524775451   18.4747036893    9.6103930661
   2.5231417207   16.0542278289    1.6152791415
  16.1992284422    1.5803114574    3.2410797480
   3.5194043502   18.9000548034   10.7258666899
   1.7791590985   14.8183402658    2.0576022178
  12.9182203934   16.6057057047   17.0333394290
   5.2204189823    1.9359594250   10.8964945811
   7.3704165034   13.6786789563    3.1048139081
  14.8992453828    1.1190423789    3.7955386765
   6.2904829964   14.0105787103    1.0132091939
   5.2667403849   14.8169178145   18.9900431162
  -2.5008388758   15.3506332973   12.2536777302
   2.3607311317   12.5727344790    2.1160900898
  12.5030244883   15.5692156975   18.0920670562
   5.3683638632   13.1873494007   17.2807324516
   5.1822736109   17.7443521870    3.5338074672
   7.1157575465    0.4881616570    2.4081336354
   6.0747916015    1.5025932689    2.6690189400
   3.7130585660    1.7391682021    2.5945779786
  -2.5449721479   17.1070039302   10.6603769648
   6.5000126832    1.2564314389    6.2622674950
  11.9001223078   15.0211070980    8.9226829553
  13.7014450722   17.2629173800   10.7027168762
   3.5196317483   15.4630926796   12.0962425730
  13.0455321365   18.2441318820    4.0316258537
   6.7546989736    2.3593694280   18.3624335702
   7.3285909121    4.6955960713   19.2303284783
   7.5193510594    3.6865004724   18.1107920362
   3.5496728884   15.3916380864   14.5568205879
  11.8650398983   18.1244348097   11.8179176207
   9.8681421385   14.6307793960   10.0339668786
   9.0040851177    2.9564589919   13.1598118821
  12.2633271220   15.6128050455    0.4654675236
  12.3892802479   12.9987289437    3.3056570768
   9.2913695287   13.9145989354   11.2003267235
   5.1659890942    3.1447915069    6.5990960323
   1.5459484167   12.8132823096   10.8869331571
   3.5038983872   16.7939011906   15.0711873601
   0.7101923331   18.3299670332    8.2302703997
  10.0012618263    3.1092574796   14.4012711634
  10.9907384981    4.3031810963   14.1023564433
   5.3707150176    4.5698390293    6.4438224212
   4.4401117132   18.8867390828   14.8865495955
   8.7416915280   11.8605605196   10.2710668997
  -1.1813821797   13.3338053440    8.6996839879
  15.2118348395   11.5075418332    8.4638702462
  -0.3960062371   16.7803626446    6.7104399926
  -1.6223114362   10.4798437855    7.9256083898
   5.3568219226    6.7475876009   15.7012549706
  13.8262543352   14.6248654884    4.4467281434
  -1.1347556327   17.8302694407    5.8866923055
   2.8852505916   13.7578874689    9.0965693505
  15.5643865745    9.8195401712    5.7703067665
   3.8407706043    6.2145775244    5.5025409018
  11.3783842538    2.3478890550   18.4141245386
   1.7665123388    5.1516501489   13.3501977116
   8.9757940716   20.0509418685   18.5603585645
  14.9876065761   13.7481579272    4.7390421773
   6.8226607908    7.1497517368   16.1498768193
   2.7992970808   14.3631720280    7.6264064789
   7.5711963642    7.1571757194    4.0252382762
  -0.0316089308   18.0103973115    3.8606724001
   6.7943651586    8.6700609071   15.9430078974
   9.6028781799    7.7685751749    9.4551987142
   0.4324921384    8.0231900042    3.2953404898
  12.5958617363    3.3590044664   18.7937579234
   1.9028136828    5.5846809908   10.7628650954
   0.9826270593    5.1808384992   12.0398213491
  10.6580105601    5.6187276637    3.1814789511
   9.3857747576    5.6420704556    3.7668663890
   8.3654718059   15.5989869725   17.3354440728
   8.7745262793    8.3535318424   10.6010573943
  11.9688786353    8.5596243484    4.1461802270
   8.5003400312   17.7617595534   11.3585675827
  -0.9290302102   13.0128048335    3.5877101883
  14.1012834806    6.7183652898    6.4170275003
   7.3517852436    8.5802662079    9.9371520430
  13.1580034163    9.4521860260    2.1357912278
  11.8684299080    5.9144301167    1.2383530381
   2.7182764865   14.2292106647    5.2862025395
  12.4762408365    8.0763878335    5.4286553719
  16.1101922162    7.1624140976    3.4829363801
   8.1488666756   17.9513278555   13.6992613150
   8.8045440338   13.2302583520   17.9677345066
  14.6583688375    8.0522075837   14.6528209087
  15.7877921794    8.1244022305   13.6202232359
  15.7190030330    6.4869545789    2.1413368765
  14.9492579570    3.0029405332   11.0537878272
   8.5245154031   12.3086377958   19.0550500971
  14.8133874927    4.5287535595   11.2006064702
   8.9261767017   18.5958382360   14.8395372390
  14.0771060506    5.2050894782   10.0007245793
  15.6789498566    9.4085869032   12.7535115182
  11.2940643662    0.6405934454    6.9096369207
   2.3926376733   10.0420308934   16.1807294096
  -1.7676933689   11.0614821832   19.4602634936
   0.5965223785   13.1275963576   15.2472538834
  15.7021841265   12.0008671178    0.5565846277
   4.8092649738   10.4289644805    7.6196227691
   4.9438846131   10.4386249668    4.4962535026
   8.9018196762   16.7986940415    5.7898614049
   7.7943824247   17.7917757896    6.1361211004
   1.1587478010   12.0511459253   16.0904288631
  -0.5338726667   19.8256261114   12.9004992272
   0.9345073917    1.4120843678   12.2992909928
   0.6081202401   17.7156649574   12.4753823969
   0.6864527846    1.6567737504    9.9044811142
   9.4808210395   10.8094476149    1.9491020460
   2.4686971906   10.0904785586    8.0348451889
   5.9758283634    9.9532758520    6.7458802768
  13.3665473886    1.1772470440   14.5713302734
  -0.6687666420    8.3807094714   18.5018329136
  16.7895653605    4.5166001923    0.6697777880
  -1.7212177765   13.1301642668   15.3773224519
  -0.2678591825   10.6486928916   19.3251696985
   9.4618300078   16.7807760144    3.3965589616
   8.3790775914    6.4808641925   13.4348468187
   6.5641614893    1.7407629976   17.1948746225
   8.2684764764    5.7703951162   18.9142946447
   8.7816825213    4.1252057558   12.4188492338
   7.4242425920    1.5053255074   19.2132331351
   8.6674161432    3.1414530770    0.9064066845
   5.5303590947    2.6566953885   18.9632456774
   6.0966372963    5.1678609730   19.3300646389
   7.7957562822    2.5260903929   13.5217476959
  11.5311098031    4.1321916331   12.9436842920
   9.4728053850    2.1565988250   12.2750188775
  11.9648751134    4.2567650802   15.0505255030
   4.3280853839    7.3764507720   16.3122623877
   5.3405760299    5.3706899891   16.0671591047
  10.5845455429    5.7416598740   14.1560462971
   5.1171751139    6.9190542448   14.3401686262
   2.5369493825    4.1265270827   13.4179097930
   7.9175101042   19.3625800381   17.9916851890
   2.3983154061    6.3207883796   13.4709943429
  10.9575360172    7.6576820052    9.7286145343
   1.1498749446    5.5789327814    9.5795218328
   6.8871656575    9.0239775216   14.5399821850
   7.7709837507    9.3690058556   16.5403625122
   0.8972994729    5.0313481678   14.3890147069
   9.4538758767    8.3531379839    8.2347661366
  10.2107418427   18.6559428871    0.3201078849
  13.5501246392    3.4117963194   17.8257465206
  10.0746629052   19.6193387106   17.9357533062
   3.0396551134    4.9005961821   10.5053994433
   9.2899170936    6.4849500949    9.1905462069
   6.4753360576    9.0559447447   10.9186558100
  14.2935690601    2.1901029418    0.4879055023
  12.0028376316    4.5710900190   18.7890058503
   5.6277165204    9.1957215001   16.4008777522
   2.1877791780    6.9205791774   10.9096139351
   6.7000877042    7.4058477190    9.5792305981
  14.9013945387    8.9414427512   15.6597343172
   7.3759645335    9.4252745986    8.8991343661
  13.6986253191    2.5743710489   10.9012613277
  13.4492899702    8.2493109194   14.1386881109
  14.4024843108    4.8888860149    8.6885905321
  15.7321705591    2.8169312544    9.9378264951
  14.4482860967    6.6268159706   10.1269172347
  14.6089943362    6.8159723409   15.2025608882
  16.0219256517    9.1443786163   11.3977732533
  15.6051210299    2.3953101994   12.0459745956
  -1.3656686944   10.4014708616   13.2209719125
  12.7785297674    5.0577657618    9.9481846004
  14.3789503949    9.9432644333   12.5861691203
   0.6147773837    1.3690250537   18.5839101063
  12.4922955143   12.8039726696   16.7143419275
   1.7762059711    2.1551616590    4.7459702224
   5.1617272047    6.0388534316    2.4950283109
   5.8630639651   17.2290102130    8.3750779634
   9.8383020423   11.5272551390    7.4506289087
   6.0194801278    6.4430153307    0.8207751705
   4.7664790323    2.3915593775   15.4391287445
  16.3941112005    4.5992504606    5.3592563501
  -0.0181889005    2.1280982121    1.2828557756
   0.9075513745   16.9599002124   18.4275585061
  -0.0033204188    0.4140836455    0.7363277110
   6.4283857610   14.6011056639    6.9371571396
  -0.4225958463    3.0193560905   17.6049189790
   0.5938099454    0.5943253785    2.2547646657
  11.5293862455   12.0591294325   12.0778832681
  -0.8736872077   19.5528006383   16.9209194047
   6.9999764220   13.7381475891    5.5454943793
  12.6859147136   15.0520193505   14.9561644444
   5.2432197799   10.2444872349    0.3384826174
  13.2184021151   11.9970914003   12.0967173033
   2.8306585406    5.0848507065   18.5924779630
   1.8906658418    6.4763751799   18.9512653250
  10.6392982615   10.1092161689   17.9079492959
  11.6740799338   10.6399083564    7.3375303813
   1.2354698825    2.2165667690    6.3673548007
  16.6581114964    3.2221716794    6.4272214886
  10.2531939496   14.0708285776    6.3930455564
   3.4061395963    3.4847058679   15.5967543881
   5.0146357001   19.2265977665    9.0015885116
  11.0434087691   14.9185882599   15.6780844800
  12.1246081867   10.6227696440   14.5146324221
   1.4606394873   15.2878407465   19.0761020058
   2.5267564088   16.1987240170   18.0080155646
  11.1515330834   15.7528891720   14.1539954590
   7.2115733502   17.8996964770    9.3616788773
   0.7123431490    4.2849406316   16.7238186083
   3.1797937403   16.3752069486    2.3208063443
  -0.6093525803    7.2823227000    6.9277036904
  12.7976225984   11.0998193385   17.0663605273
   2.1889402204    3.5769328082    5.6626412220
   6.8478865485   16.2080483157    9.5020533263
   8.9852192411   11.3733316614    6.0019722219
   3.5626899377   10.1573040299    0.9867705833
   6.4600463055   12.7103061930    6.8280541799
   2.9932724998   10.0847518616   19.0486321059
   3.5821342079    6.8107494148   18.4031571894
  12.1821942140   13.5248477925   12.2330787824
   2.3324551840    1.8829674351   19.2856834050
   3.1749049405    2.0946770871   14.6177722939
  -0.1526271237    4.6866671105   18.2324294937
   1.4944924093    1.8880651134   16.1462635075
  17.0022478119    1.3283787905    3.9637284595
  16.3662632739    2.6275551736    3.1035042273
  11.4581524010    9.4856825997   16.4802098045
   3.2335501938    7.3908021180    1.9895789479
   3.7179744922    7.4614651076    0.1628300580
   0.8266344259    8.0976379254    6.2774003598
   0.8325279661    4.3753723025    7.5437999184
   1.6735611490   16.8387677366    1.4090690100
  12.9043937406   11.1536302848    5.9603543386
   4.2400861638   19.2630538956   11.5315388197
  12.1221573754   12.3933423496    7.0899072443
   9.6252906451   10.0262616180   16.4115681529
   9.2544646215   13.5739322741    5.1521224647
  13.7665351248   11.1998782720   14.7782904815
   3.9302620752   17.8811000853    8.8113824694
   6.9499095209   14.7423441659    3.3269584580
  -0.8628743739    5.1408274167    7.5730846976
   1.0825316192    7.1620157676    7.8517730286
   6.2102555585   15.1335669744    1.3888594401
   6.2060939610    2.3900727560   11.0690456085
   1.0123494861   14.6166814278    1.3173801443
  12.9292764305   17.5625166685   17.5361563713
  13.9683463495   16.3784146646   16.6036658845
   4.3921443741   15.3660796053   18.6679414059
  14.3453389204   15.4177935819   12.5828540807
   8.3607061514   13.6742111441    3.5747477615
   4.6666584183    2.4367009061   10.1876537054
   2.9145275231   18.1005950919   11.0870689431
   5.6204190168   12.1144488631   17.2282018047
  -2.2431952735   14.3365984429   12.1859467945
  14.2536453490    0.7848651761    2.9613973364
  14.4954944039    1.9556429649    4.4061339632
   4.7348552424   16.9036851416    4.0917190791
   6.7310507986    0.8287011675    7.3220097506
   7.3226662705    0.3307368775    1.3517257619
   1.1115154545   15.2539923180    2.8732534573
   5.9797708631    1.7101894998    3.7293952206
   2.8032445704    1.3575621338    2.1887763343
  -2.3344059206   17.8327284576   11.6500094812
   1.3980407799   12.4511263716    2.5944704845
   2.2375871265   12.3427775163    1.0841546549
   6.8404029842   12.9294287648    3.6927790874
  12.1922841796   14.6213578008   17.5088069211
   4.6935074831    1.9440978592   11.8657272748
  13.3339978420   15.3326519318   18.7887785483
   6.2135999586   13.7296916711   16.7150718055
  11.5890582641   14.2378896256    8.1421338631
  13.2937329108   16.2495300800   10.9664745764
   5.3783791744   13.4766778484    1.3634629068
   2.6406402639   15.5633422522   11.4470049970
   5.5949819358   18.4213414494    4.3286981873
   4.0594029315   14.4587386216   11.8169486895
  12.9705224731   15.2073822628    8.9747457590
   3.7305738511    2.7670815143    2.1971852322
  -1.7466274216   15.7212947602   13.0628305747
   6.1895386326   15.2498494076   18.5195203428
   3.1774833203   11.8868441761    2.4199075743
   7.2023931350    0.7876872138    5.6043182732
   5.4741415794    0.8854900054    6.1173727179
   4.4321386741   13.2434462749   16.6663328069
   7.1217857409    4.1815141568   17.2086733091
  11.5265475839   19.1398239424   12.3055298854
   2.9909057180   14.8475529551   15.3424764159
   4.6190709540   15.0573089729   14.4806163269
   9.5867847348   14.2234333532    9.1252971641
   4.1199764148   16.4305369019   12.0459938832
   5.8392434280   17.5569170701    2.7506510743
   8.0458567145    0.9456369227    2.9783319916
  -2.0095246958   17.3220371554    9.6659295820
  14.0690179012   18.5615832870    3.9617597882
   6.4192490163    2.4964888351    2.2534789633
  12.6774082701   18.2036892625    2.9817220503
  12.9634935772   17.2769294671    4.5391374783
   3.6429222694    1.6351059242    3.6790649571
  11.6597330345   16.0112998205    8.5405250982
  13.2319232247   17.5671139720    9.8419961331
   9.7768167799   14.1197066596   12.1380219551
   0.9968307035   18.5467941889    9.2942599826
   2.2948442528   12.0060938309   10.9951724728
  11.3496860347   13.1729656599    2.9906046553
  12.5898300683   11.9640654700    3.6937402756
  11.3016130976   17.9398151806   10.8771400011
  12.1686214800   16.7134958424    0.5057878482
  11.4633938514   15.3359730890    1.0625128726
   1.8485050436   13.5996472279   11.5512480816
  11.7086509802   17.2726047008   12.4406239884
   0.4877128837   12.4960919377   11.1643932917
  13.0548977622   13.2934901372    2.4872692993
   4.3502815707    2.6744567362    6.1252071419
   9.4676941261   15.6335507433   10.1061345224
  -1.8254550178   13.5284827628    7.7535698599
   9.4504120645   11.0320210281    9.8433551034
   5.0431514563    2.8413475585    7.6661330658
  13.1463902918   15.1455014424    1.0114237010
   5.8354227842    4.7395345816    5.4601668138
   6.1481414392    4.9594150820    7.2028316790
  14.6285564463   12.0022586970    7.7166994417
   5.0434472014   19.5941136863   14.2085280850
   0.2508572336   19.3467253160    7.7968372366
   1.6198833743   18.1673766492    7.6456916273
   8.1875538007   14.4028345629   11.1677005955
   3.9421446328   16.8608708984   16.1245759191
   2.5160386736   17.2443309465   15.2265036208
  -0.2007093135   12.8464638624    8.3869800012
  -0.8136061455   10.9568452355    7.3364140551
  10.6491571774    2.1975170829   14.4462176211
  14.0174490724   15.2329114075    3.5086779532
   5.0529401017   18.7352866987   15.7678299751
   8.6364596460   12.6335750161    9.4845394737
  14.9968394694   10.7975093186    5.6975869157
   3.5736577895   19.3880356916   15.2354737163
  -0.6525669709   18.8694890995    6.0167653705
  -2.2403727258   17.9482083073    6.2233498882
   7.8016857443   11.4879280369   10.5185685611
   3.4469651381   12.7834314062    9.1790749611
  -0.9812206512   14.1393567101    9.3722528417
  13.7627167914   15.2527329529    5.3547682869
   3.4062178557   14.4786312495    9.7823785140
   0.6041810235   16.6270183353    6.1423205514
  10.5996563560    2.6259661205   19.0774996572
  14.5768169978   10.9533741658    9.1348438293
  -0.9262331170   15.9079222507    6.7207440283
  14.9195163154    9.0951430738    5.1781389085
   3.4777625015    5.6979315876    4.5624937254
   7.3028761249    8.2618396270    3.8892557262
   4.6838208973    6.9373279063    5.1505060792
  -1.0780993877   10.0829991996    8.7584950167
  14.8253060383   13.1540646106    5.5963219037
   0.7640247497    7.2596361229    3.9429216008
  -1.2950274366    9.8637509353    5.3072464311
  -0.2181603449   18.0000498884    2.7907818605
   0.8169976390   17.4321810234    4.1103906838
   2.2151321986   15.2321472288    7.5971861225
   0.6284583951    7.7706895811    2.2334619941
  -2.0313559538   14.4594277461    4.9962032526
   3.8540644293   14.6688741984    7.4838766363
  11.4366015104    6.0198671339    3.9035670206
   6.9703003251    7.1256204938   17.1971577966
   3.0049311024    6.8454093650    5.7629997587
   0.9114630050    9.0358069721    3.5471637249
   7.2361755563    6.5518907435    3.1822628452
   7.7700402139   16.4530882375   17.7887505025
  10.9761329312    4.5697042673    2.9389573859
   7.1925887367    6.7270594686    4.9230243409
   0.4627836914    4.2244582661   11.8688569885
   7.5248131412   18.0617558408   11.5292976521
  11.0568517232    9.2696324966    4.3162680321
   8.4058717111   15.5253884451   16.1785202674
  13.5578341412    6.9673496520    7.3947951200
  11.6619413683    7.8540211394    3.3901277698
   9.0331187295   18.5323981260   10.8020212488
  -0.0632370735   19.0933813000    4.2164134561
  13.1972735526   10.5265365856    1.9333946893
  12.7315237039    5.9497636718    1.8950060415
   8.7142669787    5.1775944205    3.0413882089
  -0.5481619743   12.2689193934    4.2737974581
  12.1688613179    9.1824838829    1.6740380595
  11.5854658187    4.9208260360    0.8537846220
   9.4519620531   15.7479434366   17.6516493182
   9.3827902196    5.1101436156    4.7182200990
   8.4466732156   16.7890227922   10.8231708517
   2.6185826138   15.3153206322    5.5436879256
  -0.5044581260   13.9633784382    3.6061319775
   9.1427673146    9.4069917022   10.7053797309
  15.2209550731    7.1967291265    6.3732413801
  -0.7533828411   12.6197498406    2.6247669022
  15.1635234329    7.1915371938    4.1495811593
   3.7755243339   13.9875680832    4.9393225890
  14.4267182423    5.6876712298    6.4649462360
   7.4152169581   18.6213350268   13.1676216059
  -1.0779980323    6.4794094608    3.9450024266
  11.5373535171    7.7039614067    5.9024528397
  14.0763153875    8.9468466381    1.7264619180
   1.8946100119   13.7746122985    4.5736036453
  12.8716611579    8.9107851962    6.1324930422
  12.0056820726    6.6910007340    0.4714630309
   8.6814232078   12.8816732518   16.9401062576
  -1.0961860863    8.0880029852   14.1588375261
   9.2224287817   11.3620561613   18.6728427756
   7.5003422815   17.1424344852   14.1779902464
   9.9100048284   13.5705122791   18.1066128829
  14.6166235534    6.1503109951    2.3166288208
   9.8765955019   18.0918459779   15.1032398533
  15.8081662368    7.0777996047    1.1589469608
   7.4662663056   11.9902251433   19.0457055295
   1.8405437387    9.8514702355   17.0863394001
   0.4329133803   13.9743757304   15.9432591182
   9.8760310158   17.2547358007    6.1322241329
  10.6008816024    1.2112924954    6.2151856257
   5.0868863546   10.2710951084    8.7085983842
   4.0114978093   10.9750385690    4.9410197098
  11.2148144310    1.1537964007    7.8213389042
  -1.0556199344    9.5356899027    0.8261828666
  -2.2532829619   10.8195001324   18.5437832538
  14.2340056055    4.8160703876   12.0349391895
  15.8448558474   13.1364459699    0.8014871130
  13.9934890557   12.9625604543   19.0960405368
  -0.0207180953    0.8034938771   12.1070859156
   2.8664831876    1.4369419019   13.2808786901
  -0.1406983781   17.2915259348   13.1458428527
   0.0122556188    0.8068148804    9.7157084649
   8.4193449744   18.9192916598   15.7246242532
   4.6514857726   11.5138500994    7.4596137445
  15.1595555485   12.8809840164   14.8829923414
   9.7341463730   17.8646037183    3.3632598267
   2.8329230621   10.4244045442    9.0293742428
   2.7197424515    9.2173017785   15.5655404538
   7.6180962244   18.2286184609    5.1959882712
   0.1697297237    7.2727988149    0.0981099553
   1.2390805668   13.4760652503   14.4579736088
   9.5960021584   11.5484493736    2.7995151154
   1.9160317505   10.9994957876    7.6638959996
  14.2015239202    0.7428195936   14.1251270076
   5.3017201992   10.9548199409    3.5241505117
   1.8245342654   12.4969228918   16.8445663924
   1.6544973085   17.8283047541   12.9189438293
   1.4112516158    1.7271776754    9.0734271136
   8.8083330966   15.9679519235    6.5399098390
  -1.6963208287   12.3731871127   16.1813248259
  15.8516285381    3.8323805304    0.5330449521
   3.4195362148   10.4447921942   16.4908672262
  15.0814017882   11.5018282932    1.3708679932
  12.2996001262    0.7148704893    6.4033223834
   4.5256346974    9.3950994763    4.3843386634
  10.0770334473    9.8674923204    2.0115809284
  15.6988061957    6.1233122854   19.2137184880
   6.8867862268   10.2256448395    7.1923421455
  13.4472817008    2.1885447648   14.2541421380
   0.0631016649    7.6693709751   18.1558182486
  10.4661110774   16.2564104814    3.1429373627
  -1.6761401044    8.2671886275   17.9987661188
  -0.8935688143   19.2119742420   13.7902776649
   0.5651148589    2.2164198897   13.0130764220
   0.5690600115   17.1145830300   11.5837441496
   0.1546678581    2.6236145279    9.7888002572
   1.0937236126    9.2891106526    0.8017732382
   0.0481880257    4.0539988388    0.6467025112
   0.2635471343   11.5719834149   19.0730280424
   0.2596351908   11.6267903303   16.7302387728
  13.6297581270    0.9093864342   15.6357540921
   8.8177856927   16.6333535016    2.4327290904
   1.7048508438    9.3356617323    8.2793575890
   6.9313191999   17.1738306539    6.3321091033
   5.9611466213    8.8243168687    6.8092990810
   8.3318354977   10.5425655112    1.9428872085
  -1.9684316142   14.1887118601   15.6644603243
   4.9220986288    8.5414116302    1.2859140501
   8.2145141759   13.7865356051    7.1317324331
  12.3728336812   12.6522113579   14.0719304847
   3.4425872277    1.6467978558   16.7657863287
   1.4364007266    3.3025137187   18.4460045874
   0.6792682178    5.9161375305    6.2174079587
   4.4553899074    5.0458088677    0.8837656707
   0.2465920685    3.4941918675    4.8880910941
  10.8657155897   11.5658322386    5.7291255075
   5.3700857560   17.5458873008   10.3010272548
  16.4048170395    0.8618832566    1.9916904382
  10.9983853595   11.4626893253   16.3071607728
   3.3549073135   16.0217325281    0.4463004372
  11.9405845784   16.7535934968   16.0362251431
   5.3571267975    0.7029851505   10.1776122128
   2.7299579624   13.8566519034    2.4438776660
   7.5089487787   13.4584617417    1.7179027162
  12.2876007778   19.3022619661    4.7639701615
   5.2278154736   13.4672766538   18.6893067620
  -2.2475353798   15.7892677879   10.8880160727
   4.0309351059   18.5143840835    2.9924542077
   4.7951340761    0.9281092022    2.1695149215
  11.2163370062   15.8083038242   18.7359693677
   6.4480432582    2.7065125656    6.1016531192
  13.2910728601   18.3535774919   11.5331601739
  11.3461406331   14.7401903418   10.1633013580
   2.7537241049   15.0680321781   13.3716259823
   4.2681787707   17.6626599004   14.2591006046
   9.1866989011    3.3284545577   15.6787664907
   8.8714518632    3.2231227306   17.9858375348
  -0.2033352044   17.2849723147    8.0751304812
   9.2691567309   12.4911155971   11.3714646718
  12.6088639365   13.9324259531    4.4165452086
   1.5616003983   13.4024301779    9.5907378852
  -2.0031863109   12.3985566915    9.4435810635
  15.6802631959    9.3907240359    7.1451897381
  11.0306725585    2.7129029674   17.1327519908
   4.2074670769    5.3496083926    6.5957022142
  -1.2341750639   17.3611501839    4.4401650043
   8.9511135897    7.0605637155    3.9958901488
   7.7609171627    6.5885145924   15.3323599367
  15.4454176563   13.1168821658    3.5547037301
   2.4400097021   13.4939873310    6.5980667883
   8.6936973007    7.5601371229   11.7469289923
  13.3045991966    6.9349792032    5.2657822431
  -0.9279771982    8.3292819833    3.3569693257
   0.0604724973    6.2554639982   12.2784206106
   7.9929803517   14.4522448389   18.0449209128
  10.7409027090    6.4386890640    2.0270015586
  13.0506079441    9.3869695121    3.6569629073
   9.0713892318   17.5088582384   12.6366177156
  16.0842751477    5.0079520749   11.4436035427
  15.6715173779    6.9939336580   12.7723275692
  16.7745983012    5.4083481773    1.9332552646
   1.7999350825   11.0511837958   15.3599849467
  12.0210470038    0.7572954161   14.3796395025
   6.1046056426   10.3787388915    5.3754182933
   8.1089797564   18.6233435029    7.1845011285
   9.9134569245   11.7251015475    0.8598073768
  -0.1097435596    9.7033851582   18.2532193745
   0.1330987007   19.0280329067   11.9867794484
   1.5120355502    1.7660363844   11.0684290111
  -0.7969286695   11.4608233486    0.2759064108
   8.9332891071   16.2041414070    4.5636327287
  -0.6574963242   12.9778216988   14.4635060025
   3.6161443584    9.6510259828    7.3331451767
