B2 C140 Ca1 F48 H298 O66 
1.0
1.7807951651452434e+01 -9.0168872426195850e-17 -1.6966848974098487e-16 
-2.6728256839179410e+00 1.9245565092955218e+01 -8.7604526319662539e-17 
-1.0892739802251343e+00 1.0081003578273888e+00 1.9475789655473495e+01 
B C Ca F H O 
2 140 1 48 298 66 
Cartesian
   9.6294671049    3.1264153938   16.9064332462
  -1.3301686318    6.1525082381   12.1466127837
  -0.1556851278    1.0919499715    1.5437531280
   6.9002806688   13.7319090438    6.5880791053
   5.0526204336    6.2474453118    1.3893574623
  12.3082974423   12.5625779782   12.6175967069
   3.6743333445    2.4579893988   15.5572558985
   1.6516461376    1.9424550108   18.4074829181
   1.3914666722    2.8477310439    5.4786212606
   2.0457046888    1.3860483723   17.0784436481
  -0.6768029135    4.0110173691    5.8442054462
   2.8486891623    6.1283400083   18.9594431367
   1.7024096397   16.4172124406   18.7826062205
   0.2553937461    3.9027462597   17.6562903184
  11.6518427834   15.6459029610   15.2211981023
   4.3611242131    9.6004668435    0.5146689319
   6.3475042464   17.2262148755    9.3198012622
  12.3160972521   11.8408302164   16.2601937458
   9.7173282532   11.9531800550    6.4668835553
   9.3170491553   13.4371498973    6.2608644320
  12.6582944172   11.5417802504   14.7985963215
   4.1206860026    7.3745254481    1.2371544187
  10.6298529864   10.2374272690   16.8273299695
  11.9478457276   11.4911373813    6.5272664838
  -0.0218075329    4.8782046987    6.8948734601
   0.5409841378    7.2054083231    6.8498672800
   4.4420219187   18.4943608232    9.6279456715
   2.4913739691   16.1438239156    1.5862887732
  16.1543601237    1.6011836289    3.2548552213
   3.4768544268   18.9302896930   10.7202691041
   1.7618505900   14.8743980356    2.0534330186
  12.8631344900   16.6558807441   17.0288684883
   5.1985453501    1.9695061360   10.8983703328
   7.3516422805   13.6945122766    3.1115697545
  14.8351586633    1.1257776612    3.7930186449
   6.2921981562   14.0340394837    1.0282800026
   5.1944698009   14.8800954018   18.9700870604
  -2.5492528687   15.3875511368   12.2527340866
   2.3397381976   12.5756969678    2.0769292744
  12.4299087497   15.6194958025   18.0853928841
   5.2962192971   13.2396029897   17.2876063869
   5.1498555121   17.7825631362    3.5692711297
   7.0930458114    0.4686684386    2.4495876770
   6.0725472737    1.5327407059    2.6173125098
   3.7176366511    1.7532479548    2.6244136785
  -2.5663302951   17.1592059816   10.6441222591
   6.4802264196    1.2702645434    6.2827019348
  11.8464342704   15.0604712457    8.9213217517
  13.6708971760   17.3169578065   10.7265956081
   3.4854398087   15.5155901766   12.0971483194
  13.0134000875   18.3143599013    4.0158087096
   6.6633706485    2.4060157026   18.3573261587
   7.2736611386    4.7636149299   19.2088320286
   7.4448551708    3.7355541431   18.0557357808
   3.4704867743   15.4002594653   14.5468893568
  11.7971230447   18.1905168490   11.8197834154
   9.8386792876   14.7123732142   10.0352098199
   8.9221763373    2.9877152378   13.1230394730
  12.2580867905   15.6056227284    0.4840291954
  12.3253253054   13.0255174990    3.3087902279
   9.2415718928   13.9755688167   11.2400617321
   5.1973765703    3.1639079815    6.6022690818
   1.5059903547   12.8526949264   10.8769884067
   3.4373416090   16.8277668996   15.0604089487
   0.6606464415   18.3718636840    8.2497539537
   9.8985274984    3.1644186853   14.4008227572
  10.9313610079    4.3695357246   14.1126199470
   5.3673598583    4.6098082276    6.4131861350
   4.3885370079   18.9474826413   14.9333850028
   8.6695237218   11.9107240097   10.2589642319
  -1.2025721818   13.3431999204    8.6866188540
  15.1806486979   11.5589027338    8.4468254154
  -0.4089575680   16.7778489894    6.6753629909
  -1.6241766354   10.5056773577    7.8881287280
   5.3231068985    6.7860109782   15.7196559744
  13.7762277122   14.6625872168    4.4346264369
  -1.1846525334   17.8859813994    5.9082733253
   2.8570080464   13.7947830652    9.0989382219
  15.5539464880    9.8688365549    5.8130567550
   3.8179077834    6.2348955295    5.4934732622
  11.3282772010    2.4299170945   18.4369951422
   1.7133691257    5.2294859137   13.3196551220
   8.9031377665   20.1046897212   18.5427642831
  14.9655321890   13.7954875130    4.7204205777
   6.7754894127    7.2044953814   16.1746088366
   2.7466183816   14.4085947445    7.6229446599
   7.5588062877    7.1705703817    3.9925540391
  -0.0439264842   18.0436524104    3.8232836024
   6.7945516076    8.6773706132   15.9139000171
   9.5849979350    7.7942248817    9.4514347299
   0.4330976010    8.0594997158    3.2984316392
  12.5277541887    3.4122314867   18.7561108291
   1.8540377992    5.6128389388   10.7690903079
   0.9357899181    5.2083264928   12.0301551176
  10.6769716592    5.6193195039    3.1662019049
   9.3615519357    5.6720197282    3.7578040719
   8.3248762765   15.6946761439   17.3143241986
   8.7382065495    8.3731090251   10.6037650237
  11.9234581088    8.6032878931    4.1620863217
   8.4197731165   17.7305986904   11.3607357197
  -0.9572001123   13.0416368252    3.6060585667
  14.0655908425    6.7439571429    6.3764846495
   7.2944114216    8.6208883921    9.9339626554
  13.0864104331    9.4688208851    2.1347585977
  11.8399169743    5.9306431097    1.2196512194
   2.6909214177   14.2739667559    5.2713181636
  12.4332590483    8.1116069488    5.4301897756
  16.0842097690    7.1512360787    3.5019778426
   8.0765797838   18.0065406616   13.6835802046
   8.7539339308   13.3289814983   17.9427069869
  14.5780885223    8.0756397623   14.6589402182
  15.7263024817    8.1460662099   13.6359112028
  15.6910815504    6.5293113866    2.1482288681
  14.9136688952    3.0818338484   11.0477752181
   8.4636223082   12.3644253457   19.0703598171
  14.7937280500    4.5769906474   11.1924866030
   8.8654162260   18.7117463215   14.8425355398
  14.0194781873    5.2358217209   10.0051318657
  15.6183792475    9.4291496157   12.7530575243
  11.2492550373    0.7037487154    6.9003255351
   2.3413591809   10.0949824614   16.1983611543
  -1.8431747831   11.1283469573   19.4605555897
   0.5823427474   13.1839046529   15.2168510960
  15.6775634941   12.0382760076    0.5637349721
   4.7935228328   10.4487110880    7.6233653245
   4.9307755798   10.4365613152    4.5232840145
   8.8887226086   16.8414405400    5.8225177425
   7.7967387742   17.8379000523    6.1360973041
   1.0938807022   12.0827771569   16.0946578255
  -0.5928451853   19.8772759954   12.8934874185
   0.9086856034    1.4180102922   12.2695517548
   0.5690772148   17.7855574147   12.4989326666
   0.6588186121    1.6933831789    9.9219975746
   9.4513791954   10.8494928777    1.9328172003
   2.4314178574   10.1220230302    8.0728461316
   5.9223868425    9.9855711085    6.7192795485
  13.3117044633    1.1747585920   14.5985006080
  -0.7356994998    8.4356740900   18.4890328486
  16.7886622212    4.5151667771    0.6845913166
  -1.7894234078   13.1617566567   15.3613735063
  -0.3260755501   10.7004731479   19.3442382626
   9.4629342257   16.8258717420    3.3710764861
   8.3230758262    6.5261424144   13.4360883766
   6.5270403371    1.7931429346   17.1973813972
   8.1720846542    5.8325830742   18.9236190194
   8.7424413018    4.1883526606   12.4070085093
   7.3759986720    1.5282274734   19.2203374910
   8.6769977671    3.1362083694    0.9001044313
   5.4746993601    2.6842501606   18.9830251143
   6.0162667644    5.2149929052   19.3148597147
   7.7376681868    2.5588091094   13.5426517680
  11.5195793399    4.1654957980   12.9139089875
   9.4198324648    2.1883083836   12.2625640427
  11.9145277581    4.2965395408   15.0630744928
   4.2577764269    7.4048213601   16.2870570195
   5.2915105589    5.3799846526   16.0180144293
  10.5473261989    5.7716628064   14.1507667201
   5.1011056441    6.9450507420   14.3292572479
   2.4998306974    4.1627442726   13.3891521360
   7.8627704324   19.4410782198   17.9896564004
   2.3623800860    6.3700204134   13.4695371086
  10.9020567471    7.6785236475    9.6973168466
   1.1626481740    5.5904366318    9.5926078138
   6.8241887297    9.0401442907   14.5394857296
   7.6970473881    9.4114151424   16.5280704309
   0.8563200496    5.0661495924   14.3908864339
   9.3898761676    8.4001573893    8.2431966045
  10.1756178745   18.6438586598    0.3206020506
  13.4735743031    3.4635791260   17.7877875823
  10.0182684100   19.6911367630   17.9284611313
   2.9753649679    4.9336074806   10.4957908215
   9.2657752232    6.4804229497    9.1867451251
   6.4284711148    9.0812419205   10.8880595483
  14.2665402511    2.1986893272    0.4710485781
  11.9096741774    4.6357014844   18.7877875386
   5.5715230585    9.2799279507   16.4313309485
   2.1591306892    6.9626448662   10.9150002753
   6.6557025255    7.4180454622    9.5766814460
  14.8393557823    8.9803428174   15.6643336658
   7.3461884550    9.4310933392    8.8793046629
  13.6670203602    2.6061901635   10.8939865260
  13.3817860244    8.2809033236   14.1487558078
  14.3633567463    4.9162687318    8.6815153313
  15.6640194187    2.8419252840    9.9325185684
  14.3867269818    6.6848397865   10.1102897775
  14.5065501956    6.8595834673   15.1763798327
  -1.8293782765    9.1800217927   11.4056343923
  15.5796564566    2.4032681517   12.0534657221
  -1.3944952372   10.4466847336   13.2102892920
  12.7035208292    5.0896309281    9.9374732289
  14.3306056265    9.9703763765   12.5841087521
   0.7031714213    1.3731030900   18.5382118158
  12.4532271926   12.8771173413   16.6993358868
   1.7022997876    2.1785533935    4.6801148556
   5.1554145808    6.1401200804    2.4797016675
   5.9457708676   17.2972324812    8.2680613516
   9.8031915037   11.5840257984    7.4980359669
   6.0268980598    6.4823751299    0.8613291189
   4.7061616025    2.3022239491   15.4548521564
  16.4212558106    4.6323212341    5.3112313760
   0.0689920098    2.1651279448    1.3009820945
   0.9106743376   17.0611327278   18.3840664868
  -0.0554940962    0.4813808459    0.5951909110
   6.4089031868   14.6064589340    6.9411795161
  -0.4447297894    3.1631849241   17.5541909784
   0.6289450431    0.6077015992    2.2658109527
  11.4773016704   11.9877433962   12.0825753756
  -0.9308418592   19.6153530142   16.9462935505
   6.9409143130   13.8555720971    5.5378864271
  12.5583309097   15.0723560242   15.0679299112
   5.2630478315   10.2983475654    0.3309571580
  13.1407524301   12.0971737797   12.1915296766
   2.7209767037    5.1050237921   18.6167455661
   1.8113407499    6.5235242149   18.9688432493
  10.5314026693   10.1635146087   17.8531501462
  11.7542606245   10.7266909568    7.3314001452
   1.2291871594    2.2189663957    6.3651963004
  16.5623419886    3.3133054838    6.4814598598
  10.2668648008   14.0906547334    6.5100654296
   3.3861376077    3.5256378373   15.6260892734
   4.9600062104   19.2057970095    8.9928678140
  10.9651590797   14.8550470957   15.6962543135
  12.1367634194   10.6377929330   14.4983101048
   1.3917648279   15.4225454921   19.0787552187
   2.4290876279   16.2330660807   18.0171627491
  11.1616659346   15.8839677225   14.2005340755
   7.1825726985   17.9819807053    9.4390494346
   0.6760272883    4.3028676817   16.7074037524
   3.2485859505   16.4068388694    2.3946592743
  -0.5537011805    7.4410404873    6.9811670683
  12.7514567416   11.1397775984   16.9745107988
   2.1392528105    3.6337888392    5.6383053515
   6.8349623899   16.3112475292    9.5214521558
   8.9216192890   11.2882688894    6.0010391341
   3.5681508248   10.2493776460    0.9429229369
   6.4237307213   12.6970986944    6.8875975405
   2.9725657413   10.2086419830   18.9992838306
   3.4673130980    6.8713134879   18.4460919661
  12.2939144499   13.5651485124   12.2815783888
   2.1520343996    1.8435034696   19.3805187946
   3.0582601292    2.1649167949   14.5953338188
  -0.1615932439    4.8437378280   18.2790497565
   1.5039852254    1.9313765852   16.2285604396
  17.0204857587    1.3387469972    3.9579649362
  16.2725610622    2.6432118240    3.1128953902
  11.4306389390    9.5051255569   16.4840713641
   3.2707492320    7.4016567107    1.9289549653
   3.7534942493    7.4287396574    0.1479898828
   0.8533467067    8.0922272525    6.3956734114
   0.7771509281    4.4189857306    7.5336778295
   1.7321347125   16.8185580643    1.3707901026
  12.7732394795   11.1836054293    5.9534303321
   4.2528047437   19.3510838360   11.4760191613
  12.1267055941   12.4231866880    7.0540691834
   9.6343138344   10.0699263195   16.4288036828
   9.1133639779   13.6385667656    5.1692237290
  13.7759550505   11.2858112214   14.7071927916
   3.9981923645   17.8536085517    8.8738846843
   7.0257262206   14.6619323084    3.2938304714
  -0.8352017831    5.1079928415    7.5823598943
   1.0586811661    7.1840421298    7.7858971018
   6.2476895706   15.0738488451    1.3844408380
   6.1584005737    2.4433978400   11.0871467282
   1.0168865284   14.6201214345    1.3473402510
  12.8922349149   17.5680739774   17.5882584381
  13.8868754274   16.4142269808   16.5644299227
   4.2376534302   15.4903356942   18.5592939632
  14.2067436318   15.4087723907   12.6110121265
   8.3423876119   13.7081552577    3.5843944331
   4.6372779309    2.5593849197   10.1131545888
   2.8385906715   18.0634878816   11.1022361925
   5.5712396307   12.1734798341   17.2031242816
  -2.3406210443   14.3591547993   12.1702683008
  14.2105438013    0.7628094303    3.0001965605
  14.4330945901    1.8669196681    4.3493228233
   4.7528101748   16.8885339407    4.0651651110
   6.6834495937    0.9637839245    7.3403912733
   7.3187490907    0.3740095089    1.3639415016
   1.0889692369   15.3107798287    2.7720027075
   5.9577868745    1.7122508367    3.7560699462
   2.7572192337    1.3689589834    2.2378996662
  -2.2481303520   17.7572284387   11.5657770480
   1.4274022357   12.3603652065    2.5733490970
   2.3137212913   12.4129265520    1.0113084518
   6.8032436752   12.9543112229    3.7500158204
  12.1508960496   14.7152541124   17.4618399422
   4.6720101747    1.9608594074   11.8602035933
  13.2916989000   15.4508247932   18.7701683737
   6.1214473144   13.7540097856   16.6832808839
  11.5961524951   14.2609126765    8.2237742351
  13.2292722527   16.2821688357   10.8841502031
   5.4125872600   13.4083562367    1.3889915766
   2.6869220201   15.5546212686   11.3979506878
   5.6257622749   18.4959001476    4.2673729639
   3.9676168045   14.5739707691   11.8408462682
  12.9424425208   15.2278862236    8.9310914913
   3.6982968358    2.8038796531    2.2662142643
  -1.8122901689   15.7271342231   12.9925252163
   6.1130413554   15.3327566818   18.5811265934
   3.1282011636   11.9480182131    2.4088155547
   7.2787994158    0.7954463998    5.6568135424
   5.4969522453    0.8408233730    6.0346539677
   4.3819147030   13.3284701264   16.6384942245
   7.1029591507    4.1750387403   17.1691329627
  11.5893982261   19.0941560614   12.2619286308
   3.0297474766   14.9039059855   15.3492377433
   4.6071215541   15.1140758048   14.5612391608
   9.6095280980   14.1451686664    9.0840251466
   4.0259495768   16.4118793853   12.0281225354
   5.8596075875   17.6266156162    2.7980416063
   8.0007101414    0.9451813524    2.9619637711
  -2.0502926222   17.3139148360    9.6523584732
  14.1002217942   18.6443993639    4.0327133761
   6.4047341979    2.4608305209    2.2279515682
  12.6619432508   18.0701536116    3.0360500824
  12.8982596786   17.3676732020    4.5171975985
   3.5796042253    1.7843991242    3.7212491940
  11.6587022572   16.0650315043    8.4461110000
  13.1610605507   17.5553856738    9.6957770976
   9.7876173444   14.1791190302   12.0701277323
   0.9218937453   18.5697591593    9.3108270671
   2.1903543468   11.9971737351   10.9758851217
  11.3846477250   13.2203348954    2.9125600967
  12.4658041970   12.0608917206    3.7388441153
  11.2762825293   17.9359657114   10.8563998698
  12.2308115723   16.7319547612    0.4360570917
  11.4189565049   15.4282399970    1.1718663294
   1.7795241955   13.6688657830   11.5661008619
  11.7310494224   17.3767775168   12.4961829450
   0.4808130236   12.6162712290   11.2514011602
  13.0128387788   13.2065741964    2.4993465364
   4.3033805815    2.6950352351    6.0919167692
   9.4312574831   15.6859793344   10.0361616675
  -1.7954466172   13.6839095408    7.7171679432
   9.4037053255   11.1098717274    9.8774085544
   5.0235557856    2.9251629397    7.6153364731
  13.0669140664   15.1808221222    1.0848276459
   5.8016368083    4.8651001583    5.4711752621
   6.0666155722    4.8870555841    7.1616868801
  14.5264243344   12.0506299334    7.6695343713
   5.0793827592   19.5751886751   14.2677303592
   0.2937746096   19.2915680550    7.8145582184
   1.5946745303   18.2062113307    7.7493156173
   8.2046549940   14.4314622976   11.2934597811
   3.8834863652   16.9343892315   16.1109938865
   2.4221050583   17.3248306312   15.1246725980
  -0.1843349047   12.9774290902    8.4353355555
  -0.8256230501   11.0284241422    7.3498361113
  10.6291620027    2.3434237602   14.4692097043
  14.0349040533   15.2728861849    3.4737655331
   5.0677494340   18.7811894648   15.8805945098
   8.6318845885   12.6192762825    9.5114341303
  14.9513841234   10.7843524610    5.6898351713
   3.4569184709   19.4394233324   15.2725710997
  -0.5734111108   18.9411071746    5.9862391858
  -2.2454706843   18.0121833548    6.1652330327
   7.6462194480   11.5030155222   10.6130831327
   3.3936507394   12.8468186449    9.1073865133
  -1.0000136376   14.1139821961    9.4152399855
  13.7451410242   15.2123358289    5.3854480659
   3.3228489590   14.5469831543    9.7244329851
   0.5280952189   16.6526520637    6.1722074917
  10.4689502561    2.6270237534   19.1347163533
  14.6041820321   11.0293857525    9.1630572297
  -1.0170644582   15.8820545099    6.7371024227
  14.9497918441    9.1528021030    5.0998483457
   3.5157528314    5.7346298779    4.5866306621
   7.2846706476    8.1431520447    3.8252253383
   4.6617152537    6.9340240820    5.1647066971
  -1.0868050915   10.1312842741    8.7992943205
  14.7043258508   13.1096581002    5.6286264396
   0.7474768046    7.2605362473    4.0250608479
  -1.2315601761    9.8928678472    5.3761400630
  -0.2369913352   17.9589214035    2.7328774266
   0.7700269736   17.4002460941    4.1334403446
   2.1670846682   15.2965480820    7.7181714572
   0.6484411689    7.8170096075    2.3243802303
  -2.0554977381   14.4597402723    5.0720859627
   3.9043247084   14.7275410009    7.5138707409
  11.3977988673    6.1118041331    3.8270834897
   6.9239716085    7.1188639753   17.1873569680
   2.9587030889    6.8013033786    5.7378101060
   0.9097580423    8.9642750077    3.5245604507
   7.2054635599    6.5552979959    3.1361884725
   7.7686002922   16.4383750160   17.7874057243
  10.9673582912    4.6110574012    2.8960636647
   7.1128398198    6.7394296119    5.0023047779
   0.4147568749    4.2965883693   11.9178000363
   7.4337442990   18.1860955665   11.5258852482
  11.0334722785    9.2731804468    4.3264643350
   8.3289007127   15.5987468841   16.2002789089
  13.6351212926    7.0263939565    7.3788289904
  11.5767891804    7.8828835954    3.4082153383
   8.9954107259   18.5048367353   10.7651057838
  -0.0106989652   19.0734741980    4.1774693899
  13.2857559738   10.5937609114    1.8471837936
  12.7242827357    5.9506969133    1.8987086948
   8.7038135168    5.1214904233    3.0187205344
  -0.5267627192   12.2356902320    4.2710623495
  12.1718057915    9.0545494736    1.7106081142
  11.5811698261    4.9128553179    0.8518281393
   9.3895183003   15.8583640472   17.6381450277
   9.3460485338    5.2364003522    4.7233943284
   8.3326949488   16.7426393762   10.8330746465
   2.5946595857   15.2736648974    5.4914999189
  -0.4129627762   14.0171922457    3.5546805900
   9.1779758463    9.4513751795   10.7017417670
  15.0676764413    7.2427997851    6.3956580349
  -0.7927201621   12.5480073876    2.6771729987
  15.1623172302    7.2411206316    4.1505718216
   3.7855810276   14.0358828439    4.9787271702
  14.3178548954    5.7196013031    6.3806540772
   7.2790184790   18.5810189173   13.1306532628
  16.7078250501    6.4283045365    4.0237861863
  11.5376839576    7.7654969978    5.8072991105
  14.1029323371    8.9935974567    1.6814045019
   1.9876668153   13.8581869515    4.5566321173
  12.8620536215    9.0023797107    5.9779517837
  12.0303140446    6.7376202988    0.4534744048
   8.6234124184   12.9206362265   16.9246302393
  -1.1401075212    8.2767177300   14.2126804889
   9.1135823197   11.4471210451   18.6758300949
   7.4680463562   17.2120920745   14.1193665904
   9.8154172775   13.5910235394   18.0411337625
  14.6031734908    6.1432809266    2.3106619150
   9.7634967310   18.1182054786   15.0518687218
  15.7894558589    7.1116457055    1.2154828462
   7.3823046314   12.1334376166   18.9890636710
   1.7959016048    9.8455292221   17.0201628267
   0.4512617530   14.0713530451   15.9100821395
   9.7704860414   17.3185238866    6.1398861662
  10.5078546688    1.2101704140    6.3214480872
   5.0933275363   10.3161196269    8.6923687473
   4.0760824500   11.0805556296    4.9678669954
  11.2532637823    1.0888565310    7.9502784164
  -1.1230294676    9.5847831204    0.8818098672
  -2.2236502896   10.8801246150   18.4522032600
  14.2250428673    4.7835696124   12.1101232231
  15.8183388944   13.0382007745    0.8440178693
  14.0050933963   12.9357254981   19.1723451392
  -0.0797368480    0.9044129298   12.0587578599
   2.7864868327    1.4000368709   13.2233480497
  -0.1364679062   17.2815303452   13.1386492392
   0.0223839721    0.8434054437    9.6952885918
   8.3185846035   18.9712412783   15.7425187461
   4.5575697443   11.5486465894    7.4715077196
  15.1185751549   12.8917142991   14.8453032663
   9.7579496910   17.8889203150    3.3973386816
   2.8827730969   10.4617897839    8.9899025347
   2.6681177589    9.2533658740   15.5739962731
   7.6443702919   18.3325810896    5.1729439282
   0.1920873758    7.2768990194    0.1301427520
   1.1707992682   13.4560664553   14.3550095907
   9.5767807316   11.4607325836    2.7488625196
   1.8416294632   10.9963187925    7.6480123877
  11.6145179366   19.9288970464   14.0135308769
   5.2910616296   10.9989916226    3.5825484608
   1.8742764652   12.5310793820   16.7751785505
   1.5704484048   17.9359736507   12.9239525676
   1.3847438400    1.7330819301    9.0750232988
   8.7000796186   16.0092706103    6.5989823713
  -1.7414198539   12.3775041438   16.1563357883
  15.8309952993    3.9634605468    0.6259794476
   3.3486472545   10.5288096305   16.4615356894
  15.0862498902   11.5257267155    1.3641063225
  12.1989343827    0.7007261990    6.4382573069
   4.5038269276    9.4455400372    4.1774628170
   9.9990537189    9.9484257069    2.0634535096
  15.6259694529    6.1632634088   19.2263750619
   6.8820647028   10.3130794517    7.2010482753
  13.3770953951    2.2166049306   14.2577102156
  -0.0508945707    7.6693775866   18.1942107970
  10.4293326557   16.2409004902    3.1352302596
  -1.6564325530    8.3032218679   17.8925771704
  -0.9319499950   19.2450527954   13.7770711297
   0.5429065622    2.2224731589   13.0803370882
   0.5400877362   17.1463980904   11.5174367022
   0.1520043120    2.5655830069    9.8368112605
   1.0782798565    9.2481502711    0.8931594957
   0.0018354456    4.1213427373    0.6254997190
   0.2912165419   11.6277818255   19.0334946582
   0.2913430566   11.7849491173   16.6416147869
  13.5606469308    0.9884557972   15.6581727237
   8.8294133593   16.6359241643    2.5027294267
   1.6360227082    9.4022609865    8.2844186682
   6.9451269002   17.1688764638    6.3052834890
   5.9126540959    8.8530917173    6.7014749039
   8.4871282773   10.5305049578    1.9156468938
  -2.0550512825   14.1669639920   15.7527205830
   4.9330556668    8.5666651652    1.2985272424
   8.1902497418   13.8330484470    7.1223626903
  12.3104350137   12.7111220634   14.0517154478
   3.4313873674    1.6924805056   16.7315718808
   1.3835585608    3.3669055247   18.4240914018
   0.6580211126    5.9683148974    6.2056907566
   4.4347723855    5.0402098079    0.8677311891
   0.2242627032    3.5066351292    4.8772225778
  10.8803527028   11.5932331108    5.6937554442
   5.3544746983   17.6318349600   10.3071817824
  16.3827602726    0.8712514868    1.9945622867
  10.9111217850   11.4801324563   16.3151463838
   3.3712518058   16.0273649844    0.4289624762
  11.8798370189   16.8065993018   15.9944324398
   5.3079821561    0.7588814362   10.2001175172
   2.7167795395   13.8962729468    2.4336296965
   7.5182189147   13.4854541138    1.7315495198
  12.2469561735   19.3088933645    4.7226693914
   5.1774390284   13.5201184331   18.6865989196
  -2.2752222509   15.8210308939   10.8973247805
   4.0139526249   18.5525786704    3.0175569957
   4.8003903974    0.9423747708    2.1447707712
  11.1416983413   15.8516459815   18.7390901991
   6.4342264992    2.7033185603    6.1078482070
  13.2380919254   18.3881889509   11.5323600484
  11.2852619063   14.7675426881   10.1838149834
   2.6923587557   15.1373060356   13.3271800085
   4.2055153221   17.7584071327   14.2479973745
   9.1367252024    3.3864833641   15.6768264631
   8.7834966919    3.2906807010   17.9858979978
  -0.1985563036   17.3217692885    8.1026702924
   9.2335589701   12.5580971544   11.3656867111
  12.5715995758   13.9918792187    4.3795341516
   1.5377139432   13.4458230232    9.5991105063
  -2.0070691428   12.4340244283    9.4525124268
  15.6190769649    9.4135975586    7.1523668732
  10.9322046618    2.7517251118   17.1264689319
   4.1758693943    5.3628441828    6.5996926273
  -1.2291739229   17.4018146549    4.4805114847
   8.9181225772    7.0775529475    4.0154272665
   7.7180840455    6.6340541197   15.3380685232
  15.4279628091   13.1640622058    3.6239384957
   2.4579552966   13.5181027719    6.5928986668
   8.6192404427    7.6150459263   11.7523363851
  13.2824474365    6.9722419121    5.2402631557
  -0.9488738566    8.3267542198    3.3701958513
   0.0094013041    6.3118867101   12.2563091379
   7.9486182726   14.4938807515   18.0469146016
  10.7146224375    6.4505132043    1.9944142120
  13.0207364293    9.4184318263    3.6460661395
   9.0382717288   17.5522280535   12.6606122855
  16.0148567216    5.0271642177   11.4482514950
  15.6195940186    7.0484790233   12.7812982547
  16.7713366043    5.3876574664    1.9319803958
   1.7391291082   11.0999484585   15.3387624472
  11.9429832573    0.8322240830   14.3576624638
   6.0712603099   10.4474706555    5.3818757371
   8.0567684695   18.6614091755    7.1663842922
   9.8767644599   11.7573525374    0.8643946142
  -0.1614619921    9.7227689135   18.2525535773
   0.1244866240   19.0720682924   12.0110888611
   1.4753975037    1.8310056389   11.0821777343
  -0.8002448217   11.4903317536    0.2647375672
   8.9150241809   16.2472120562    4.5441580057
  -0.7068140451   13.0219179942   14.4803085092
   3.5879343531    9.6849698173    7.3283976154
