B2 C140 Ca1 F48 H298 O66 
1.0
1.7886835194894850e+01 -2.5320764525411104e-16 -1.8650871633270026e-17 
-2.9900214958495819e+00 1.9222371263471707e+01 -3.8693675210998414e-16 
-7.0157389784297711e-02 1.3568502811983036e+00 1.9365938667866740e+01 
B C Ca F H O 
2 140 1 48 298 66 
Cartesian
  10.5836016520    3.7309930874   16.7329097594
  -0.7632321243    6.2646799509   12.0291563087
   0.1298259973    1.6077877278    1.5442742703
   7.4059558858   13.6930957519    7.4293432848
   4.7431935604    6.5585877401    1.0244605697
  12.9775387952   12.6232934541   12.3467059254
   4.5731039922    2.9499261711   16.4377954743
   2.5134866965    1.9713606223   18.0800930890
   1.6002092424    2.5063737810    5.6009709951
   2.7940023089    1.2037544083   16.7136458264
  -0.1290568182    3.9869275606    5.9295986977
   3.2854672787    6.4935466450   19.0458865850
   2.4993016250   17.4525527535   18.2098492025
   1.0881930828    3.6785117058   17.2277462458
  12.2540547844   15.8324896536   14.9109518515
   5.3178636960    9.9499968982    0.7970976293
   6.1024175233   17.0217508279    9.3848010384
  12.4098502201   11.7962536843   16.0326456629
   9.6369154181   11.9417000042    6.8380542558
   9.5689124419   13.3543118841    6.5237776987
  13.1236428647   11.7224062278   14.6350396368
   4.0465186293    7.9438223127    0.9280898481
  12.2936193613    9.5144669262   16.7837959652
  12.1010762815   11.8389858908    6.3318069165
   0.0235461874    4.9936379528    7.0179177580
   0.7917205754    7.2883959962    6.7750130930
   4.9248182706   19.0961645713    9.6093611702
   2.1638613252   16.3294705298    1.1184436254
  16.0359102973    1.7067646561    2.7496842309
   4.0317883072   19.8599503921   10.5936047647
   1.3783145195   15.1460508335    1.5065078278
  13.4691736869   16.8395830104   16.7173446074
   5.5085901253    2.4632062146   10.6134728640
   7.3507185008   13.9762316252    3.0055577181
  14.8389573547    0.8055386852    3.1843729293
   5.9891706801   13.7227229990    1.0027947863
   5.8719839932   14.8542675615   18.9209603913
  15.1028529772   15.2354652724   12.0751909224
   1.9061773695   12.8461682841    1.9311198658
  13.1553881384   15.7913851422   17.8366156642
   6.1508180347   13.2827137070   17.1280708968
   4.9960478551   17.8717109498    3.8195114515
   7.2275687494    0.4055252155    2.5803532839
   6.3602198408    1.6391637951    2.5992437324
   4.4220827870    2.5486893140    2.0934108108
  15.1909867719   17.0528696003   10.3911482455
   6.9794393954    1.3445315579    6.7711533481
  12.4884580538   15.0860224768    8.7963781929
  13.7921559920   17.6507066962   10.2579224274
   3.7523856208   16.0825263631   11.9257329487
  13.1347124489   18.3728081893    4.3655795487
   7.9316927207    2.5477987877   18.1596903885
   8.2662245971    4.9923745782   19.0543368054
   8.4227353535    4.0207607647   17.9336124065
   4.1180666377   15.4315109578   14.1913504458
  12.2190031504   18.8042920528   11.5185620335
  10.3638750680   14.9064464553    9.7654273011
   9.7670589959    3.4468104688   13.1583963546
  12.1477402821   17.1170797635   19.3453481793
  12.0053178205   13.3749417513    3.2539430464
   9.8604014205   14.6349665302   11.2198984238
   5.4952955640    3.0136567958    6.2479385552
   1.6352228381   12.8269213847   11.1012308001
   3.9527419328   16.6831938314   14.9749918983
   0.3082103803   18.4968658991    8.5962595493
  10.7878934169    3.7690722448   14.3322502440
  11.8060584624    4.8579972570   13.9295351809
   5.4843802617    4.4142727532    5.7826163615
   4.7452909685   18.8776133444   15.0064910075
   8.8317806563   12.5662815627   10.6924222312
  -1.6159146663   13.4008274063    8.6676231479
  15.3775759598   11.2724435149    8.8588807410
  -0.5545816208   16.8699332399    6.8544201097
  -1.3566719759   10.5247516109    8.1852317555
   6.1165140299    6.7447179112   15.3748012556
  13.3936021679   14.9990757827    4.4580987427
  -1.4181582207   17.6751615610    5.9374519157
   3.0203141850   13.6191867281    9.3730558741
  16.1370165288   10.2214331214    5.7430324135
   3.9846310255    6.1414083738    5.2797706588
  12.1198286779    2.6923248387   18.2134462334
   2.3671342523    5.5670266301   13.2925671567
   9.2023698532   20.3604579802   18.4453612948
  14.5325806898   14.0415934265    5.0302981611
   7.4216658071    7.4207149013   16.1855490478
   2.9688938512   14.3641582272    8.0240046901
   7.6037089522    7.3525678026    4.1381498901
  -0.4248617798   17.7544458820    3.7457562008
   7.3451520066    8.9600621284   16.0200186753
   9.8413346059    7.5675678589    9.5011595179
   0.6183220183    7.6380339998    2.9127894851
  13.4566987949    3.4513076870   18.5658948669
   2.3687696961    6.1279569883   10.7190683835
   1.5656696392    5.7321272285   11.9578488891
  10.8905477200    5.9022830943    3.1094588981
   9.4469083434    6.0616309761    3.6565260814
   9.2106717729   15.6753163382   16.7110424924
   8.8206212163    8.3762570117   10.4309497851
  12.3238918954    9.3763351278    3.6931717350
   8.6676926223   17.8101783833   11.8561264210
  -1.2969751618   13.1496531175    3.9669448426
  14.0024528964    7.1223349518    5.9660974267
   7.3205417374    8.6338346833    9.9513902641
  12.4519574679    9.9082726278    1.5061638948
  12.1127376302    6.2766883806    1.1218141144
   3.0074678067   14.4482492534    5.6814128186
  12.7973280966    8.8614674912    5.0167230821
  16.0859429796    7.1663392795    3.0537302115
   8.3008263487   18.6742716883   14.0178679997
   9.8223554635   13.7333261793   17.9688165421
  15.1656776222    8.1141617520   14.4142250473
  16.1643356187    8.1792854640   13.2840512499
  15.6623474395    6.2368968886    1.9960565583
  15.3797632341    3.3861258210   10.9467682622
   9.2783204285   12.7630499769   19.0072211342
  15.4088381167    4.8914883518   11.0619430100
   8.9962854927   19.4053289371   15.0915488988
  14.7563229170    5.7021614754    9.9244863769
  16.2092268903    9.4864731355   12.5352956451
  11.5075328604    1.0931362041    7.0818895757
   2.7114562076   10.2027728038   15.5572631039
  -1.4410856177   11.5161397667   19.2444636430
   1.4520436951   13.5954657208   14.9661604795
  15.3137033269   12.0410456514    0.7366853597
   4.7204018774   10.9004043531    7.3066840312
   4.6549457231   11.0440359187    4.1336385524
   9.5806507078   17.6558945421    6.0964262408
   8.1215275413   18.2136487345    6.1182942952
   2.0126211846   12.4280903171   15.6992640191
  -0.5076648083   19.9704567061   13.0845742181
   1.1319555072    1.3494184999   12.4311380926
   1.0926832368   18.4072819847   12.5317955525
   2.0884266483    2.2557918896   10.5084821047
   8.8792218351   11.2073778613    1.9369719346
   2.7049731278   10.0545007538    8.3205283792
   5.7265261601   10.3297970073    6.1845193404
  14.0344809223    1.5171798373   14.6589029937
  -0.3593107269    8.7647213031   18.6058391238
  16.5939708465    4.5914429312    0.5019136818
  -0.9172544751   13.2187658270   15.4416223340
   0.0269584669   11.1103137018   19.0119327327
   9.9054362253   16.6600661968    3.8739107924
   8.8109599676    6.9930764645   13.4513239565
   7.9391161802    2.0892403194   16.8488125189
   8.8532646576    6.1964184496   18.7395735002
   9.2360084495    4.4907839967   12.4432182717
   8.7884953707    1.7509601508   18.8966864433
   8.8240248450    3.3276554317    0.9344033901
   6.6129457914    2.4960720727   18.6112972624
   6.9006775897    5.4103843682   19.2116321030
   8.7001205014    2.8603055193   13.6303397844
  12.4951697711    4.4118845826   12.7122905466
  10.3185048053    2.6091778421   12.2567020370
  12.7735778365    5.0425415441   14.8353545279
   4.8378362630    6.9460811537   15.7333658433
   6.3045608755    5.3846277087   15.7707009272
  11.3768175859    6.1451960194   13.7109832513
   6.2517300224    6.7786833889   13.9916044215
   3.1325056226    4.4935481440   13.2657348025
   8.2484382556   19.7037895471   17.8500200169
   3.2441065657    6.6840542215   13.6156673854
  11.1493464004    7.7563285360   10.0280455211
   1.5916549720    5.7047264300    9.6716421611
   7.1934195751    9.4153129172   14.7298485015
   8.5885381549    9.4822983547   16.4464776289
   1.4945250437    5.3774208792   14.3247164130
   9.7601155321    8.0549636697    8.2310566942
   9.2252751865   18.8387285402    0.4272105947
  14.5959085680    3.4064268569   17.8280895125
  10.4090338573   19.9090390000   18.0730295886
   3.6033601231    5.4698569934   10.7011218840
   9.7789474151    6.1733628533    9.4094829852
   6.5609556130    8.9820419412   11.0568890163
  13.9238393683    1.6208519202    0.4455063627
  13.1053271414    4.7946358369   18.5113234281
   6.3284609516    9.6153616271   16.8731562306
   2.5020938002    7.5109435883   10.7617752744
   6.7100449587    7.6495845978    9.3542309684
  15.2994841705    9.2047279398   15.2098376247
   7.3565494196    9.7260255952    9.0938423428
  14.0946353427    2.9910812498   11.2484040601
  13.8574309383    7.9867749659   14.0279534375
  14.8142321887    5.2739856212    8.6851528798
  15.7144798435    2.9745119173    9.7167002738
  15.3756662825    6.8998945361    9.7486415105
  15.3277611548    7.0301112611   15.1540211634
  -0.8573808154    9.3904934691   11.4574249800
  16.1492829069    2.8050280178   11.7985317491
  -1.1935255955   10.4346650866   13.4318121668
  13.3874724523    5.7668933253   10.1872496274
  14.9860364496    9.8359316646   12.0979685765
  -1.1500190751   20.4134520137   18.6697658166
  11.7866095833   12.7370170763   15.8731304516
   2.0650280467    2.2421593760    4.6376652311
   5.2661867540    6.5607762472    1.9775445650
   5.2446429628   16.6459345661    8.8253559659
   9.8906772739   11.9265612742    7.9582761456
   5.5812686300    6.4767470493    0.3632479639
   5.5152637910    3.1388884576   15.9847925901
  16.9505746048    4.4769863690    5.3128382675
   0.3845184717    2.7007218715    1.8099588366
   1.5127358759   18.1314237963   18.0585954183
   0.4007091376    1.4889488160    0.4248242142
   6.8692211428   14.1409560645    8.2126825106
   0.3884261685    4.4753527517   17.7059571861
   0.8711364661    1.0689763334    2.0713742659
  12.3509784324   11.7953801219   11.9993945189
  -0.2104804981   19.3512428641   16.9354986447
   7.0475620794   14.2273561646    6.5332604268
  13.1315094075   15.9508435242   14.2566765779
   6.1984682943   10.3265073037    1.3460910636
  14.0844146330   12.3686788288   12.2885088112
   2.4860231401    5.6732954691   19.1690985949
   2.8663857106    7.4185017786   18.5689757945
  11.7592464542    9.1168670215   17.6671799013
  12.2998558810   11.5103198601    7.3649997520
   0.8695114892    1.7773135488    6.0793788626
  17.4206623262    3.0331410939    6.4389414383
  10.5132473273   13.8187796527    6.7166908305
   4.5552980356    3.3778480043   17.4513279931
   5.6873989117   19.7089060456    9.0593727537
  12.3610627380   14.9299386687   15.4818995653
  12.8859962643   10.5693452341   14.2513396834
   2.3019566592   16.3679625977   17.9827031989
   3.2855545035   17.7786126990   17.4885329740
  11.2947102068   15.9745448069   14.3674537775
   6.9325653708   17.5135058373    8.7454235994
   0.4774937696    2.8080089847   16.9995508843
   2.7949122738   16.5222134428    2.0490748503
   1.4382726506    7.8978988355    6.0658013102
  13.2533591985   12.1010647567   16.7730656199
   2.3809819612    2.8704014022    6.3305689378
   6.5330154922   16.2532046417   10.0270771926
   8.7984671938   11.3514507155    6.6094674264
   4.5419580183   10.6877429587    0.7683105321
   7.1221690527   12.5719145148    7.2833713536
   5.6627951285   10.9227454126   19.2241997220
   4.0870259554    6.0601746015   18.3581361582
  12.7709275174   13.4851165486   11.6843707330
   3.5018233590    1.8002467503   18.5652538646
   3.7560085953    3.5228461770   15.9426761025
   1.6702714090    4.0039044170   16.2441156085
   2.1402666235    1.5284955720   15.9000014982
  16.5944743036    2.0265754414    3.7145564358
  15.6634788178    2.6901954581    2.3829552108
  13.4380359772    9.7642106406   16.8649756760
   3.1002313227    7.8732631644    1.4074971323
   3.7670544927    9.7157028538   19.2597385270
   1.4893739393    6.9198727744    7.4851022311
   0.9103152650    4.7854572983    7.6831937934
   1.4648227279   17.2095505294    0.9461043292
  12.7327344567   11.2436401917    5.6187210302
   7.5536338535    1.4896745661   11.0589476455
  12.2858813696   12.9185199294    6.3075044385
  12.0795801837    8.6725749215   16.0261862976
   9.2033546791   13.5504904383    5.5260489198
  14.2131805298   12.0164588492   14.7085253221
   4.2515427885   18.4582391966    8.9854741555
   6.7019254272   14.8488372433    3.2948142233
  16.9543061988    5.1102309549    7.5850344273
   0.0525058327    7.9556076109    7.3030637354
   5.5128310094   14.6023696438    1.3479695093
   6.2186420445    3.2562953253   11.0560635511
   0.7400722204   14.6682187442    0.6770040167
  13.6433004189   17.7348994047   17.1861780296
  14.4318011073   16.5512593427   16.2722134396
   4.7727577388   15.1712466656   18.7042523129
  14.1057667197   15.2511507600   12.3851012183
   8.4421379835   14.1518320265    3.2979458054
   4.7317771825    3.0932107509   10.0858696673
   3.6323752557   19.1663175391   11.2910708788
   6.0486231779   12.2134995071   16.9246121754
  15.5401649148   14.3023242519   12.2593118076
  11.5062687302   19.2895367605    2.4370940595
  14.0947074449    1.5717200331    3.3905589822
   4.7321169257   17.2897122481    4.7432396368
   6.4071104695    1.3208278944    7.7773088112
   4.1418139856   18.9816032189    1.7114629582
   0.6638318815   15.5273789268    2.2568739190
   6.5724514795    2.1308842047    3.5562900596
   3.3376983290    2.2966051084    2.0591867624
  -2.1687635691   17.6602750951   11.1168896648
   0.8894061864   12.5818306025    2.4358881780
   2.2637684587   12.6136647788    0.8889468807
   7.0175088794   13.1333166704    3.6113418965
  13.0503292710   14.7160092171   17.4499680726
   5.0607718803    2.1754735139   11.5566974890
  13.9802884793   15.7888267449   18.6064230832
   7.1025595824   13.6359995590   16.6908765064
  12.3708086587   14.2034862964    8.1479753360
  12.9931754195   16.9535416667   10.3249355827
   5.4040270488   12.8763318766    1.4419027857
   3.0640279783   16.0753606784   11.1381450105
   6.1902077882   18.0445974530    3.8295080879
   4.7121181235   15.7384485400   11.4681274994
  13.5861656245   15.1444907593    8.9399807781
   4.7474080951    3.0294376012    1.1058946777
  -2.1861679093   15.9582254761   12.7128596280
   6.5172658926   15.5963380955   18.3884318266
   2.7079479905   12.4021286788    2.4590967191
   8.0285481651    1.1573185098    7.0217939085
   6.6928720563    0.6688396988    5.9954511599
   5.3769566531   13.8761067485   16.5711653669
   7.9912061608    4.4039550247   16.9842729739
  11.9428096214   19.8255753933   11.6010967991
   3.8852477892   14.5905765464   14.8179600597
   5.0911483874   15.3239526772   13.7800058560
  10.0758057479   14.2565110442    8.9625428662
   3.9806188310   17.1196560889   12.2009956607
   4.9022448703   17.2821839982    2.8966628488
   8.2844717112    0.8059689251    2.4626964743
  -2.1609184815   17.0286088717    9.3762584122
  14.0827991293   18.7220187406    4.0372036014
   6.7280027798    2.2391734822    1.6746198322
  12.8591787788   17.4770102698    3.7877761208
  13.2634991330   18.0609513089    5.3840384896
   4.5659499363    3.3159630811    2.8127683091
  12.2987493146   15.8785412873    8.2410703241
  13.6601025999   18.1474769884    9.2468057243
  10.5197856594   15.0423109511   11.8833780717
   0.3337372410   18.4238015618    9.6747328020
   2.1103529374   11.8914720407   10.7766623919
  12.7212993659   13.5716005861    2.4417842212
  10.9435309185   13.1669184232    3.0361711055
  11.4729835003   18.2363788492   10.8157653609
  12.2582890637   17.9828431143   18.6397376496
  11.2799109262   15.9776799400    0.5294607105
   1.9877539971   13.2569304700   12.0435311153
  11.9115886222   18.3796014626   12.4383889388
   0.5211241625   12.7409027865   11.2830825326
  12.3354321100   12.4737055321    3.7806065549
   4.9170107705    2.3403829641    5.6541792668
  10.0267706600   16.0208786372    9.4920188247
  15.5873336379   13.7109660343    7.8438367990
   9.4770948522   11.7274120849   10.3152096026
   5.1360838660    2.9173094515    7.2435655828
  13.0122436438   15.7633596574    0.8332051187
   6.0184832651    4.4813906297    4.7975902607
   6.0830769494    5.0810871066    6.5288347071
  14.5559899960   11.5643796365    8.0934308092
   5.4704748726   19.6642905888   14.5569269727
  -0.0677025746   19.5729495646    8.2629742612
   1.2799543790   18.2577382566    8.1315549273
   8.8330864997   15.0649849107   11.3869406327
   4.1687520279   16.5004308425   15.9525631703
   2.9231450778   17.1216004221   14.9952095816
  -0.6684479873   13.2161542697    8.1613629664
  -0.7577930969   11.3148270287    7.7511517363
  11.4933387589    2.8408141266   14.4246940541
  13.7198294913   15.4513006689    3.5522797452
   4.9204688770   18.8792108868   16.1036426090
   8.4163475514   13.0459411910    9.8238769195
  15.5091010365   11.1593982729    5.6434327944
   3.6268748419   19.1357858908   14.8746718309
  -1.2672041692   18.7624286235    6.0217328737
  -2.4668634702   17.5685639217    6.3129029802
   7.9351617498   12.1452882864   11.2714758660
   3.2364686052   12.5992049133    9.1369365848
  -1.5513268549   14.1695997784    9.4127225216
  13.2969559426   15.7876565539    5.2950662537
   3.7939241032   14.1290323654   10.0086559445
   0.4978939964   17.1227304270    6.5660279651
  11.4446612416    3.0270710974   18.9885106587
  14.8652466675   10.6281424894    9.6190145561
  -0.9275430562   15.8790693893    6.9208084820
  15.7234555700    9.4429277260    5.0544808214
   4.8211851561    6.2955066294    4.5643393793
   7.4109342179    8.4834813929    4.1977676532
   3.9677072669    6.8576132980    6.0999335587
  -0.6801681998    9.9819388540    8.8862135678
  14.2516820012   13.3229860618    5.8341188635
   0.8010031948    7.0306803706    3.8972827543
  -0.7344622789   10.2943527237    5.5031870327
  -0.4886209384   17.1316599222    2.8165451079
   0.6101756627   17.7823297284    4.1001567846
   2.1361319116   15.0515745636    7.8387661508
   1.0694833733    7.1393344511    2.0170286089
  15.3052172693   14.6807750512    5.5291298158
   3.7416480730   15.2243691944    8.0829600298
  11.6102087534    6.6034423752    3.5792261028
   7.3955135930    7.1960383195   17.3327405125
   2.9825411482    6.3366812876    4.8911082707
   1.1359727192    8.6461739807    3.0636191478
   6.8349442722    6.7806145899    3.5681790710
   8.5400529786   16.5440538803   16.7637805321
  11.0739736365    4.8477038535    3.1562330637
   7.7402002028    6.9516445504    5.1209442481
   1.0775071518    4.7395395555   11.7371073884
   8.5278418539   18.8666275355   11.5483490629
  11.6910343244   10.2821990145    4.0460573603
   9.3027293323   15.0759146924   15.8006562788
  13.2919568831    6.9069576132    6.9303272234
  11.5524276107    8.7948573098    3.3469655192
   9.4642193858   17.3344576964   11.1807780487
  -0.7389742153   18.7673804438    3.3274493931
  11.5603582824   10.5769616255    1.7027678872
  12.9221390609    6.9069132928    1.6680007469
   8.8822384390    5.2238512573    3.1488346696
  -0.8314940165   12.5444920161    4.8122455679
  12.1520551379    8.9019977976    1.1121946071
  12.4129414783    5.1919431770    1.0741270377
  10.2664020209   16.1242771389   16.7739632629
   9.5532503932    5.5895500125    4.6787013979
   7.6544054327   17.2453088679   11.6489363744
   1.8819149721   14.5765047080    5.4258546052
  -0.7687312341   14.0431071942    3.7797896780
   9.2873350073    9.3629394956   10.2746018837
  14.6896326810    7.9479180565    6.2938528152
  -1.1388616116   12.3749409757    3.2463956141
  15.2689335048    7.9194310062    3.2467057906
   3.3201172146   15.3581261532    6.0697117082
  14.3837533681    6.1519296522    5.5852049681
   7.8060042378   19.3364872500   13.3864379996
  16.1796341989    6.6126142270    4.0538419756
  11.7650137866    8.9558444623    5.3970287758
  12.8945416275   10.6113309094    0.7635844154
   3.4873818997   13.8897066489    4.8750475946
  13.5170654396    9.5485162331    5.5903514410
  12.1622192425    6.7858241942    0.0861891051
   9.9058134174   13.1424501521   17.0213123663
  -0.7639672899    8.0365683463   13.7647385187
   9.6675495966   11.7157532722   18.8330783651
   7.4802418294   18.0704693470   14.4511157805
  10.8754289085   14.1054583306   18.1689638924
  14.7606921898    5.6076711395    2.3148476089
   9.9113214630   18.9054482270   15.4225549504
  15.1759960189    6.7228436152    1.1403770885
   8.1980627623   12.5476352819   19.1084311770
   2.0581391566   10.0381131441   16.4370878189
   1.5985245040   14.4794502166   15.5812746798
  10.3788508136   18.2725958084    5.7333781634
  10.7883732688    1.6944603665    6.5429815372
   5.3196441170   11.1004944790    8.1927074160
   3.7241556787   11.0307136884    4.8008118394
  11.5132300936    1.5673877987    8.0695555294
  15.9576455377    9.5378120990    0.5871817696
  15.8190693021   11.6272618642   18.3637530226
  14.8475100468    5.1684171141   12.0842460339
  15.3597289928   12.9201952835    1.3487369399
  14.5002534906   13.4496358460   19.3543967931
  -2.1509842798   19.7688308670   11.7186082323
   3.1646066872    1.4348855798   13.7056152944
   0.6094844478   17.5532599413   13.0777372579
   1.3185116836    1.8236007159    9.8292309334
   8.3701185640   19.6557036255   15.8540063860
   4.2850656503   11.8174265038    6.9243107546
  -1.6961132378   13.8263549056   15.1217477505
   9.5750007690   17.7061141839    3.6309806539
   3.2070594086   10.2979312550    9.3251021976
   2.6731477516    9.2422946810   14.9723902613
   7.7972086691   18.8611410876    5.1961366420
   0.2260478134    6.9571015704    0.1279652386
   1.9227036826   13.7856769298   14.0119474251
   9.2291695749   11.2266289646    2.9606711805
   1.8602142858   10.7285901522    8.1558282906
  11.3867327119   19.7020765264   14.5394134944
   4.6581129747   12.1746800797    3.6211705069
   2.9845205194   12.6789604371   15.9891232314
   1.8081105244   18.8771859956   13.1856617468
   2.9575582406    1.6155280413   10.6789402573
   9.8797968853   17.2938263028    7.1459764384
  -1.1659722959   12.1333713102   15.6686805948
  15.7968283566    3.9259340235    0.5941929233
   3.7422996420   10.5657626321   15.7517853007
  14.9220760401   11.3647989480    1.5016499631
  12.4885093340    1.0794367441    6.5114835244
   4.7160074307   10.2831527682    3.3225801325
   8.7504823466   10.0964212947    1.7941333802
  16.2284227305    6.5472238893   19.0833906812
   6.8060293990   10.3483577313    6.5532974811
  14.4517699026    2.2373619669   13.9911487523
  -0.4409953913    8.1817794052   17.7158346054
  10.9903542460   16.3950400195    3.6701350543
  16.4992987206    9.1080848078   18.9451771104
  -0.9374263777   19.2399466759   13.7201362882
   0.2300064330    1.4446184671   13.0686881421
   1.6097008216   17.8190951140   11.6552442153
   2.2403644611    3.1993617825   10.0775666434
   0.5090408279    9.8354432639    0.6210640693
  -0.2312700319    4.2522551393    0.2492369265
   0.4673244163   12.0316342140   18.5217393083
   1.1889669177   12.0039360354   16.4271471920
  14.1919108871    1.8321382484   15.7109785278
   9.3824596209   15.8527291028    3.3113778888
   2.2121146880    9.0617183378    8.3195724285
   7.4407554245   17.3173255318    6.1283946418
   5.4644113792    9.3039232644    5.8357973626
   7.9199186203   11.7778648845    1.7759278381
  -0.5738450871   13.5727100119   16.4362142271
   4.8493408633    8.8762829508    1.6762240297
   8.6947430868   13.8270452261    7.6209986973
  12.5205186845   12.8102005502   13.7612494570
   4.3184342724    1.5473970034   16.4890864089
   2.0846700990    3.2769325946   18.1679999837
   0.2389907012    6.1217036422    6.1915173070
   3.8614973367    5.4029684673    0.9212697308
   0.9248723448    3.6581246172    5.0634042171
  10.7095629798   11.4107737882    5.9537498058
   5.6086268945   17.9827249259   10.3902375095
  16.7291425339    1.0633632615    1.7576756573
  11.5912739753   10.7319559343   16.4307995762
   3.0985353922   16.3836173002    0.0788077975
  12.4359948639   17.0477925836   15.8111667636
   5.9060131302    1.3144909810    9.8715959734
   2.2233336109   14.1774786924    2.1046636557
   7.2480285251   13.6935293121    1.5425479618
  12.1081769990   19.3214971715    4.4655993346
   6.0898546042   13.5137451564   18.5220513555
  15.2220766912   15.5712219902   10.6728666149
   4.1908243530   18.9586513604    3.8006468584
   5.0405847286    1.3347551292    2.4563300804
  11.8875030857   15.9998291777   18.5098960410
   6.9002695159    2.7292899937    6.1960736836
  13.6757229822   18.5896264465   11.3543772042
  11.7341572731   15.1943078085   10.0127665569
   3.2103555335   15.4729275448   12.9858395517
   4.9436383459   17.5949646024   14.4829809955
  10.1747424821    4.1809113999   15.4602058954
   9.8886534489    4.0200425627   17.8294848751
  -0.6440381240   17.4519594064    8.2182118701
   9.7392296060   13.2926760315   11.5252846360
  12.0342406032   14.4119015623    4.2799180892
   1.7786551163   13.7087886076   10.0377160013
  15.8171712678   12.4328533620    9.5699395555
  15.9328243004    9.7324049442    7.1016749939
  11.7195661898    2.9878786644   16.9058266596
   4.0896379234    4.7879269540    5.7500406912
  -1.5342310095   17.2318913511    4.5895885367
   8.7901513237    7.2478070900    3.3887719730
   8.5671748050    7.0179082587   15.6358337854
  15.1673329073   13.2570598236    3.9541058394
   3.0158483283   13.5181240887    6.7961045710
   8.8806014832    7.8068112034   11.5902287522
  13.2343647026    7.5108672451    4.8191240445
  -0.7325606706    7.9569767205    2.7951376037
   0.5334403470    6.6727834511   12.0689065884
   8.8724325858   14.7682277003   17.7824053078
  10.8442359588    6.4291040659    1.7171069700
  13.2501658630    9.6079399617    2.6597478912
   9.0302111968   17.7426637753   13.2047019108
  16.7847672605    5.2191685213   11.2647304178
  16.0233302518    7.0381395215   12.5305811075
  16.8379644433    5.3518822024    1.7114225377
   2.0438012974   11.2680001510   14.8808910355
  12.5142734053    1.4713261262   14.4304538631
   5.8166720865   11.1464324591    5.0336870487
   8.0047427466   18.9834910941    7.3393504700
   9.8873013522   11.6984375985    1.0536078557
   0.3435937495    9.9957838210   18.2934920724
   0.1666968462   19.3297707739   11.9675812012
   1.3749967688    2.6094360188   11.7561763248
  -1.2110586831   11.5668922458    0.3556126729
   9.6148121849   16.4519119889    5.2641075616
   0.1042805853   13.4727653490   14.4553130638
   3.7130952907    9.8904515401    7.3626084905
