B2 C140 Ca1 F48 H298 O66 
1.0
1.7888715473933434e+01 1.8101635542984679e-17 4.2931656609822559e-18 
-2.9834234742657251e+00 1.9217823884506835e+01 4.6371094528203860e-16 
-6.5389037356194210e-02 1.3474891081540192e+00 1.9358941491955832e+01 
B C Ca F H O 
2 140 1 48 298 66 
Cartesian
  10.6011651481    3.7178732332   16.7217787222
  -0.7676790879    6.2758490410   12.0149649447
   0.1650378482    1.6055554371    1.5332003286
   7.3977247175   13.7041968945    7.4414305753
   4.7371097759    6.5527061853    1.0099743865
  12.9763533120   12.6138986397   12.3618594736
   4.5608377925    2.9417019593   16.4431665942
   2.5410856151    1.9399593148   18.0740347234
   1.6099879794    2.5054805136    5.6065057454
   2.7977004367    1.1954240565   16.6841250873
  -0.1154730701    3.9778233880    5.9262801335
   3.2717088065    6.5060539531   19.0384133321
   2.5159080069   17.4606820251   18.1997999498
   1.0765902486    3.6740091029   17.2147537147
  12.2562835588   15.8368991595   14.8746466447
   5.3425494683    9.9549466654    0.8074928038
   6.1174485875   17.0346761772    9.4060909742
  12.4023279703   11.7895687681   16.0256082845
   9.6434373597   11.9258613077    6.8369376132
   9.5727934171   13.3417191473    6.5232976836
  13.1249912618   11.7287179204   14.6353450916
   4.0427393923    7.9365370960    0.9102341401
  12.3026140034    9.5030769268   16.7789122041
  12.1176565535   11.8328555768    6.3464459816
   0.0418982213    5.0026959037    7.0040437106
   0.7882836879    7.3082326916    6.7849989192
   4.9479974975   19.0899385017    9.6147237267
   2.1799638940   16.3114835361    1.1059989393
  16.0441189873    1.7158531567    2.7422018725
   4.0491791521   19.8609655101   10.5835010473
   1.3821837071   15.1267216008    1.5066264956
  13.4700645801   16.8182345884   16.7097351741
   5.5082292069    2.4670725585   10.5893733357
   7.3263750806   13.9814232169    3.0004359986
  14.8328116303    0.8065827957    3.1713356568
   5.9876688362   13.7234329618    1.0125598777
   5.8750277774   14.8576685688   18.8994471004
  15.1238340690   15.2182971514   12.0569057963
   1.9006529038   12.8585238089    1.9228476009
  13.1627998435   15.7905881073   17.8158226624
   6.1656395297   13.2751580334   17.1358946276
   5.0149759474   17.8547403266    3.8072075388
   7.2276679881    0.4008551176    2.5608152687
   6.3660354934    1.6422219520    2.5779765463
   4.4328492457    2.5551466022    2.0930886145
  15.1772770510   17.0241014783   10.3853419173
   6.9735298488    1.3629332961    6.7898064578
  12.5058940695   15.0672113868    8.7858115328
  13.8048405001   17.6399190681   10.2357348796
   3.7604228530   16.0803342129   11.9319165024
  13.1451362321   18.3614582772    4.3673526454
   7.9431814164    2.5377245380   18.1717566640
   8.2851670450    5.0018988015   19.0593713078
   8.4594643329    4.0183941825   17.9148212552
   4.1064325472   15.4152435825   14.2029889144
  12.2194522771   18.8002300333   11.5194399403
  10.3734474176   14.9102790399    9.7677687940
   9.8004340301    3.4413929814   13.1462280688
  12.1682813967   17.1073172894   19.3467856621
  11.9975493013   13.3710677182    3.2674731174
   9.8774368493   14.6215156088   11.2142679656
   5.5027230727    3.0012612251    6.2356590603
   1.6424487069   12.8145973552   11.0919911558
   3.9909653040   16.6675030718   14.9537128275
   0.3265411429   18.4846757869    8.5808078003
  10.7975587612    3.7770158099   14.3179681062
  11.8158064287    4.8667998150   13.9162958913
   5.4753886115    4.4050681591    5.7812913730
   4.7510231910   18.8713520163   14.9964182845
   8.8247683484   12.5620630072   10.6867070383
  -1.6283644396   13.3859368863    8.6536987254
  15.3958201361   11.2638357472    8.8486467233
  -0.5490701496   16.8764035128    6.8840460974
  -1.3446121001   10.5060324266    8.1790788227
   6.1374682229    6.7256168204   15.3753415378
  13.4056930364   14.9470820595    4.4528518910
  -1.4361629171   17.6572263257    5.9262516648
   3.0150031419   13.6083467572    9.3839780735
  16.1514175606   10.2019711803    5.7290781960
   3.9989132038    6.1179457202    5.2740919474
  12.1197342729    2.6853473976   18.2045886766
   2.3740398770    5.5620664068   13.2824506213
   9.2287384662   20.3296722223   18.4437048301
  14.5477732566   14.0622482732    5.0165141899
   7.4314519524    7.4193425086   16.1970192991
   2.9738581327   14.3682472941    8.0246253689
   7.5894818999    7.3640484948    4.1345979047
  -0.4305695460   17.7433833348    3.7464337992
   7.3393264399    8.9500659399   16.0201319047
   9.8451812014    7.5637127439    9.4913644239
   0.6255507313    7.6344995680    2.8840176743
  13.4442042055    3.4473283532   18.5623573505
   2.3742134271    6.1349202545   10.7289761134
   1.5593350621    5.7199893774   11.9330750955
  10.8915723907    5.8967357404    3.1209680784
   9.4711315815    6.0624860114    3.6450104648
   9.2383178036   15.6629688196   16.7065467181
   8.8198343177    8.3645453740   10.4226350423
  12.3164002565    9.3759538263    3.6986097578
   8.6709413868   17.8107265327   11.8498507218
  -1.3026403657   13.1462797603    3.9637607184
  13.9827979305    7.1103423134    5.9523348605
   7.3393531551    8.6334904698    9.9278747184
  12.4434608796    9.9005290297    1.5151403069
  12.1247608023    6.2673856509    1.1259598595
   3.0101513454   14.4365539506    5.6868487200
  12.7910228017    8.8639865041    5.0100413792
  16.0923307152    7.1597385706    3.0496203826
   8.2993786764   18.6502310660   14.0196254176
   9.8399569438   13.7243951112   17.9617296737
  15.1863037926    8.1061530524   14.4138453441
  16.1728083475    8.1664321044   13.2828074248
  15.6639536128    6.2293294060    1.9800241362
  15.3690379256    3.3839704667   10.9627764321
   9.3022474807   12.7552328179   18.9916053107
  15.4176862134    4.8809779218   11.0449813593
   9.0077277718   19.3837161606   15.0990727150
  14.7481962153    5.7027695573    9.9340448865
  16.1989391823    9.4849468423   12.5296795268
  11.5272289772    1.0681810241    7.0707868953
   2.6957447162   10.1910730202   15.5484119321
  -1.4292719989   11.5040835977   19.2536651750
   1.4570463856   13.5903027095   14.9559419805
  15.3135275639   12.0401601853    0.7221728393
   4.7201826680   10.8782033798    7.3027918948
   4.6403925166   11.0381890925    4.1499361989
   9.6042073985   17.6450128110    6.0750908637
   8.1319134340   18.2067183585    6.1225414894
   2.0056618864   12.4230116164   15.7044147164
  -0.4908491791   19.9729358481   13.0804493341
   1.1193074606    1.3397544782   12.4127537924
   1.1228700938   18.3977170218   12.5348655221
   2.0984950383    2.2391061487   10.5057210254
   8.8890389347   11.2017897902    1.9414992425
   2.7297206445   10.0407385346    8.3305225353
   5.7354745696   10.3231390108    6.1678892977
  14.0469195585    1.5226758079   14.6620142133
  -0.3506584492    8.7654095514   18.6205234396
  16.5981657812    4.5886286486    0.5105924496
  -0.9202513751   13.2116907869   15.4266901961
   0.0290554020   11.0968226896   18.9829230757
   9.9242953317   16.6616701191    3.8891011982
   8.8231210960    6.9768400956   13.4543692248
   7.9471011167    2.0836196542   16.8397389743
   8.8724854945    6.1790655689   18.7200402760
   9.2290369952    4.4850092741   12.4422939458
   8.7995721084    1.7282494827   18.8947892001
   8.8362509716    3.3364325342    0.9327385320
   6.6393241832    2.4856589391   18.5973482016
   6.9062267050    5.3935983280   19.2058808797
   8.7077667904    2.8417178282   13.6291543618
  12.5010644689    4.4229506707   12.7108079944
  10.3337070964    2.6171118712   12.2567486881
  12.7770198490    5.0370112096   14.8210647172
   4.8402190138    6.9440116878   15.7285201540
   6.3135804155    5.3773909606   15.7723423579
  11.3870609685    6.1319990759   13.6987831857
   6.2609328583    6.7580287532   13.9995684761
   3.1406574500    4.4898331493   13.2554111400
   8.2607999530   19.7071740209   17.8554947042
   3.2552410344    6.6691183527   13.6067038609
  11.1552141833    7.7600384264   10.0143015240
   1.5939519203    5.6837641498    9.6877047546
   7.1879822464    9.4082757833   14.7259741403
   8.6025620012    9.4855442885   16.4482521399
   1.4842472034    5.3654233647   14.3216910465
   9.7680151804    8.0573806917    8.2281994806
   9.2248833592   18.8218939047    0.4333941907
  14.6034843710    3.3945223010   17.8235027426
  10.4087990272   19.8776080423   18.0682527768
   3.6071891323    5.4796289224   10.7053250004
   9.7834625340    6.1611694721    9.3935684148
   6.5652920150    8.9719010561   11.0674252122
  13.9176059116    1.6160014004    0.4420149271
  13.1011310008    4.7898609274   18.5027355143
   6.3515109961    9.6033140182   16.8637447567
   2.4858973753    7.5247258582   10.7829789984
   6.7268004418    7.6494533046    9.3341329207
  15.2914499712    9.2026642813   15.1951312746
   7.3621621439    9.7312309978    9.1039843516
  14.0918425445    2.9814518619   11.2338383911
  13.8670253827    7.9552379606   14.0176505459
  14.8194029848    5.2720054029    8.6809541635
  15.7115011916    2.9760128191    9.7092851331
  15.3928068490    6.8849879841    9.7496810521
  15.3396068131    7.0365293659   15.1472578775
  -0.8488037945    9.3829170121   11.4706187859
  16.1530408769    2.8013375937   11.7960003804
  -1.1679372288   10.4266506796   13.4082674663
  13.3936683894    5.7648627179   10.1855977702
  14.9952739040    9.8050383843   12.0945748135
  -1.1399313119   20.4413009392   18.6112713513
  11.7716866595   12.7341051507   15.8897487352
   2.0712351393    2.2561406715    4.6536781451
   5.2599823451    6.5041245117    1.9660025771
   5.2165822883   16.6690664409    8.8769321236
   9.8628265840   11.8646129266    7.9447198902
   5.6169608868    6.4719249575    0.3875323891
   5.5708597156    3.1606598533   15.9905911619
  16.9651034408    4.4319164118    5.3532767052
   0.3598017831    2.6872796239    1.8221438462
   1.5145309644   18.1405527904   18.0261273230
   0.4186624186    1.5065047515    0.3644250338
   6.7992479134   14.1149530186    8.2620676767
   0.3892412420    4.4506057359   17.6515097010
   0.8789191840    1.0809424878    2.1199028387
  12.3319635321   11.8187042470   12.0159773639
  -0.1692643482   19.3568205659   16.9588674865
   7.0583571635   14.2138249706    6.5607392481
  13.1351765948   15.9028147899   14.2095219476
   6.2306222474   10.3112947780    1.3390374185
  14.0647472645   12.3726568159   12.2781254201
   2.5044020756    5.6630551429   19.1772792290
   2.9085430487    7.3947951672   18.5583264997
  11.7639609028    9.1267700619   17.6578433017
  12.2952015840   11.5332387995    7.3706165897
   0.8809156997    1.7653671303    6.0428661541
  17.3995700981    2.9905273175    6.4162582960
  10.5494437726   13.8385197445    6.7540604496
   4.5237475085    3.3722757244   17.4459198379
   5.7038476947   19.6450613678    9.0860654535
  12.3935645941   14.9333078207   15.4919254148
  12.9443471930   10.5774922167   14.2702108034
   2.2791165130   16.3687297451   17.9833403925
   3.2913558124   17.8143275607   17.5101482150
  11.3434939650   15.9761344269   14.3620827867
   6.8981310485   17.5117826808    8.6839555146
   0.4453376503    2.7886599258   17.0257555181
   2.8123882433   16.5301376885    2.0465427225
   1.3874176182    7.8767647800    6.0124514298
  13.2242823680   12.0873412491   16.7520389327
   2.3732701492    2.8363810164    6.3337102528
   6.5029596706   16.2599957583    9.9825361733
   8.8363078451   11.3419059794    6.6061978842
   4.5590580737   10.6806349508    0.7236402232
   7.1273479308   12.5568603093    7.2995139233
   5.6858870127   10.8824638455   19.2500347272
   4.1221943492    6.0040816370   18.3821468466
  12.7992456631   13.4704413044   11.6830746248
   3.4429919590    1.7287622203   18.5589217713
   3.7928334967    3.4954013050   15.9288070626
   1.7054469695    3.9558307103   16.1858745676
   2.1300439477    1.5147399006   15.9194530002
  16.6329979392    2.0290968626    3.6870112218
  15.6274070225    2.6433371273    2.3536959958
  13.4471901245    9.7695067323   16.8808654502
   3.0905503170    7.8894835524    1.4073656980
   3.7633557351    9.7144110150   19.2263054794
   1.4735174495    6.9046365343    7.5019970752
   0.9280072060    4.8035850396    7.6720513302
   1.4570093372   17.1841613013    0.9645143824
  12.6898005460   11.2471036508    5.6463930907
   7.5868499440    1.5090818880   11.0233072940
  12.3316717662   12.8686389058    6.2900889615
  12.1323616172    8.6643340629   16.0014474485
   9.1892282412   13.5328776976    5.5367749914
  14.2328661204   11.9663363275   14.7324535301
   4.2763742883   18.4689084737    8.9495739583
   6.6929749635   14.8344292242    3.2723593322
  16.9683590460    5.0657465286    7.5695282508
   0.0850403194    7.9847951432    7.3047081275
   5.5280237068   14.6119383990    1.3920238883
   6.2275681625    3.2468207479   11.0334280447
   0.7770205486   14.6915205426    0.6395587275
  13.6710816016   17.7389357929   17.2381701492
  14.4391877687   16.5703831643   16.2500085226
   4.7863471011   15.1778214701   18.6455339399
  14.0858331172   15.2615893447   12.3762747883
   8.4163398937   14.1784909177    3.3062547579
   4.7283354479    3.1158134515   10.0915042274
   3.6413478150   19.1775315037   11.3243148220
   6.0081743044   12.1730578669   16.9587421016
  15.5354454558   14.2700174657   12.3105121103
  11.5017812124   19.2939123606    2.3591097014
  14.0625344696    1.5514400436    3.4210034707
   4.7279132233   17.3414995321    4.7229136507
   6.4054084345    1.3250757147    7.8035735355
   4.1679041144   19.0026173744    1.7407585368
   0.6684969696   15.5451423590    2.2690322993
   6.6054474181    2.1108665295    3.5919150105
   3.3523930911    2.2771202248    2.0988171771
  -2.1623624677   17.6864966683   11.0878500189
   0.9179986908   12.6160798685    2.4258680981
   2.2613347827   12.5946115774    0.9294648885
   6.9738333342   13.1037225528    3.5917938024
  13.0761247772   14.7308088827   17.4223767313
   5.0178831730    2.1022292383   11.5367668459
  13.9781723252   15.7454024641   18.6316414172
   7.1324123906   13.6261625302   16.6901410349
  12.3810823220   14.2212199821    8.1227399675
  13.0036909144   16.8641578638   10.3314034461
   5.3647874906   12.8772355900    1.4118345439
   3.0204849998   16.0915517643   11.1173235400
   6.1559337037   18.0412644381    3.8011156133
   4.7183179321   15.7562299888   11.4882456364
  13.5772179794   15.1311814091    8.9380779010
   4.7540578375    3.0396760733    1.1278513565
  -2.1782594966   15.9644183289   12.6741504367
   6.5280147400   15.5814348620   18.3431452320
   2.6869450092   12.4173322914    2.4426096056
   8.0419483843    1.1470711773    7.0091861441
   6.6502173480    0.6729654010    5.9929786082
   5.4354047017   13.8729481177   16.5881500579
   7.9873288503    4.3909762557   16.9815614574
  11.9675292623   19.8339190439   11.5813444608
   3.8793055141   14.5170502685   14.8152327903
   5.1058527385   15.2906494889   13.7521672609
  10.0500289421   14.2786256914    8.9029268428
   3.9836691035   17.1147556184   12.1838209503
   4.8833659840   17.2039529491    2.9352633240
   8.2186487232    0.7637046005    2.4730669074
  -2.1130588315   17.0141162738    9.3800625518
  14.1296128099   18.7167723609    4.0312447332
   6.7327532342    2.2166912230    1.6626181481
  12.8580058111   17.4686757804    3.8172464823
  13.2859567387   18.0815194884    5.4201022688
   4.5650062321    3.3226137528    2.8041735893
  12.3149465488   15.8941319509    8.1765451132
  13.6913593491   18.1523788035    9.2734406378
  10.4936004008   15.1456754976   11.8805499824
   0.3123122021   18.3814817311    9.6897883760
   2.1144818247   11.8653127567   10.7612270393
  12.7542781356   13.5577971242    2.4440348048
  10.9553521787   13.1811181086    2.9961144251
  11.4777541985   18.2292414960   10.8056315921
  12.2470281593   17.9315338742   18.6448816225
  11.3036179915   15.9351251787    0.5344018480
   1.9890482404   13.2305659717   12.0698912705
  11.9152594160   18.3727960160   12.4509383637
   0.5356462854   12.7619563686   11.2367672382
  12.3453856607   12.4578785625    3.7982585494
   4.9488817171    2.3645782498    5.6472687675
   9.9744366574   15.9510669404    9.4994458300
  15.5843341528   13.7012201940    7.8546922520
   9.4735418301   11.7288833035   10.3306352392
   5.0930011570    2.8961575591    7.2105652279
  13.0234848466   15.7983668549    0.7666750739
   6.0230772098    4.4340404031    4.7902173208
   6.0983957947    5.0896179628    6.4838672447
  14.5893189473   11.5460263783    8.0795339166
   5.4824640031   19.5950682305   14.5852754391
  -0.0659234576   19.5852569122    8.3016989298
   1.3172695714   18.2916049370    8.1309339810
   8.8208877210   15.0880612623   11.3591528194
   4.1841568408   16.4800823716   15.9794994952
   2.9152795601   17.1387807009   15.0354217796
  -0.6714936782   13.2169260042    8.1717826447
  -0.7839603687   11.3150171778    7.7185201398
  11.4800379574    2.8875066106   14.3903578405
  13.7442424521   15.4922684340    3.5393764538
   4.9324117211   18.8718765053   16.0587131361
   8.4436131184   13.0208210143    9.8325213030
  15.5318411110   11.1457697450    5.6518590344
   3.6700811427   19.1453739073   14.8815107085
  -1.2709573003   18.7395630737    6.0443898101
  -2.5040501377   17.5819792171    6.3347566327
   7.9015576559   12.1251920365   11.2596273981
   3.2420891465   12.5767480236    9.1297393952
  -1.5634206067   14.1302086290    9.4173750821
  13.3187309926   15.7411046856    5.2789328152
   3.8076193783   14.1128925629   10.0367138278
   0.5708297596   17.0798366722    6.6267012297
  11.3954403448    3.0394148537   18.9842690400
  14.8941090496   10.6264233518    9.6172157078
  -0.8926565997   15.8891588209    6.9351935345
  15.7076340673    9.4567992061    5.0861800372
   4.8584707026    6.3277406331    4.5660577225
   7.3925416586    8.4694490433    4.2048283933
   4.0435061990    6.8629056450    6.1053654876
  -0.6830842983    9.9727588952    8.8896259156
  14.2242781688   13.3186689198    5.8321795517
   0.8561500633    7.0062036664    3.9279774587
  -0.7320595054   10.2700682285    5.4785840506
  -0.5059577246   17.0730217233    2.7943944256
   0.6015296192   17.7927046245    4.1239701728
   2.0904873459   15.0380447857    7.8647231442
   1.0818282541    7.1390810625    2.0198347845
  15.3001273292   14.6421726300    5.5151072833
   3.7989147391   15.2044947947    8.0668409557
  11.5770167485    6.5772779387    3.5948894139
   7.3712107128    7.1847769130   17.2993307600
   2.9333257352    6.3187819782    4.8956503249
   1.1316731376    8.6788968228    3.0529017360
   6.8454975551    6.7949147687    3.5741140071
   8.5031575942   16.4804421555   16.7640757556
  11.0951061350    4.8448875459    3.1461421037
   7.7648488300    6.9382271277    5.1298645271
   1.0596836264    4.7159785146   11.6960035535
   8.5488501033   18.8373928626   11.5390285910
  11.7255383570   10.3034071872    4.0350932106
   9.2993884948   15.0647960797   15.8136175708
  13.2076407436    6.9288333069    6.9176117471
  11.5190045954    8.7774266760    3.3129698936
   9.4300406920   17.3557272749   11.1777262663
  -0.7135654958   18.7643258544    3.3274552683
  11.5913246914   10.6057470998    1.6778042294
  12.9434737042    6.8901540682    1.6305360593
   8.8837274526    5.2593956744    3.1108932339
  -0.8061697381   12.5945935228    4.8127851955
  12.1856015294    8.9551064090    1.0588749872
  12.4533604865    5.2288436330    1.0575950536
  10.2490240075   16.1238673281   16.8043956078
   9.5808767995    5.5548639770    4.6782177664
   7.7029456673   17.2556601299   11.6359737803
   1.9268902510   14.5309959030    5.4330768801
  -0.7610073203   14.0461490281    3.7632463334
   9.2591460485    9.3824303398   10.2529457884
  14.7122596751    7.9319715405    6.2802145110
  -1.1678944635   12.3714507666    3.2454888826
  15.2753278485    7.8546947345    3.3324960812
   3.3525708619   15.3864182996    6.1006578314
  14.3905409774    6.1406362091    5.5602537784
   7.7937158581   19.3239852102   13.3616361066
  16.1769167317    6.6237354740    4.0427165649
  11.7932070226    9.0014762849    5.4422780358
  12.8983124120   10.6034590680    0.7679357592
   3.4774377502   13.9070220219    4.8669788720
  13.5105644433    9.5365602559    5.5739385971
  12.1867579318    6.7621882448    0.1020739483
   9.8940754503   13.1246237551   17.0545035144
  -0.7373845036    8.0416584883   13.7400378825
   9.6563854493   11.7421531077   18.7885326212
   7.4827874818   18.1003179203   14.4677323907
  10.8577159090   14.0942643634   18.2033309256
  14.7488938689    5.6455199360    2.3068595785
   9.9624013250   18.9110396076   15.4640738966
  15.2174490645    6.6619980929    1.0745857719
   8.2045177602   12.5442218360   19.1297025610
   2.0842092229   10.0058746522   16.4775388683
   1.5745161491   14.4694281481   15.5887548683
  10.3426789908   18.3086138791    5.6974169045
  10.8065056569    1.6959124314    6.5191860061
   5.3196296962   11.0880592812    8.1757920724
   3.6926773956   11.0932475375    4.8139562334
  11.5251109766    1.5970896414    8.0874435285
  16.0051592812    9.5129144998    0.5825401515
  15.8339188742   11.5951822215   18.3815186232
  14.8856008358    5.1488084472   12.0711938718
  15.3160916292   12.8461341326    1.3816825648
  14.5022254186   13.4702862818   19.3525488767
  -2.1482896837   19.7568301830   11.7522669151
   3.1624013672    1.4143890179   13.7009522995
   0.6202060892   17.5443187516   13.0985229769
   1.3475980288    1.8761826233    9.8923973554
   8.3675171226   19.6560329158   15.8494821167
   4.3370409631   11.8456699522    6.9204678141
  -1.6840599946   13.8385932961   15.0574729370
   9.5722078587   17.7082570003    3.6161725370
   3.1940180635   10.2794861505    9.2942205936
   2.6892711439    9.1785857359   14.9825753527
   7.8030565525   18.8182864727    5.1987528884
   0.2264338841    6.9347715358    0.1168250926
   1.9444643076   13.8133652124   14.0109091662
   9.2873409108   11.1740660558    3.0033654319
   1.8607065863   10.7168627420    8.1770148481
  11.3967667015   19.6390108707   14.5295378528
   4.6422213594   12.1336487786    3.6787568485
   3.0351335499   12.6305683639   16.0120757693
   1.8273882244   18.8345560556   13.2135886615
   2.9931803352    1.6182342658   10.6949851588
   9.8467302533   17.3257996816    7.1770393044
  -1.1675547784   12.1221621034   15.6536396971
  15.7850040250    3.8926842353    0.5550744542
   3.7736815563   10.5760112682   15.7294631161
  14.9146498974   11.3598602460    1.5022541655
  12.5064841210    1.0829194336    6.5379339846
   4.7838488003   10.2931187751    3.3951590370
   8.7439027962   10.0879587731    1.7688837931
  16.2275501838    6.5718771381   19.0398816118
   6.8063411872   10.3276990306    6.5374049886
  14.4238756943    2.2998746100   13.9845088121
  -0.4517771103    8.1567707752   17.7056915285
  10.9617889849   16.4137635986    3.6474864410
  16.5320436797    9.1103221966   18.9650643050
  -0.9365302758   19.2321123744   13.7334781479
   0.2196003431    1.4258209640   13.0761108793
   1.6190527039   17.8213458524   11.6820557293
   2.2957352537    3.2407337730   10.1488821811
   0.4991812137    9.8072472449    0.6170880171
  -0.3206869686    4.2272059921    0.2526456828
   0.4597989943   12.0204252895   18.5217464336
   1.2315394755   11.9827879829   16.4129383083
  14.1673100795    1.8140318034   15.6492975487
   9.4179913132   15.8484513878    3.3828178646
   2.2149302844    9.0389170108    8.3096009051
   7.4848967095   17.3136031440    6.0999720773
   5.4206320741    9.3614715624    5.8738725023
   7.9634135765   11.8190369699    1.7714390052
  -0.5411433603   13.5431438301   16.4492865035
   4.8414336170    8.8813130526    1.6811680266
   8.7025372823   13.7999514503    7.6133842987
  12.5172506190   12.7838674609   13.7484049141
   4.3101385886    1.5383438996   16.4838454035
   2.0867127202    3.2790597677   18.1798363933
   0.2240330251    6.1063976838    6.1937992817
   3.8521688930    5.4139555249    0.9298702977
   0.9438694291    3.6527410402    5.0771380363
  10.7303669822   11.3952320973    5.9562948418
   5.5993850323   17.9612250927   10.3701007385
  16.7349442447    1.0735919195    1.7662251681
  11.5931279637   10.6883866218   16.4353458622
   3.0985826915   16.3837044832    0.0827939518
  12.4564576669   17.0367031645   15.8106748010
   5.9368122714    1.3143868982    9.8558118834
   2.2428957505   14.1704452626    2.1207535687
   7.2688138058   13.6834094108    1.5271207822
  12.1220027270   19.3109508593    4.4527918328
   6.0955620303   13.5090520849   18.5273840841
  15.2246401650   15.5664305271   10.6787077325
   4.2044135623   18.9541795477    3.8001774158
   5.0423888779    1.3460005848    2.4642801432
  11.9030530434   15.9881504876   18.4948625683
   6.8961546833    2.7369504309    6.1955402088
  13.6779838942   18.5877611068   11.3567441388
  11.7390162355   15.1881863571   10.0089164812
   3.2395199745   15.4488763508   12.9715130670
   4.9634534879   17.5594844244   14.4853198478
  10.1805037383    4.1609182844   15.4632426624
   9.9030667367    4.0108507863   17.8071187600
  -0.6339327576   17.4446764813    8.2025508512
   9.7574887555   13.2839494123   11.5168726425
  12.0444976678   14.4025089944    4.2791185401
   1.7896029584   13.6934646014   10.0098930077
  15.8150609821   12.4298551356    9.5810362661
  15.9351827555    9.7292843461    7.0914777280
  11.7298494322    2.9899849499   16.8928682651
   4.0864468153    4.7765875211    5.7290977624
  -1.5171174066   17.2436285885    4.5719614028
   8.7888434054    7.2317718970    3.3746254664
   8.5873717101    7.0119449971   15.6223123082
  15.1632407615   13.2602200550    3.9734850985
   3.0296270347   13.5101545967    6.8005152029
   8.8829459726    7.8063603171   11.5925268493
  13.2411441506    7.5133850299    4.8340241044
  -0.7140723051    7.9503075879    2.7810759023
   0.5518813673    6.6694173036   12.0653649550
   8.9022301946   14.7477521238   17.7725633405
  10.8622643915    6.4304630352    1.7277481396
  13.2491524672    9.6147846848    2.6514054189
   9.0188462992   17.7270015590   13.2128341716
  16.7928492183    5.2204756674   11.2641114444
  16.0391659496    7.0151086550   12.5156356246
  16.8318426404    5.3555263242    1.6996353954
   2.0609376355   11.2358404817   14.8742863297
  12.5258717656    1.4772651997   14.4250488503
   5.8300992956   11.1326127356    5.0093075937
   8.0142688388   18.9895118157    7.3531073431
   9.8824530079   11.6994310450    1.0555985107
   0.3372690291    9.9924250632   18.2937704924
   0.1577781034   19.3162503378   11.9518728278
   1.3647566204    2.5950880908   11.7855767330
  -1.2118995298   11.5750501964    0.3610418477
   9.6410011335   16.4469310753    5.2713315981
   0.1068038341   13.4797127877   14.4560819803
   3.7097077909    9.8741617399    7.3602538295
