B2 C140 Ca1 F48 H298 O66 
1.0
1.7847670314889466e+01 1.9586931762196045e-17 -5.4083952725552157e-17 
-2.6907741850403135e+00 1.9226601959682526e+01 -2.8332122865986467e-17 
-1.0051435334383532e+00 9.1436326912863164e-01 1.9480912843196716e+01 
B C Ca F H O 
2 140 1 48 298 66 
Cartesian
   9.7052087423    3.0510363652   16.8727775256
  -1.2770506572    6.0777731442   12.1650566082
  -0.0564042840    1.0148951559    1.5836551677
   6.9155670244   13.7012863286    6.5902563119
   5.0669639193    6.2110674057    1.4091000344
  12.3620144709   12.5187016924   12.5950878436
   3.6923447063    2.3449641349   15.4869490064
   1.6621057813    1.8803688046   18.4470080721
   1.3831709477    2.8121396359    5.4529886051
   2.1364345579    1.3934409527   17.0762993356
  -0.6419898510    4.0189207688    5.9005912555
   2.9614993732    6.0676588016   18.9036665182
   1.7480991385   16.2540515140   18.7497948863
   0.3423011702    3.8147947794   17.6825383000
  11.7559347957   15.5478949781   15.2219944297
   4.4013524600    9.5985025304    0.5390628716
   6.4162302614   17.1823272038    9.3109577466
  12.4379254807   11.6976518655   16.3029557571
   9.7428216556   11.8687742772    6.3993690168
   9.4104320187   13.4170269318    6.2424669861
  12.7588712690   11.4911607842   14.7861573371
   4.1514703339    7.3682065971    1.2213831666
  10.7292674053   10.2058603686   16.7896982680
  12.0034341818   11.4422057227    6.5908928709
   0.0262982282    4.8672394594    6.9232671228
   0.4996259017    7.1783706936    6.8555124949
   4.4551467319   18.4544297382    9.5870543275
   2.5224407355   15.9967579245    1.6134640129
  16.2260385558    1.5480269744    3.2339404406
   3.5500127390   18.9033461580   10.7226689551
   1.7938715241   14.8113647271    2.0728101729
  12.9416591511   16.5642370382   17.0415876444
   5.2364475626    1.9046866087   10.8973668290
   7.3816271850   13.6920748441    3.1073646277
  14.9289887346    1.1213366805    3.8008825233
   6.2996717679   14.0090652066    1.0190410976
   5.3120261622   14.7769759523   19.0120609275
  -2.4516315396   15.3361749993   12.2559773244
   2.3811400504   12.5678834257    2.1588818834
  12.5271258514   15.5209764636   18.0850984875
   5.4097978661   13.1404477051   17.2610658816
   5.1802121745   17.7429460905    3.5204137952
   7.1375520987    0.5158545906    2.3878928910
   6.0526156632    1.4839919373    2.6987425495
   3.7071961311    1.7339680701    2.5706658690
  -2.5499527419   17.0953939976   10.6846669114
   6.5012782825    1.2449108644    6.2659061350
  11.9287972033   14.9955854597    8.9122691799
  13.7148115860   17.2240711762   10.6873665141
   3.5251932871   15.4092392127   12.0961636761
  13.0547047108   18.2016376526    4.0431938795
   6.7942178306    2.3228114560   18.3784318625
   7.3602046054    4.6423262754   19.2398961796
   7.5560810761    3.6324282626   18.1460229575
   3.5894225938   15.3804211418   14.5616447144
  11.9046003671   18.1034243285   11.8127166208
   9.9007748872   14.5758507376   10.0438901494
   9.0468339952    2.9413800724   13.1964941019
  12.2821885824   15.6220795723    0.4518886547
  12.4283348311   12.9895998187    3.3120629245
   9.2951355202   13.8744912485   11.1743465568
   5.1456974173    3.1250655983    6.6110153891
   1.5651149682   12.7874641117   10.8990527845
   3.5369754289   16.7781741426   15.0820500952
   0.7417345002   18.3149070400    8.2146166424
  10.0376668866    3.0844736874   14.4030679594
  11.0105185801    4.2601038474   14.1180750502
   5.3687498519    4.5693768291    6.4726744626
   4.4786487103   18.8596626921   14.8466579652
   8.7948719794   11.8212013585   10.2602120936
  -1.1738192188   13.3185271933    8.6966124201
  15.2322976461   11.4666622210    8.4934929021
  -0.3707833388   16.8176201734    6.7271254844
  -1.6184246875   10.4726572972    7.9491774482
   5.3668018975    6.7091411027   15.6864267988
  13.8559400817   14.6018940701    4.4590116927
  -1.1186555067   17.7939718959    5.8662897644
   2.8876705282   13.7264664841    9.0943557063
  15.5474649094    9.7853961696    5.7424884380
   3.8658270736    6.2016765901    5.4943674117
  11.4097420933    2.2853461475   18.4030827246
   1.7731186153    5.0986488713   13.3662191708
   9.0062592548   20.0078381112   18.5628263672
  15.0136326231   13.7308134217    4.7521964713
   6.8324926909    7.1228596069   16.1008508511
   2.8514922425   14.3189917632    7.6501195038
   7.5770141860    7.1602424033    4.0446105097
  -0.0528979066   17.9997317169    3.8879263694
   6.7779270946    8.6789882376   15.9479897970
   9.6153003827    7.7353023946    9.4572568427
   0.4354519414    8.0256995154    3.2769215878
  12.6206327593    3.3007006664   18.8210202418
   1.9202719588    5.5766891770   10.7553922271
   1.0020609351    5.1660265819   12.0330357354
  10.6688879782    5.6140461835    3.1911014087
   9.3685012781    5.6338289025    3.7760403289
   8.4012306069   15.5349611033   17.3542371930
   8.7717142561    8.3363745557   10.5950904674
  11.9958984992    8.5567580549    4.1259748010
   8.5528197906   17.7774416315   11.3550503060
  -0.9237187666   12.9846096573    3.5656941758
  14.1316157332    6.7056197327    6.4510333810
   7.3743910629    8.5384449581    9.9558777079
  13.2030528432    9.4400528812    2.1497204343
  11.8750096776    5.9174603744    1.2535291682
   2.7253353539   14.1766205284    5.3005173661
  12.4772111759    8.0537509875    5.4461805395
  16.1128086796    7.1672509364    3.4634719855
   8.1902436977   17.9211135832   13.7112819022
   8.8375745596   13.1897447155   17.9843427339
  14.7046766949    8.0365309583   14.6490829409
  15.8148092507    8.1014120822   13.6068488425
  15.7394979586    6.4518340123    2.1294014240
  14.9734046281    2.9622803089   11.0407185245
   8.5454548540   12.2372680219   19.0388101784
  14.8180206432    4.4993455137   11.2058415367
   8.9643660685   18.5303776198   14.8163680993
  14.1124409277    5.2016596104    9.9777937839
  15.7040528116    9.4040687134   12.7367854664
  11.3150996360    0.6020581369    6.9030339132
   2.4361513576   10.0224592804   16.1635306969
  -1.7178325639   11.0080694780   19.4679501605
   0.5902718119   13.1021167959   15.2609857961
  15.7190594115   11.9913312654    0.5484338510
   4.8120465816   10.4186512827    7.6183688660
   4.9462578233   10.4494759583    4.4797363015
   8.9170727001   16.7743032276    5.7943405854
   7.7882000939   17.7507712928    6.1279839740
   1.1764417580   12.0256306560   16.0905612843
  -0.5094123806   19.8041000344   12.9167574972
   0.9412776427    1.3894779661   12.3175846618
   0.6212523800   17.6848035926   12.4512469393
   0.7117903603    1.6334192429    9.8824986273
   9.4917935047   10.7912488844    1.9582766769
   2.4808534340   10.0780756071    8.0149773206
   5.9983749894    9.9198196749    6.7522881166
  13.3875480201    1.1646456664   14.5684527932
  -0.6424648236    8.3500154976   18.5143564287
  16.7831766932    4.5299493007    0.6617713552
  -1.6989695186   13.1056272684   15.3804007035
  -0.2575594236   10.6075895994   19.3080762869
   9.4658335576   16.7602135576    3.3986691828
   8.4038127219    6.4454967122   13.4318555746
   6.5697158650    1.6925601228   17.1887329240
   8.3141162083    5.7202080771   18.9105276768
   8.7946020649    4.0859826569   12.4268928008
   7.4346331382    1.4879159408   19.2064437364
   8.6571921309    3.1474462173    0.9221902055
   5.5513113387    2.6331695051   18.9440069349
   6.1352602455    5.1351360831   19.3396037677
   7.8165402766    2.4979043813   13.5113070411
  11.5285016551    4.1075124129   12.9506715174
   9.5009989178    2.1195535705   12.2718194132
  11.9847368470    4.2269519039   15.0378007566
   4.3646441773    7.3431880145   16.3281621548
   5.3512064054    5.3601374860   16.1020553257
  10.5950237911    5.7071569996   14.1554247359
   5.1143250907    6.8904095428   14.3537940532
   2.5660358203    4.0827392832   13.4382838256
   7.9402960908   19.3099276178   17.9998734136
   2.4177074352    6.2881635411   13.4780819295
  10.9866360499    7.6541949483    9.7535269797
   1.1305430392    5.5618090709    9.5764731845
   6.9138583467    9.0080311541   14.5520863682
   7.8095587622    9.3366836634   16.5505546488
   0.9131102530    5.0037128817   14.3942503013
   9.4979170315    8.3199630403    8.2260555006
  10.2285531601   18.6734987694    0.3324505507
  13.5871747425    3.3686971626   17.8522375132
  10.1028335381   19.5652405878   17.9289255816
   3.0801645705    4.8747919176   10.5127098251
   9.2910733294    6.4859750498    9.1949294055
   6.5008767535    9.0384395927   10.9380463092
  14.2986053346    2.1840912067    0.4952428741
  12.0537923193    4.5242589259   18.7890465644
   5.6550572369    9.1363694146   16.3789430103
   2.2000133922    6.8884408054   10.9061366148
   6.7237927456    7.3999396807    9.5785237529
  14.9246449020    8.9114953629   15.6567792870
   7.3857654103    9.4171029276    8.9144479286
  13.7070448494    2.5441788003   10.9016268562
  13.4759292693    8.2279962858   14.1289621979
  14.4239329592    4.8678255860    8.7064662581
  15.7640371914    2.7910783133    9.9374454387
  14.4693874773    6.5736286532   10.1385968606
  14.6652115218    6.7787661317   15.2212301913
  16.0392969299    9.1229502330   11.3988206988
  15.5998349542    2.3842429548   12.0440687840
  -1.3584258785   10.3656855016   13.2282939327
  12.8101458153    5.0368474122    9.9651292424
  14.4058904663    9.9211816921   12.5948307625
   0.6203094442    1.3791345377   18.6375664543
  12.5332208275   12.7245203807   16.6669523122
   1.8458648624    2.0926944365    4.7378770863
   5.1826393828    5.9560272498    2.4800212989
   5.8183817831   17.1678485781    8.4015093680
   9.8367090891   11.5118275744    7.4518055511
   5.9683690661    6.4189469327    0.8341695461
   4.8469165398    2.4282964536   15.4162029762
  16.3893374949    4.5753962285    5.3714070406
  -0.0411287868    2.0667306159    1.2987411781
   0.8687312507   16.8798401199   18.4419956211
   0.0273618092    0.3348719400    0.7605621919
   6.3884266330   14.6338068074    6.9623325136
  -0.4464139633    2.9261546430   17.6129619401
   0.5985546992    0.6176766166    2.2969443869
  11.4881042812   12.0780681753   12.1355343379
  -0.8246839788   19.5077933813   16.9255402492
   7.0330961700   13.6504470778    5.4510549602
  12.7232561659   15.0666725980   14.8876854882
   5.2270490549   10.2304721581    0.3383956901
  13.2639837910   11.9653746508   12.0765046403
   2.9286192326    5.0100405148   18.5445241026
   1.9520325624    6.4515579360   18.9383669287
  10.7077597651   10.0956443428   17.9437088900
  11.6559801886   10.6288926023    7.2993776091
   1.2231449088    2.2311885864    6.3891324921
  16.7022595371    3.1144458684    6.3786704015
  10.2064011453   14.0611561530    6.3389505728
   3.4015168585    3.4211685437   15.6104383436
   5.0442208087   19.2644040161    9.0667184428
  11.0594175774   14.9245204629   15.7152473501
  12.1045887268   10.6193199964   14.5109854896
   1.4778326865   15.2005800855   19.0476320910
   2.5860968692   16.1900416704   17.9970703760
  11.1859364223   15.6991857146   14.2605417321
   7.2244616309   17.8904064460    9.2851818522
   0.6816651893    4.2559435778   16.7413789156
   3.1889675669   16.4084486609    2.3319560154
  -0.5999077586    7.1895101203    6.9176471246
  12.8561133307   11.0609214965   17.1290761089
   2.2094984930    3.5262457734    5.6831522853
   6.8103536945   16.1319124935    9.4939203898
   8.9010279722   11.3646459336    5.9511891486
   3.5317862536   10.0970804758    1.0361452867
   6.4872595455   12.7650030477    6.8022137381
   2.9965133670   10.0190427277   19.0926928020
   3.6219407469    6.7294672875   18.3608169393
  12.1202815939   13.5602096614   12.1823390257
   2.4949080271    1.8485039297   19.2339327745
   3.2542799334    1.9878079924   14.6473893452
  -0.1404865723    4.5526194650   18.2033741107
   1.4886476129    1.8142440378   16.1952984875
  16.9825977444    1.3153397477    3.9723462434
  16.4074786717    2.6909995954    3.0815430642
  11.4716554848    9.4758227867   16.4738566606
   3.2694025885    7.3715718249    1.9722744327
   3.6979726486    7.4384744019    0.2410047404
   0.8112115417    8.0541363678    6.1629559820
   0.8034542666    4.3440676399    7.5010249444
   1.6686856212   16.8586788870    1.4581763895
  12.9466812325   11.1557572252    5.9991008958
   4.1625586158   19.1909047178   11.5591105628
  12.1518500322   12.4235464259    7.1521634817
   9.6979928802    9.9655932536   16.4261660763
   9.3113972421   13.5278032094    5.1704544042
  13.7805300806   11.1599038798   14.7772421151
   3.8641589617   17.9195469353    8.7936269643
   6.9099901123   14.7451181633    3.3579800706
  -0.8527058675    5.1962869472    7.5801990524
   1.0469109548    7.1676822174    7.8504940109
   6.1889640107   15.0910120074    1.3376053858
   6.2402683888    2.3531115671   11.0561732453
   1.0043203126   14.5513471927    1.2740697120
  12.9457312550   17.5970264699   17.4824278414
  13.9608429916   16.3584383843   16.6507851470
   4.4538461677   15.2736985513   18.7233015848
  14.3453575306   15.4443941724   12.5663849178
   8.3849733370   13.6494563282    3.5463275787
   4.6234672948    2.4336759057   10.2090489822
   2.9510546046   18.1004612657   11.0869358774
   5.6471689470   12.0873630142   17.2461557013
  -2.1676702253   14.2304155538   12.1921028941
  14.2652555552    0.8201866122    2.9355927088
  14.5004085899    2.0400489963    4.4416495225
   4.7444744558   16.9122267220    4.0958971001
   6.7448112469    0.8067771629    7.2688966561
   7.3198429275    0.2997898663    1.3435210364
   1.1682760724   15.1997275600    2.9623719071
   5.9947423345    1.6923544043    3.7332851467
   2.8057743086    1.3142863431    2.1326174104
  -2.3831431926   17.8330578101   11.6071593713
   1.3354274687   12.4752164703    2.6323542218
   2.1609094621   12.3149123566    1.0671650388
   6.8128612284   12.8973349856    3.6388896016
  12.2485220768   14.5921059194   17.5843969545
   4.6903898532    1.8911829928   11.8765260684
  13.3433560889   15.2450251086   18.8177574450
   6.2160452569   13.6962670630   16.7893762852
  11.6199434433   14.2502254427    8.1100774608
  13.3216531834   16.2718857436   11.0375226486
   5.3828720103   13.5478883345    1.3518323593
   2.6125099627   15.5884016632   11.4492298415
   5.5764237158   18.3496749854    4.3492375500
   4.1001792282   14.4709669714   11.8028704090
  13.0039435515   15.1498641916    9.0327165304
   3.7730675364    2.7580009720    2.1701878034
  -1.7469494101   15.7282057567   13.0719500299
   6.1948059448   15.1945797221   18.4963554803
   3.1891290899   11.8492824472    2.4772485184
   7.1356217668    0.7835067811    5.5262580094
   5.4533785077    0.8946354134    6.1466110698
   4.4658588668   13.2134778829   16.7153379662
   7.1264627725    4.1623626385   17.2266587314
  11.4660852405   19.0976010632   12.2968090716
   2.9617126897   14.7873577276   15.3455344240
   4.5641332244   15.0304963526   14.4039865717
   9.5332235670   14.2656106552    9.0481045185
   4.1568861905   16.3919857497   12.0854269360
   5.8883236068   17.4757943313    2.6763842041
   8.0522898652    0.9124187081    2.9329385004
  -2.0154387569   17.3410744282    9.7302724025
  14.0657949810   18.4941552841    3.9192792019
   6.3837622667    2.5039550390    2.2506637207
  12.6838135062   18.3041095176    2.9501964742
  12.9836552358   17.2185599746    4.5725702116
   3.7026649320    1.5450260291    3.6702344926
  11.6059217825   16.0033670409    8.6169075281
  13.2464463072   17.5600789688    9.8253871668
   9.7822573087   14.1432167204   12.2302762284
   1.0116850114   18.5125152312    9.2539078013
   2.3529395758   11.9982999811   11.0048502643
  11.2999677474   13.1210785553    3.0557670619
  12.6667313298   11.9122327104    3.6353822773
  11.3430835258   17.9853138752   10.9082927680
  12.1591279117   16.6974859785    0.5147135097
  11.4190475961   15.2183750039    1.0251837223
   1.8803461781   13.5585471523   11.5968352770
  11.6682420071   17.1648186255   12.4442997260
   0.5231456890   12.4217551960   11.0578696814
  13.0927258124   13.3375091811    2.4703398132
   4.3226109178    2.6562401585    6.0982689355
   9.4771645624   15.6258124626   10.1391854192
  -1.8041375790   13.4428955057    7.8493322813
   9.4171300979   11.0224498880    9.8545067998
   5.0406975139    2.7975970571    7.7171147615
  13.1970519801   15.1938839910    0.9426966683
   5.8501189730    4.6589334556    5.4504201673
   6.1852643370    4.9727842289    7.1964271179
  14.6729536104   12.0021758244    7.7250561060
   4.9544391251   19.5739522062   14.1989928208
   0.2591421100   19.3286195689    7.8303008495
   1.6505445261   18.1384974327    7.5562585020
   8.2338020276   14.3340522548   11.1041904904
   3.9639980483   16.7876164875   16.0949022880
   2.5544861308   17.1659645615   15.2974648809
  -0.2523950797   12.7817431026    8.3461935873
  -0.8212379619   10.9095978584    7.3175400274
  10.6483444811    2.0803020682   14.4187061436
  13.9973527606   15.2015898478    3.5774142832
   5.0503334890   18.7073679055   15.7145176293
   8.6152864824   12.6213827723    9.4355131493
  15.0484724796   10.7778118754    5.6961047537
   3.5762582446   19.3820517235   15.2137308650
  -0.7428099811   18.7624542484    6.0266367876
  -2.1678642196   17.8908123516    6.2575897559
   7.8458024299   11.4399135333   10.4386777265
   3.4899711033   12.7730378291    9.2139688073
  -0.9539701664   14.2082566300    9.3470253262
  13.7561668462   15.2967989614    5.3049192590
   3.4470970177   14.4154166679    9.7994105404
   0.6199589985   16.6116266466    6.1633890406
  10.6413740140    2.6226898900   19.0706064500
  14.4941592965   10.8759142576    9.1055137349
  -0.9144671729   15.8387104664    6.7308054085
  14.9280187526    9.0831632722    5.2637146980
   3.4602653458    5.6626407001    4.5768278021
   7.3100078809    8.3076284495    3.9558786889
   4.6400341418    6.8962007957    5.1742916127
  -1.0887278903   10.0200011910    8.7627179802
  14.8959980913   13.1351635244    5.6049383948
   0.7943879648    7.2028098609    3.9011893931
  -1.3186676745    9.8695517860    5.2572507051
  -0.1844317777   18.0539022539    2.8285119810
   0.9136505262   17.4511176552    4.1097710815
   2.1838698313   15.2680601781    7.5363625566
   0.6396353244    7.7311859699    2.1666099265
  -2.0265988301   14.4642540452    4.9432054944
   3.8160440491   14.6390350328    7.4665460116
  11.4342239261    5.9236471016    3.9384893900
   6.9830759529    7.0783879909   17.3111172362
   3.0178791096    6.8963677336    5.8239339962
   0.9179369164    9.0546381112    3.5558742318
   7.1914327492    6.5623101410    3.2013069230
   7.7511136093   16.4527913044   17.7369271951
  10.9601653940    4.5470557849    2.9827480974
   7.1995283869    6.7129399698    4.9172698192
   0.5102324436    4.1586070640   11.8141201049
   7.4918200759   18.0104515914   11.5149467219
  11.1226024675    9.2289281736    4.3052970248
   8.4075246591   15.4874315139   16.2187143788
  13.5118324399    6.9205991502    7.3497246652
  11.7218086977    7.8075672284    3.3793665164
   9.0489514389   18.5507198705   10.8355006664
  -0.0792071661   19.0466541392    4.2347431653
  13.1547066884   10.4764169391    1.9819200241
  12.7637688904    5.9375622111    1.9049323582
   8.6676988385    5.2166288282    3.0585344691
  -0.5589145356   12.3000274327    4.3168757197
  12.1880512693    9.2448179840    1.6446542617
  11.6036289021    4.9425340836    0.8534096489
   9.4368246816   15.6814954916   17.6449239678
   9.3991609963    5.0045415591    4.7230686663
   8.5247315964   16.8539430574   10.8228051440
   2.6117956420   15.3519687257    5.5577840225
  -0.5193149693   14.0012876316    3.6789503480
   9.1039195845    9.3541125363   10.7236980687
  15.2192204554    7.1524022417    6.3630209345
  -0.7004608760   12.6475213972    2.5109023294
  15.2140603263    7.2134106512    4.1027504075
   3.7220614817   13.9706447629    4.9284225775
  14.4842943115    5.6313587272    6.5039341115
   7.5175451291   18.6676421724   13.2504057870
  -1.0344196444    6.4451979509    3.9312545781
  11.5225686126    7.6522520001    6.0011381883
  14.0146955966    8.9236752977    1.7907347644
   1.9007569295   13.7933880943    4.6251322364
  12.8566373938    8.7738463383    6.1876805679
  11.9919730684    6.6247991511    0.4728277450
   8.7005495361   12.8214938639   16.9642599087
  -1.0754802593    7.9708316751   14.1160926075
   9.1970462659   11.3742974899   18.7161729473
   7.5406036528   17.0866295927   14.1863983872
   9.8978437625   13.5555202817   18.1356462944
  14.7121564817    6.1489885148    2.2820127627
   9.9116860748   18.0638710078   15.1388926390
  15.7953162416    7.0633532944    1.1853333409
   7.5204342722   11.8873943937   19.0887340663
   1.8122495480    9.8169842056   17.1744989026
   0.4216228127   13.9006858122   15.9564898729
   9.9574279516   17.2190914150    6.1086546715
  10.6517042666    1.2003617019    6.1413478355
   5.0647034292   10.2413732477    8.6874552640
   4.0435272156   10.8910776774    4.9079224901
  11.1881797578    1.2566469255    7.7938407373
  -1.0537835642    9.4741106426    0.8096803621
  -2.3363285990   10.7673020241   18.5809588889
  14.1503442065    4.8318357151   12.0237898375
  15.8467704748   13.1388799316    0.7725693354
  13.9939677016   12.9760402295   19.0645933024
   0.0577188633    0.7246136024   12.1811267096
   2.8549890110    1.4161060653   13.2943464549
  -0.1403629677   17.3065923703   13.1833388812
   0.0006091179    0.7715979382    9.7675172566
   8.4263539030   18.8390603803   15.7362521790
   4.7061974569   11.4795372064    7.4578882689
  15.1736172046   12.8593067172   14.8895879103
   9.6767027357   17.8481889183    3.3755449998
   2.7786781561   10.4087430386    9.0632147039
   2.6897724528    9.1403765271   15.5487261687
   7.5785930590   18.2465353153    5.1554149964
   0.1716759041    7.2773527365    0.0808377013
   1.3289057767   13.4974491390   14.5252204142
   9.6196504167   11.5673657641    2.8330480579
   1.9995596649   10.9837064105    7.6499758505
  14.1594695283    0.7080799039   14.1236540850
   5.2945163976   10.8715891581    3.5501540877
   1.8050127571   12.4714671687   16.8863682508
   1.6425546116   17.7414797578   12.8979837188
   1.4217144458    1.6881399053    9.0867183756
   8.8827440899   15.9556428050    6.4620839116
  -1.6521172236   12.4096306710   16.2227422585
  15.9371762008    3.7543273020    0.5034695924
   3.4135628668   10.3802172368   16.5264377484
  15.1156007781   11.5021015692    1.3457826608
  12.3468184096    0.7086928543    6.3858112484
   4.5562534333    9.3896294963    4.4951243490
  10.1319301926    9.8295734153    1.9718964856
  15.7284073759    6.0792124191   19.2400397925
   6.9300274000   10.1808237824    7.2152927692
  13.4670739275    2.2299275612   14.2712163901
   0.1363171358    7.6529993541   18.1091954218
  10.4530803907   16.2948518321    3.1743598056
  -1.6650903051    8.2266489478   18.0768966425
  -0.8673876294   19.2321607363   13.7684159610
   0.6054342359    2.1839211877   12.9205519236
   0.6056892925   17.0687648910   11.6176800566
   0.1031425264    2.6763519340    9.7515906366
   1.1325770850    9.3286785026    0.7386925733
  -0.0275117261    4.0154711937    0.6920063765
   0.2472911732   11.5147752017   19.0896052738
   0.2866173430   11.5092296237   16.7694455871
  13.6615365904    0.9038741093   15.6100599430
   8.8168101451   16.6288290842    2.4503363550
   1.7704271995    9.2677301399    8.2431162201
   6.8776227670   17.1743887217    6.3720045842
   5.9835111900    8.8294165629    6.8740737506
   8.2824945972   10.5818195374    1.9366461277
  -1.8748487337   14.1978790990   15.6258207415
   4.9083299775    8.5359191497    1.2868229607
   8.2424286627   13.7587397093    7.1367159350
  12.3999465787   12.6121655836   14.0743694599
   3.4392296272    1.6155560097   16.7821328564
   1.4534285166    3.2586882789   18.4618867437
   0.6928267045    5.8814082554    6.2196728207
   4.4621369670    5.0484342066    0.8900182073
   0.2581438458    3.4798976352    4.9006370959
  10.8573291405   11.5419384845    5.7407511017
   5.3737145262   17.4893988526   10.2912562540
  16.4045043820    0.8524532927    1.9955833926
  11.0433309476   11.4673954898   16.3055416775
   3.3438571607   16.0298258007    0.4549671147
  11.9595333023   16.7185427303   16.0612151976
   5.3851938234    0.6623237296   10.1693090148
   2.7428938884   13.8414442969    2.4438109760
   7.4899201648   13.4446749610    1.6988887023
  12.3171500850   19.2954009291    4.7876826249
   5.2420841155   13.4174083216   18.6775285921
  -2.2298037881   15.7657528699   10.8918748671
   4.0482506789   18.4833907951    2.9841409539
   4.7919837606    0.9281160803    2.1874645651
  11.2545531889   15.7889864622   18.7336004455
   6.4557480075    2.6884497687    6.1051928526
  13.3080417067   18.3259052908   11.5350133030
  11.3831257075   14.7255508352   10.1468287775
   2.7930292707   15.0286434343   13.4013822887
   4.2975980770   17.5942022617   14.2543556127
   9.2048725986    3.2838450454   15.6500703304
   8.9186516046    3.1723237332   17.9802978058
  -0.2194802603   17.2555211436    8.0572033732
   9.2856416667   12.4493569616   11.3723362745
  12.6220893857   13.8952292810    4.4436444709
   1.5723508278   13.3759235422    9.5841249493
  -2.0107522079   12.3731999723    9.4320897207
  15.7142167865    9.3778794987    7.1361803369
  11.0734270105    2.6723953345   17.1336126172
   4.2183159972    5.3404162373    6.5866944564
  -1.2330196975   17.3498781390    4.4168237611
   8.9796878857    7.0399006012    3.9809984411
   7.7698906034    6.5487290018   15.3375621718
  15.4652814332   13.0818279771    3.5096088616
   2.4219805049   13.4811776620    6.5892493316
   8.7337557891    7.5240429633   11.7334412680
  13.3163198446    6.9103644760    5.2866000766
  -0.9250058567    8.3356862910    3.3563452144
   0.0904227431    6.2192569147   12.2867024012
   8.0048594843   14.4123077767   18.0433913658
  10.7568883640    6.4249775488    2.0384772963
  13.0727683008    9.3702376138    3.6450678212
   9.0864351955   17.4834692706   12.6285674210
  16.1266415516    4.9897488218   11.4346605582
  15.6900521913    6.9524501259   12.7634606577
  16.7622244597    5.4292020876    1.9308735605
   1.8260987516   11.0122121830   15.3731921147
  12.0587376037    0.6939935354   14.3908138388
   6.1218165505   10.3410450993    5.3685751493
   8.1368644542   18.5950700093    7.2094992413
   9.9375953550   11.7030111919    0.8629467601
  -0.0923927824    9.6808321116   18.2562113531
   0.1294321151   18.9941077868   11.9648283315
   1.5229895091    1.7164346664   11.0590367260
  -0.7985563685   11.4614152347    0.2862177050
   8.9346931559   16.1753200868    4.5710384910
  -0.6274611984   12.9463126313   14.4583974068
   3.6264605536    9.6277796912    7.3293253436
