B2 C140 Ca1 F48 H298 O66 
1.0
1.7802123482785195e+01 6.5146431427247584e-16 5.7847783469076867e-17 
-2.8705971934796790e+00 1.9225488241317127e+01 -2.0394194342750031e-16 
-7.3966021651323710e-01 1.3466319394030495e+00 1.9507428508792977e+01 
B C Ca F H O 
2 140 1 48 298 66 
Cartesian
   9.9312745819    3.5433941935   16.7462372075
  -1.2026362625    6.3290522966   12.1748397659
  -0.0584006619    1.4661580304    1.4977874088
   7.0314280562   13.7156378769    7.0032051704
   4.7909880934    6.5093966946    1.1477338080
  12.5062773577   12.4612831159   12.4607447303
   4.2773486402    2.8033054244   16.2111600003
   1.8468231090    2.1019059876   18.3279709688
   1.3293906300    2.7915078800    5.4835416017
   2.4100492033    1.4111731509   16.9359586985
  -0.5727561127    4.1044316359    5.8006762775
   2.8940685327    6.3999923589   19.1251090910
   1.7921121932   17.0962577005   18.4131550362
   0.6265806874    3.8664172640   17.6940778550
  11.7235424841   15.8111919990   15.1574465541
   4.7934857892    9.9902762691    0.7020128110
   6.1891573783   17.2042462765    9.4425970795
  12.2551053501   12.0280828988   16.2313332141
   9.5571659445   12.0610253246    6.7335432247
   9.4604147337   13.5464339545    6.3957293593
  12.7356855032   11.8364492758   14.7335330303
   3.9738374374    7.7621333386    1.1023539583
  11.2503353651    9.9940656007   16.8216939652
  11.8923233183   11.6083877805    6.1413232986
  -0.0386243831    5.2361657196    6.7079227821
   0.9663158645    7.3348102970    7.0309105768
   4.4454027619   18.9098972558    9.6490402680
   2.1979610665   16.3613941540    1.2173317470
  15.9028591679    1.7514508897    3.0843442411
   3.4822536057   19.4015732277   10.7500158691
   1.3849310289   15.1754976421    1.5455143206
  12.9101942476   16.8161497157   17.0589321524
   5.3105907427    2.2929392177   10.8866112042
   7.4241136520   13.7785076794    3.0222721338
  14.6071863888    1.0868507510    3.5553791239
   6.1361894820   13.5747056847    1.0437863011
   5.4075639290   14.8932538383   19.1355161442
  14.9728713559   15.2599024674   12.1188287461
   2.1515667713   12.8712599439    1.8068542943
  12.5649323006   15.8690766645   18.1244871591
   5.4137004567   13.5710322708   17.1147330691
   5.0226776646   17.8132790817    3.9080454239
   7.1925070783    0.4958829880    2.6765322211
   6.2383369092    1.6214685207    2.6379945515
   3.8981417203    2.2757561077    2.3089727291
  -2.7406457648   17.0530259129   10.5371783210
   6.8076467017    1.2517227682    6.5796383058
  12.0950056803   15.0576202381    8.8771491596
  13.6306591238   17.5169030615   10.4337575792
   3.5586014934   15.8269633272   11.8978150477
  12.9386180732   18.3684447023    4.4415977604
   7.0833417614    2.5782011448   18.2673050177
   7.5422592021    4.9441457604   19.1667777519
   7.7110719562    3.9172078516   18.0837477980
   3.6053513777   15.6729364832   14.3284158029
  11.9659855343   18.6707085001   11.7248959213
  10.0143596004   14.9660587914   10.1950107791
   9.2326524790    3.4091363119   13.3353488554
  12.1081663134   15.7502555159    0.3259914506
  12.0638363140   13.4800095594    3.2450727477
   9.3843086365   14.4125045298   11.4565745074
   5.3454718972    3.1576294072    6.4882242925
   1.4747467556   12.9680817651   10.9650003367
   3.5922982571   16.9420911298   15.1062622565
   0.2062481330   18.4927667638    8.5324503401
  10.2326885399    3.4251261104   14.4445138067
  11.2486051850    4.6010756720   14.1203973933
   5.4233400361    4.6551366998    6.1399159906
   4.3670658486   19.1955625479   15.1518783039
   8.5446335955   12.3904649710   10.7269163858
  -1.4315499497   13.5174556941    8.6999732127
  15.0526254091   11.5630099135    8.6248118813
  -0.6658378147   16.8546693419    6.8699348197
  -1.6619623312   10.5687120666    8.1169222068
   5.5863418508    6.7600325690   15.5150741603
  13.5300276853   15.0247451265    4.5628360534
  -1.4631684332   17.7835291913    5.9356286475
   2.8278304038   13.6488075092    9.0575012071
  15.8527478282   10.2157193324    5.7706938687
   3.6429151221    6.2483856459    5.3956032496
  11.5005241864    2.7127159951   18.4148920965
   2.0106198363    5.5039502037   13.3976977643
   8.8777683134   20.4010784424   18.6221633550
  14.5026072219   13.9394593857    4.9354876864
   6.8466935831    7.4039401252   16.2374223728
   2.6851982937   14.6380939314    7.9371195799
   7.4433008659    7.4209816751    3.9732294582
  -0.5628962824   17.8655648110    3.7481901523
   6.7567817620    8.9836747467   15.9876675027
   9.4997720616    7.7082466918    9.5262074982
   0.3476147581    7.7223224898    3.4412839190
  12.7465780087    3.5932470025   18.6978292065
   2.0771746480    5.9991799683   10.7890892411
   1.2254729380    5.7282771202   12.0823006341
  10.7632392091    5.8972348366    3.0691134511
   9.3547682546    5.9695408333    3.7334986175
   8.6053067694   15.8856356226   17.0122007419
   8.5706655789    8.4286565069   10.5230472679
  11.9542032095    9.1953360532    3.8778976748
   8.4454953660   17.5986062597   11.7856202048
  -1.3034601170   13.1002780272    4.0662795342
  14.1454102689    6.9675551910    6.0920832794
   7.1829189722    8.6254830354    9.9590341906
  12.8124337398    9.6180199953    1.7603829291
  11.9372099420    6.2346280118    1.0314096045
   2.8097656648   14.2941805730    5.5127513886
  12.5506914513    8.6429570258    5.2423009369
  15.8844257901    7.0892832300    3.3753635451
   8.0018898243   18.4341623078   13.9512157620
   9.0065095860   13.7242030846   18.0571790026
  14.7743928472    8.2047348223   14.7511196775
  15.8337506023    8.2740212520   13.5949155732
  15.7729556936    6.1135796749    2.2389683311
  15.0045900668    3.3092536176   11.0144857682
   8.6080126083   12.6725946637   19.0254052465
  14.9293163794    4.9085706465   11.2104626360
   8.7109311591   19.2854652989   14.9657940514
  14.2284086521    5.6179335991   10.0344404857
  15.7101268317    9.5752763414   12.7201414333
  11.0434728282    1.0926604739    7.1352935129
   2.3846922282   10.2599369970   15.7349124961
  -1.7956833921   11.4781911667   19.2702307363
   0.7941555503   13.5661327138   14.9700313303
  15.5438987653   12.0883450848    0.7236367125
   4.5153472593   10.7818985619    7.3382481173
   4.8379597716   10.9200433300    4.2217747547
   9.1462136745   17.2118799218    6.0259901770
   7.9667107158   18.1125608347    5.9357830913
   1.3610173440   12.5859788163   15.9614521384
  -0.8206025618   20.0230667941   13.1605201183
   0.9217561642    1.6272314768   12.4307342524
   0.6665737421   18.2649559687   12.6864523326
   1.3475832259    2.1039819229   10.0894531551
   9.0797964215   11.0408785674    2.0052668253
   2.4809761744   10.2181880808    8.3190008594
   5.6176455800   10.2820922479    6.4152412664
  13.6219299265    1.3706368124   14.6291937219
  -0.7902477471    8.8813752231   18.4719809888
  16.6195041163    4.7729258774    0.6842900817
  -1.4800468441   13.2178201631   15.5546321142
  -0.3861103505   10.9444190840   19.4038181807
   9.6554819880   16.8127372925    3.7332006115
   8.2465683602    6.8323653326   13.6453601850
   6.9670700155    1.9199548450   17.0761121564
   8.1443563524    6.1043362599   18.9557226051
   9.0832425412    4.5726748244   12.5962563444
   7.9308960519    1.8477051997   19.0167177013
   8.6316443440    3.1793857792    0.8661774155
   5.8673823469    2.6846298281   18.8834398461
   6.2094327905    5.3015774047   19.3982337777
   8.0578418966    3.0218890724   13.8516148924
  12.0348529427    4.3743028525   12.9381537932
   9.7178592897    2.4740120238   12.4401800040
  12.2207512070    4.6863833254   15.0735460965
   4.3450152696    7.1321445217   15.9326331151
   5.6639127357    5.4258934263   15.6064319993
  10.6462899072    5.9034474928   13.8908238120
   5.6929952950    6.9584128401   14.1398277453
   2.8537848150    4.4668406870   13.4141223949
   7.8819913748   19.6786567856   17.9706579527
   2.7494930373    6.6866914220   13.5707566432
  10.7196267311    7.8801436047   10.0458322154
   1.2809944292    5.6248211727    9.7574718676
   6.7768227242    9.2673998271   14.6678248819
   7.9703062291    9.3835096713   16.5153614675
   1.1631135131    5.2850287927   14.4428446306
   9.4838363934    8.0781885974    8.1437784282
   9.5219787057   18.6984264781    0.4978254702
  13.5548010002    3.3135798513   17.7134873397
  10.0556513819   19.9675793040   18.1513564450
   3.0639054342    5.0526226028   10.7869717108
   9.1297770536    6.4429827164    9.5086312450
   6.3570407323    9.1926697547   10.9771362115
  14.1165205489    1.8621810372    0.3103368540
  12.3877162609    4.9038189881   18.7226792455
   5.8031520543    9.7929178729   16.5922158379
   2.6575202910    7.1629104687   10.5616376550
   6.5686077341    7.5406954390    9.5152368750
  15.0512204305    9.0849959322   15.7459465423
   7.2344373193    9.5330180167    8.9173403566
  13.7862384172    2.6592273734   11.0896382580
  13.4746454100    8.5393032860   14.2096232513
  14.5442724354    5.0890720538    8.8700609529
  15.4145539986    2.9631483782    9.7580720355
  14.6429216530    6.8697469080   10.0465984390
  14.5962501366    6.9519160743   15.1843205679
  -1.4423380605    9.4288598676   11.5176858026
  15.7746005068    2.8242938481   11.9807392720
  -1.3635191579   10.5908137682   13.4016772776
  12.8768098255    5.4704328373   10.1892490536
  14.4131481389    9.9886158407   12.3861593840
   0.8999443876    1.4399698049   18.4354244236
  12.1466244822   13.1253182284   16.4620446675
   1.8779336528    2.1735589840    4.7711836379
   5.3089628589    6.5750829905    2.0884568867
   5.6670784839   16.9645820948    8.4667132389
   9.8563614963   11.9038317132    7.7724980451
   5.5797471037    6.7185079964    0.3846622410
   5.0532492419    2.5741403082   15.4697408187
  16.2440821373    4.2980742518    5.3755205228
   0.1581616358    2.5146429021    1.8185082417
   0.9641846637   17.8026175209   18.0967119103
  -0.1498612148    1.4940480819    0.4187898038
   6.2806329272   14.1978135766    7.5662006640
  -0.1656246373    3.8944671905   18.3867206131
   0.6764293308    0.9257466766    1.9444732024
  12.2982719174   11.3968800590   12.3550666884
  -0.6066693838   19.5336092802   17.1523941805
   6.7367256277   13.7582444549    5.9665630523
  12.6130714017   15.1668627635   14.9741866664
   5.7246152195   10.5737808084    0.9249616063
  13.5689429103   12.7927877626   12.2834522360
   2.6842932497    5.3001220937   19.0705527764
   2.0754881992    7.0170674979   18.7430511726
  10.9739523030    9.8549659105   17.9003895211
  12.1338455261   10.6859405905    6.8339526178
   0.8881396837    2.1241777474    6.2532935204
  16.8415238988    3.3475740815    6.5691307132
  10.3801144181   14.0148093407    6.7683512116
   4.6846624640    3.3429364688   17.0413626904
   4.8841860859   19.7757843523    9.1624247471
  10.9947035404   15.1732625166   15.6981873950
  12.3256532301   10.9318304766   14.2721341068
   1.3530712175   16.0613071483   18.3114894048
   2.6136076690   17.2638288020   17.6708437315
  11.3106800045   16.3552477981   14.2514823850
   7.1720434634   17.6939235222    9.0303283011
   0.3217854211    3.2242635463   16.9099480510
   2.7698675504   16.6972310496    2.1800298784
   0.6783718146    8.2822135122    6.4903786339
  13.1571760332   11.7515837043   16.8408914124
   1.9743585021    3.5241313642    5.8931676932
   6.3272318653   16.2846535960    9.9159326535
   8.7754739733   11.4089288123    6.5289702700
   3.8667092897   10.5173178755    0.8306677474
   6.8552907707   12.5990296242    7.3081821946
   4.1517493642   11.0937248871   19.1717569001
   3.8179970887    6.4914405115   18.4811620814
  11.9021999753   13.1235690510   11.8802710885
   2.4402132278    1.7129392497   19.1930498071
   3.3949830464    3.5035244486   15.8019453255
   0.9346652837    4.9313019583   17.2214403585
   1.8957399558    1.8918700383   16.0728624777
  16.6838549320    1.7282397689    3.8789963106
  15.6158590696    2.7033681148    2.7680295303
  12.4382456501    9.8271047181   16.6153898501
   3.2143173770    7.6305957848    1.9105214512
   3.2978573194    7.9569461605    0.1015456217
   1.9856758597    7.4012495783    7.3560135638
   0.8122765685    4.9373906595    7.4188928465
   1.5838500579   17.2876998912    1.0169527739
  12.3071254437   11.5722141981    5.1645968192
   4.1705631102   19.8338019720   11.5576316878
  12.2012313565   12.4645063982    6.7217047840
  10.7304150205    9.3017279075   16.1542563204
   9.1967321726   13.9463165831    5.4682796315
  13.7869987249   11.6876102196   14.5896511639
   3.8518478428   18.2317159904    8.9991993497
   7.2562044227   14.8039840140    3.3763664689
  -0.9189170003    5.4409712750    7.3637982701
   0.3819464468    7.1724371269    7.9429815615
   5.5030733884   14.4580588254    1.3643631632
   6.3710926237    2.8602394303   10.9815502217
   0.8761078238   14.6709865048    0.7110846433
  12.9895886374   17.8496717458   17.4354199519
  14.0201601208   16.6336052052   16.6889288299
   4.4219495395   15.2503640962   18.7555512635
  14.0226590322   15.5280708442   12.5191317424
   8.5120331590   13.4715527053    3.2787914097
   4.5786708197    2.9069683101   10.2675770678
   2.8529558045   18.5967046528   11.1097992170
   5.4336439167   12.4948916073   16.8832909582
  15.0260409596   14.1965147525   12.0902612464
  14.0663115248    0.6448510748    2.5986082578
  13.9571101738    1.8559496265    4.0061596820
   4.6832908782   16.9050137271    4.3318606514
   6.0646873484    1.0163174442    7.4079520234
   4.3636271721   19.1704333281    1.7044329983
   0.6096878180   15.4388148892    2.3528214563
   6.2073249214    1.9356852625    3.7588586460
   2.8602766850    1.7613728570    2.3147085076
  -2.1162992695   17.6599202968   11.3031776223
   1.2038405413   12.5080019573    2.3021584519
   2.2983083212   12.8143744376    0.7165699736
   6.6971211685   13.0881836854    3.5787270014
  12.3954885777   14.8194117727   17.7044720667
   4.8400348953    2.2429856311   11.9001911321
  13.3416001238   15.7341282374   18.8958232619
   6.2999905716   14.1992938749   16.7450873815
  11.8853945803   14.1034590242    8.3045121443
  13.0800977869   16.6307962146   10.5744013330
   5.4796804227   12.7380853778    1.4101665458
   2.8771011648   15.6410681917   11.0826609992
   5.8001720493   18.3186093011    4.6099553355
   4.3496631434   14.9921741474   11.9324229083
  13.2381442740   15.0843058083    9.0576403054
   4.0373399746    3.0799785430    1.6125489166
  -2.0669413486   15.7515328651   12.8347742781
   6.1880741262   15.4810678937   18.6395555862
   2.9709809917   12.2374992823    2.1683485246
   7.8169112040    1.2152704310    7.1212489444
   6.7778154326    0.6076165795    5.6801202260
   4.4610650151   13.9942283913   16.6713610977
   7.3551468831    4.2815690267   17.1427741095
  11.7577044379   19.6999489626   11.6554476137
   3.1915265705   14.8889411004   14.9570073801
   4.6072332975   15.2366324872   14.0484984228
   9.7933372033   14.3360455654    9.3656123277
   4.0267055487   16.7697803595   11.7040978608
   5.5992543813   17.5128862955    3.0296006092
   8.2636360713    0.8153686160    2.7335802269
  -2.1416402537   17.2452234739    9.5938616426
  13.9626089475   18.8508168028    4.5392597126
   6.6115902037    2.4668745828    1.9590778175
  12.9403209629   17.8525726326    3.4513466588
  12.8732954492   17.6329221018    5.2336414230
   3.9710818660    2.8409250337    3.2173700823
  11.7846237622   15.9822012441    8.2465917384
  13.5011081620   17.9718356536    9.5049152353
   9.7958226988   14.8137953428   12.3219148280
  -0.0990465290   18.8553282707    9.5583464021
   1.7680872707   11.9402428831   10.6412736158
  11.9346508811   13.8967461796    2.2703311161
  11.1111956838   12.9428638531    3.5754486949
  11.1658403383   18.0821254050   11.0582981781
  12.8611911031   16.5149346878    0.2808220068
  11.1512324899   16.2481103714    0.4265884188
   2.0242069640   13.3253314290   11.8134336500
  11.7430289486   18.3270432209   12.7415674326
   0.4034495852   13.0004958369   11.2563041409
  12.9159844346   12.7494524742    3.1602177503
   4.5766095278    2.6470596133    5.9291622466
   9.5077647601   15.8419375034    9.9248909113
  -1.8895903785   13.8670374818    7.7802422623
   9.0452492318   11.5894406311   10.1145645160
   5.1487361547    3.1317630640    7.5511592802
  12.2111223373   15.0993606242    1.1794215586
   5.8577399535    4.8823550990    5.1244444134
   6.1014959884    5.2227216496    6.8928441469
  14.4475929005   11.9098927911    7.7620362274
   5.3429353232   19.5678588598   14.7914423121
   0.0500859163   19.3055700690    7.6996203288
   1.2760921555   18.1810050083    8.5226449705
   8.2740945996   14.8896056956   11.4299329477
   3.9934478909   16.6777144525   16.1120146105
   2.4907612326   17.1756995182   15.3043994597
  -0.4394156193   13.1486367440    8.4121788291
  -0.8198579685   11.2146041977    7.8056130936
  10.7368959190    2.4972766942   14.5461999969
  13.9865381191   15.5740429440    3.6486478625
   4.6559703591   18.9861237214   16.1416276634
   8.2169162103   13.1614752723   10.0974255068
  15.0061135703   10.9327793865    5.5365011787
   3.4998015373   19.7379783752   15.1058855869
  -0.9013990457   18.7190929262    6.0484274227
  -2.4920260224   18.0269456161    6.2717441062
   7.6145773258   12.0876805779   11.2912097360
   2.7210430255   12.6146048137    8.8020183649
  -1.2114975377   14.4135978983    9.2854974818
  13.2493326058   15.8993066210    5.1962953101
   3.8484321065   13.7765843945    9.6213770950
   0.4319301916   16.5662214087    6.4813612197
  10.6155845413    3.0595878170   18.9671853440
  14.3816132226   11.0573733961    9.3545678639
  -1.2654313385   15.9453373530    6.9363944699
  15.6335326039    9.3702086716    5.0268380533
   4.2067273445    6.3052278381    4.3920452684
   7.1264947419    8.4491960700    3.7351389107
   3.7649049011    7.2525267478    5.8858242161
  -1.4350761235    9.8197430275    8.9480774126
  14.0264531295   13.1987568926    5.5901644014
   0.3669324080    7.1001705257    4.4001299024
  -0.9304700041   10.6051954575    5.6111860696
  -0.8496543691   17.6704590571    2.6465868205
   0.4563906931   17.4872009015    3.9639034229
   1.7769572040   15.1788979740    8.0105676052
   0.6240904373    7.0485571523    2.5675047411
  15.3701558385   14.3286068928    5.3746259419
   3.5856332253   15.3467810484    7.7950864703
  11.4218536416    6.6471053966    3.5696691757
   6.6006490068    7.3660802718   17.3476348280
   2.6029209861    6.0020648897    5.3080528619
   1.0716616662    8.5846238414    3.4235355457
   6.8065074535    6.7388733394    3.3943935948
   8.0940377510   16.8104601883   17.2687316699
  11.1442990424    4.9010957910    3.1701723523
   7.3104187675    7.2337125077    5.0063535913
   0.8479074538    4.7099416137   12.0681354684
   8.1332269010   18.3177968178   11.0944289759
  11.1955716116   10.0636638285    4.0669982110
   8.4268444092   15.6241206832   15.9638956972
  13.5766095280    6.7279630584    7.0791383500
  11.3593918857    8.4028339769    3.4089651639
   9.2177137281   17.1316747546   11.2310213421
  -0.4235140324   18.9941729189    3.8992057128
  12.3153851528   10.5328351693    1.4482847588
  12.7055914056    6.6881292917    1.5948644108
   8.7964829710    5.1745737020    3.1876991228
  -1.1417870608   12.7270106936    5.1005013201
  12.3653143041    8.8076850795    1.3634125326
  12.2974676597    5.3098899305    0.7297151007
   9.7310532197   16.1098142267   17.1843073824
   9.3729810233    5.6664064625    4.8989262353
   7.6917234026   16.8151103905   11.8944027301
   1.9571891779   14.9190930634    5.1766308838
  -0.8759921346   14.1325531088    4.1399855146
   9.0479422454    9.4817852016   10.6116769612
  14.7739109218    7.8401716138    6.3927163090
  -0.7190306560   12.4432696507    3.4446361427
  14.8881690252    7.3705451872    3.4965031612
   3.7705167780   14.9153882893    5.4586799848
  14.7475798712    6.1512274066    5.6818071348
   7.1662208867   19.0283514809   13.4080896322
  16.1077571243    6.6942925713    4.3845737556
  11.6983046826    8.3286213368    5.9189118672
  13.7512745709    9.6911873919    1.1719490360
   2.8969050417   13.4168090326    4.8626979206
  13.2556961635    9.4254159681    5.6873461454
  11.8104330310    6.9731049998    0.1553419050
   9.0785306186   13.2342511143   17.1369884157
  -0.9212267926    8.2683823231   13.9880927744
   9.1567125375   11.6606790308   18.9073401566
   7.3334343876   17.6260891259   14.3658387961
   9.9405750068   14.1686553986   18.4656509056
  14.9400216972    5.4369793962    2.5684735497
   9.3175384740   18.8372381973   15.7209914908
  15.3656641682    6.4982043811    1.3032346696
   7.5603120515   12.4852281364   19.0626416472
   1.8818969710    9.7012429626   16.5775669275
   0.7551418935   14.6106438020   15.4972323570
  10.0322120948   17.7894228886    6.0668511589
  10.1366314948    1.6972443493    6.9255910711
   5.0151862318   10.8939231089    8.3170643319
   3.8859706402   11.3626393763    4.5007320977
  11.4647558505    1.3498729073    8.1512232726
  16.0314032911    9.6773903125    0.3820282975
  -2.0887098942   11.3020353160   18.2100241524
  14.5819464457    5.1940705497   12.2390799370
  15.8066189630   13.1050878968    0.5809661772
  14.6827448054   11.7540327362    0.0820214098
   0.1045552832    1.0646459393   11.9727567395
   2.6659933867    1.5811789929   13.7707421724
   0.0870797189   17.4804326514   13.1531080544
   0.6914081646    1.2361932934    9.8843667660
   7.9407430736   19.8008485743   15.4467679799
   4.2571761358   11.7745999591    6.9639474115
  -2.4293603136   13.5687658143   15.1211985732
   9.8162770052   17.9322749253    3.8149359073
   2.9167242631   10.3771536180    9.2881140820
   2.5743859143    9.4704076162   14.8929178250
   8.0433871757   18.7487173109    5.0299254785
  -0.2173546046    7.2096066611    0.0523704131
   1.4538316448   13.7050491216   14.1550208280
   9.0932324756   11.6711324002    2.8562185366
   1.9196669646   11.0982619543    7.9541817408
  11.3717751638   19.7117857653   14.3498530890
   5.0117234137   11.5433118146    3.3205181554
   2.3814213577   12.9337578427   16.2996134848
   1.5319608050   18.3752264211   13.3605963256
   2.4076950240    1.8198780637    9.7755477190
   8.8252228254   16.5416574168    6.9063684750
  -1.5270177832   12.1911004270   15.9892257442
  15.7237009165    4.0568417164    0.7839264379
   3.3632983784   10.6889284391   16.1524098888
  15.3217210513   12.0062327208    1.8553230212
  11.9454076587    1.2987573283    6.5635179839
   4.9578407321    9.9011909383    3.9686508241
   9.8050747521   10.2059864649    2.3231697560
  15.6412108641    6.8244730428   19.2952414749
   6.5462246799   10.3096081958    7.0677822652
  13.8274386420    2.3463615893   14.1278059852
  -0.2707660138    7.9721954087   18.1755506726
  10.5894787742   16.2384855856    3.6844341654
  -1.6581030416    8.9924709926   17.7854613696
  -1.1939738660   19.2327365583   13.9206328148
   0.5037708195    2.2308513416   13.2902577001
   1.0321063916   17.7931680317   11.6733295013
   0.9946820053    2.9761243905    9.5515232196
   0.5895869821    9.1041363793    0.8712517184
  -0.1648977266    4.2174118767    0.5815657606
   0.2904787655   11.8079021892   19.2888243719
   0.5688294061   12.3503539813   16.7744929820
  13.6328345902    1.6733487848   15.6667768965
   9.0651261073   16.4112171126    2.9440210138
   1.6692544877    9.4691505308    8.3239710351
   7.1154153791   17.4188754694    5.9588540097
   5.4061568882    9.2926075561    6.1716098918
   7.9964749552   10.5635853997    1.8452702256
  -1.0103685893   13.7489408720   16.4166560746
   4.8719097054    8.7749686991    1.4478355184
   8.3644749613   14.1456068534    7.2654337347
  12.2745307705   12.8439093202   13.7912002991
   3.7949678142    1.5096662948   16.6398259559
   1.7728378905    3.4225394587   18.2937143910
   0.4961349015    6.3570217207    6.0664604801
   3.9814084760    5.3228001240    0.9957125080
   0.2378328268    3.4740455032    4.7476076736
  10.5517449097   11.5376042295    5.7238822246
   5.4801829405   18.0861286822   10.2561195376
  16.3683647813    1.0650290321    1.9255715336
  11.1031072278   11.3151924154   16.4624917033
   3.1158689081   16.0546457097    0.1632342945
  12.0288815624   16.9438807246   16.0144639806
   5.5688990793    1.1307641132   10.2304588522
   2.3893783169   14.2603093606    2.2040472397
   7.3676703170   13.7071724277    1.5962453811
  11.8755803228   19.2650247675    4.6411698507
   5.4446632421   13.5640811077   18.5267810718
  -2.5875257075   15.6696250345   10.8288905587
   4.0517614337   18.7618060272    3.7634021201
   4.9358243879    1.1689852077    2.2785093377
  11.3579911321   16.0505118251   18.8421544809
   6.6617218762    2.6703762393    6.1271857768
  13.3438550724   18.5579698931   11.3962028868
  11.4918648475   14.9903393187   10.2321739476
   2.8478811802   15.5776098448   13.0322222532
   4.2371765789   17.9961610014   14.4075718884
   9.4343129790    3.8824635916   15.5294714935
   9.1954240651    3.8175831954   17.9359658034
  -0.6627596816   17.2556673210    8.2020174167
   9.4479293813   13.0126412760   11.6352777287
  12.1915387650   14.4943468353    4.2528256795
   1.7014975592   13.9110527918    9.8644097681
  15.5783882410   12.6291261627    9.5474653372
  15.7295605477    9.6901140119    7.0646635742
  11.2060336706    3.0143590043   17.0189221449
   4.0904236844    5.2076664366    6.2141568804
  -1.4249095458   17.2501609327    4.6233994144
   8.8573031380    7.2527916486    3.7325500386
   7.9577069337    6.8809056594   15.6834226694
  15.0460073344   13.1292328785    3.7647826048
   2.7308148337   13.7733083504    6.7662826566
   8.6164349262    7.7674915378   11.7184482296
  13.3300824136    7.3665602095    5.0255424706
  -1.0698956016    8.2488226258    3.2465481150
   0.1449979435    6.6480699758   12.3764982535
   8.0910617399   14.8858540180   17.9919907820
  10.6049560484    6.1951964671    1.6284374411
  13.0495943317    9.6939598782    3.0794737417
   8.9821759536   18.0249135131   13.0377843917
  16.3198826980    5.2784960243   11.2413834523
  15.5366875120    7.1582251677   12.6699085528
  16.9109751844    5.4939750622    1.8350084801
   1.5975419245   11.3693522019   15.1607774773
  12.2166166674    1.1467667525   14.3201856411
   5.9164069186   11.1246738287    5.2247136941
   7.7627434214   18.9545461318    7.1327039994
   9.5857428774   11.8149999376    0.9385242926
   0.0480579509   10.0025291795   18.4115258471
  -0.0042650732   19.4325594034   12.2426217024
   1.4344614423    2.5447752273   11.5008495738
  -1.0922472214   11.5009824631    0.2364613412
   9.0426285683   16.2865577102    4.9026762227
  -0.4618766344   13.1807809285   14.4675416829
   3.4884101754    9.8006922120    7.3889820169
