B2 C140 Ca1 F48 H298 O66 
1.0
1.7804081434876124e+01 -2.2699382499712097e-16 -1.1084464596874702e-16 
-2.8635429496225902e+00 1.9229370115114769e+01 -5.3335381829063361e-17 
-7.4498135729401116e-01 1.3365525894855113e+00 1.9509143419629616e+01 
B C Ca F H O 
2 140 1 48 298 66 
Cartesian
   9.9301511884    3.5376951715   16.7412594409
  -1.2174099226    6.3259815637   12.1697644298
  -0.0657896548    1.4620258453    1.5019486659
   7.0311368068   13.7166966714    6.9990193587
   4.8051580372    6.4960347049    1.1504069838
  12.5056051123   12.4581077866   12.4572711713
   4.2780597863    2.7859512976   16.2008469611
   1.8598997787    2.1003320376   18.3324027082
   1.3311258306    2.7937884860    5.4854763521
   2.3962033126    1.4039727211   16.9328652828
  -0.5664476303    4.0970918951    5.7987313772
   2.9018680100    6.3865003305   19.1321963011
   1.7902465337   17.0930952463   18.4280088490
   0.6253637069    3.8674239377   17.6954634874
  11.7245877463   15.8047340472   15.1615960719
   4.7862755503    9.9903458092    0.7010233219
   6.2009366894   17.2138754377    9.4319583684
  12.2589927367   12.0330064488   16.2265072611
   9.5576354623   12.0591133312    6.7307519112
   9.4664193594   13.5481419342    6.3953629253
  12.7470156055   11.8351733093   14.7393445593
   3.9630458903    7.7610992772    1.1073033507
  11.2430252434   10.0002205875   16.8220612674
  11.9077822120   11.6066701750    6.1431128281
  -0.0338848516    5.2347536448    6.7075066347
   0.9638380291    7.3189219078    7.0282842382
   4.4561064478   18.8985323314    9.6430091396
   2.2030357778   16.3626485506    1.2161946846
  15.9016009642    1.7576132872    3.0968315436
   3.4805799470   19.3888469354   10.7600233299
   1.4016284552   15.1763401900    1.5540741265
  12.9151895365   16.8101865427   17.0672845142
   5.3078170642    2.2782990186   10.8856879055
   7.4268795793   13.7787140830    3.0201972431
  14.6100665286    1.0943933167    3.5662383041
   6.1432602511   13.5767468059    1.0316364902
   5.4125874898   14.8900945335   19.1366319865
  14.9806917598   15.2589011209   12.1205128877
   2.1516166535   12.8732499874    1.8034586378
  12.5659295072   15.8660018918   18.1304105377
   5.4122878020   13.5657842734   17.1155720934
   5.0276590024   17.8156665567    3.8993813432
   7.1938297134    0.4919022680    2.6687789148
   6.2367020654    1.6134223452    2.6441873806
   3.8884898422    2.2709141576    2.3111766619
  -2.7398985717   17.0644518242   10.5424019640
   6.7942176155    1.2496482627    6.5766973905
  12.0937485630   15.0513407103    8.8764827458
  13.6360466239   17.5082780122   10.4440293747
   3.5611784894   15.8164701617   11.9100033413
  12.9497433369   18.3708648600    4.4446096466
   7.0752122889    2.5679980878   18.2661922997
   7.5445084109    4.9382469992   19.1718346295
   7.7147548065    3.9015372278   18.0873619775
   3.6047655010   15.6628064836   14.3250118704
  11.9717107306   18.6582649938   11.7279970551
  10.0196571409   14.9608013761   10.1893468253
   9.2275443298    3.3998837464   13.3340621886
  12.1211833721   15.7495507231    0.3344064794
  12.0655672187   13.4833122500    3.2419437301
   9.3887645836   14.4162636141   11.4553167379
   5.3433528638    3.1531436190    6.4809534081
   1.4853700994   12.9720506675   10.9576044854
   3.5901001787   16.9433072093   15.1142126063
   0.2151161099   18.4871979739    8.5338553101
  10.2194737423    3.4180553157   14.4425270022
  11.2364449604    4.6020505395   14.1223360809
   5.4267974270    4.6562308937    6.1452223960
   4.3750914811   19.1941691899   15.1580587089
   8.5418625646   12.3803534981   10.7245394858
  -1.4214449710   13.5127668136    8.6953971516
  15.0722893950   11.5692456323    8.6172647948
  -0.6689167061   16.8459502410    6.8693003899
  -1.6612711281   10.5639587735    8.1126343330
   5.5769570871    6.7586531643   15.5062859117
  13.5343590058   15.0235761247    4.5508081448
  -1.4504695850   17.7870417686    5.9372476204
   2.8337935396   13.6513276941    9.0482480435
  15.8545357346   10.2209815548    5.7715169857
   3.6526195268    6.2426320671    5.3989757386
  11.4862203102    2.7043875862   18.4201927150
   2.0147942272    5.5038377617   13.3997099235
   8.8739037601   20.4019141529   18.6236380986
  14.5095546981   13.9365870985    4.9390524751
   6.8454076797    7.3873338917   16.2335030979
   2.6933172031   14.6329531406    7.9401933359
   7.4452951404    7.4210049366    3.9792817141
  -0.5514378881   17.8742429682    3.7436010619
   6.7725913425    8.9724762844   15.9869019200
   9.5088727898    7.7110632575    9.5204053746
   0.3539917212    7.7246838346    3.4473707812
  12.7469121895    3.5773810088   18.7039403712
   2.0725210984    5.9959868086   10.7892716902
   1.2209903226    5.7216503600   12.0854299222
  10.7738300757    5.8918872674    3.0727589953
   9.3578245099    5.9702028940    3.7368569637
   8.6004774974   15.8856809140   17.0191318646
   8.5734488952    8.4381726464   10.5252198075
  11.9569408910    9.1857747583    3.8826086475
   8.4525368275   17.5871316333   11.7748454613
  -1.2960757991   13.1052665079    4.0653459287
  14.1555983327    6.9604222698    6.0950238787
   7.1906382650    8.6183775319    9.9712531490
  12.8282469644    9.6133535373    1.7579001180
  11.9397424582    6.2308470320    1.0209216630
   2.8246911679   14.2889272420    5.5143641673
  12.5479225689    8.6415613345    5.2594417997
  15.8909741841    7.0839823657    3.3834975098
   8.0127418796   18.4230102673   13.9503034892
   9.0012634899   13.7211287218   18.0569142822
  14.7673894027    8.2054780583   14.7604290040
  15.8377168197    8.2698205401   13.5994766173
  15.7802044449    6.1125445184    2.2341300406
  15.0061059370    3.3077951299   11.0039938478
   8.6000988556   12.6608263570   19.0302401443
  14.9309281771    4.8978891920   11.2101006419
   8.7277131569   19.2855556426   14.9663014561
  14.2224334217    5.6076439849   10.0325375962
  15.7157350580    9.5698151373   12.7172831265
  11.0521784326    1.0969442606    7.1367394620
   2.3886718336   10.2502481999   15.7372637250
  -1.7878260126   11.4623808536   19.2725735056
   0.7892064731   13.5560349928   14.9814862810
  15.5438135838   12.0864945915    0.7230778888
   4.5263899202   10.7823016163    7.3349207741
   4.8376905587   10.9237372821    4.2280695229
   9.1391653962   17.2114041943    6.0235379822
   7.9746483370   18.1056845832    5.9337619981
   1.3657582654   12.5715664258   15.9693482849
  -0.8227144614   20.0246987932   13.1728990312
   0.9223420303    1.6151805566   12.4404163736
   0.6725317440   18.2677691914   12.6900006100
   1.3393226869    2.1034597539   10.0916602041
   9.0922967238   11.0431689152    1.9996998794
   2.4791740595   10.2219710404    8.3274636581
   5.6275206201   10.2812311583    6.4198311078
  13.6209658529    1.3525421565   14.6301069780
  -0.7813118528    8.8684542650   18.4734775551
  16.6094026253    4.7729804693    0.6890376957
  -1.4805123460   13.2124073299   15.5524572335
  -0.3905469091   10.9403223842   19.4162330773
   9.6603742724   16.8182232767    3.7358397465
   8.2472481244    6.8200241590   13.6430959973
   6.9555730855    1.9116140097   17.0840288182
   8.1487273486    6.0986011811   18.9577199386
   9.0789414310    4.5689122469   12.5980075748
   7.9219504150    1.8382267552   19.0206699267
   8.6342613377    3.1787968456    0.8710882218
   5.8682911609    2.6796464634   18.8904413680
   6.2117089211    5.2892471961   19.3973231399
   8.0562169005    3.0192351865   13.8549834511
  12.0344571873    4.3643064814   12.9404048934
   9.7207265795    2.4642170120   12.4383101382
  12.2198730646    4.6724923981   15.0807879344
   4.3485355487    7.1274157919   15.9365117102
   5.6552654833    5.4183839094   15.6078173468
  10.6438336859    5.8908530536   13.9006828307
   5.6884351763    6.9510359226   14.1442500331
   2.8558439279    4.4536354850   13.4122846992
   7.8871611836   19.6776014644   17.9669528970
   2.7505740827    6.6865498136   13.5752797500
  10.7230573156    7.8730348733   10.0466472526
   1.2859663894    5.6231260338    9.7659410325
   6.7803843375    9.2581151605   14.6745415842
   7.9661325446    9.3808971952   16.5122227910
   1.1596513068    5.2737062295   14.4321339992
   9.4806427809    8.0814572001    8.1353122689
   9.5429250649   18.6965362419    0.4960919065
  13.5452213820    3.3163064117   17.7193982984
  10.0611466614   19.9620115319   18.1553970744
   3.0598365191    5.0492239024   10.7897428145
   9.1340342562    6.4440119787    9.5067423719
   6.3585790423    9.1884015532   10.9710159587
  14.1292755087    1.8716296815    0.3036410570
  12.3858207578    4.9045587200   18.7241805430
   5.8028585600    9.7939827797   16.5939049942
   2.6535039394    7.1487388282   10.5644287915
   6.5748321359    7.5352135126    9.5196765298
  15.0554172467    9.0798387487   15.7527741154
   7.2358241439    9.5318642931    8.9161624656
  13.7876750731    2.6490793829   11.0826395775
  13.4740885468    8.5391669932   14.2112417076
  14.5505149780    5.0866295163    8.8807659581
  15.4178303309    2.9581284608    9.7612449600
  14.6392193665    6.8709787197   10.0416173142
  14.5971146840    6.9430528733   15.1809670565
  -1.4480596975    9.4291006795   11.5141656826
  15.7731551449    2.8187674773   11.9826916490
  -1.3644566386   10.5865980617   13.3977892888
  12.8741931327    5.4606426167   10.1911466673
  14.4181231346    9.9872872350   12.3902495535
   0.9047087072    1.4203722520   18.4384747301
  12.1567998558   13.1316738872   16.4996649826
   1.8770579611    2.1972794250    4.7772925121
   5.3145388987    6.5687644728    2.0944217013
   5.6536740842   16.9970416486    8.4796784125
   9.8514894707   11.8931442512    7.7723233118
   5.5804164005    6.7309842214    0.4018317559
   5.0423169840    2.5457928005   15.4818831227
  16.2384597097    4.3053356695    5.3799481998
   0.1626463662    2.5248346702    1.8131287465
   0.9732460733   17.8076499955   18.1089858377
  -0.1380118525    1.4944642696    0.4231406840
   6.2941682543   14.2219831910    7.5590774803
  -0.2060929835    3.8681625600   18.3946206471
   0.6848832990    0.9162911810    1.9269708818
  12.2924242745   11.3855063489   12.3668766578
  -0.5927876542   19.5158556497   17.1553188725
   6.7380087202   13.7618279878    5.9637279532
  12.6023974139   15.1445091402   14.9806927264
   5.7199966246   10.5877969805    0.9020093559
  13.6061556859   12.8050983030   12.2906791572
   2.6838822299    5.3070510390   19.0901947357
   2.0609035793    7.0052319108   18.7449367291
  10.9422302161    9.8414965374   17.9157294405
  12.1461574539   10.6829981084    6.8327552479
   0.8737906521    2.1317052917    6.2670687212
  16.8409687382    3.3314190982    6.5648609996
  10.3673885414   14.0037093106    6.7507654572
   4.6616336141    3.3344317424   17.0364469223
   4.8938617522   19.7808388452    9.1514382482
  11.0070956497   15.2196367632   15.6846247038
  12.2971116759   10.9198225063   14.2712215470
   1.3502909958   16.0344430831   18.3094823120
   2.6201220685   17.2317798198   17.6632681935
  11.3167764949   16.3703599052   14.2460860878
   7.1977771295   17.6661973795    9.0265128135
   0.3181813764    3.2293258617   16.9099358280
   2.7580737517   16.6814902217    2.1685939442
   0.6707090782    8.2744695280    6.5039062965
  13.1672151072   11.7351417827   16.8222506393
   1.9745278421    3.5397811385    5.9052045791
   6.3276943134   16.2873297302    9.9145438952
   8.7596029696   11.4102130779    6.5166753090
   3.8708368168   10.5362580257    0.8232018286
   6.8582628601   12.6074959774    7.3020936969
   4.1517456314   11.0762457607   19.1862475873
   3.8124942258    6.5024980500   18.4939866701
  11.9006688405   13.1191528205   11.8717901612
   2.4170916993    1.6741406233   19.1816132550
   3.3809789997    3.4886422233   15.8031547713
   0.9230560861    4.9214286850   17.2455411418
   1.8885143200    1.8844032998   16.0666627597
  16.6913558320    1.7581890260    3.8790626496
  15.6277581867    2.7113489120    2.7899675389
  12.4277367304    9.8382223925   16.6243715544
   3.2176140729    7.6336457879    1.9105595726
   3.3036397218    7.9470675744    0.0997839420
   1.9736506186    7.4214934060    7.3391634141
   0.8357916256    4.9436903710    7.4250309248
   1.5885319433   17.3117117739    1.0110525000
  12.3031036232   11.5393499699    5.1395076205
   4.1600000240   19.8241481038   11.5524839482
  12.2162886253   12.4382580849    6.7295862297
  10.6947296638    9.2832029788   16.1786398198
   9.2306087367   13.9381348980    5.4621322378
  13.8140961328   11.6935959071   14.5787656093
   3.8482894963   18.2370782584    9.0031577330
   7.2600284650   14.8034018270    3.3949472747
  -0.9180063614    5.4686866218    7.3656864113
   0.3967107957    7.1846034565    7.9727997685
   5.5204707636   14.4731468253    1.3818560976
   6.3974641473    2.8450023136   11.0021311530
   0.8688010716   14.6698473060    0.7219852090
  12.9915666559   17.8291229896   17.4266197003
  14.0242559199   16.6341717505   16.7009961627
   4.4203471915   15.2421674415   18.7761179228
  14.0410015121   15.5223754420   12.4824023879
   8.5130109196   13.4592290061    3.3239862763
   4.5851314897    2.9057565838   10.2736669979
   2.8562536239   18.5999054456   11.1134919894
   5.4351816984   12.4959314515   16.8963225452
  15.0266706893   14.2106186218   12.0956942273
  14.0655635142    0.6781825039    2.5798663308
  13.9422349100    1.8412863305    4.0377658185
   4.6880982205   16.9079435738    4.3387565544
   6.0603305194    1.0007710911    7.4292271243
   4.3852413582   19.2047847342    1.7298165484
   0.6017806850   15.4231192512    2.3573991656
   6.2120664612    1.9348433340    3.7180947014
   2.8713340212    1.7509561698    2.3224715374
  -2.1317531584   17.6850420733   11.3174909042
   1.2196436386   12.5344524134    2.3213041582
   2.3269890404   12.8121353605    0.7316574801
   6.7183954219   13.0966973104    3.5574518887
  12.3963438229   14.8154936482   17.7065657826
   4.8494598558    2.2417862504   11.8922641951
  13.3472669269   15.7463917766   18.9031708070
   6.2803126854   14.1828336405   16.7422301416
  11.8879071109   14.0940295851    8.2955916290
  13.0708921947   16.6289549421   10.5590736779
   5.5053143777   12.7415137646    1.3931128592
   2.8841858357   15.6332778207   11.1092609255
   5.8106703192   18.3255731566    4.5979927756
   4.3437001649   14.9852005467   11.9093164464
  13.2514664229   15.1041444834    9.0367003956
   4.0030055519    3.0813611249    1.6187231576
  -2.0629534483   15.7355955944   12.8435080927
   6.1903641177   15.4679048254   18.6471688120
   2.9922786209   12.2334280904    2.1623202019
   7.8186009861    1.2279429289    7.1149654860
   6.7710830961    0.6316715216    5.6775109830
   4.4671373980   13.9874748008   16.6712593100
   7.3445395504    4.2799783279   17.1551667471
  11.7666356573   19.7089441523   11.6714161156
   3.1938208024   14.8922015173   14.9747284870
   4.5968108134   15.2564974911   14.0699580998
   9.8100424312   14.3442928789    9.3570056192
   4.0397125057   16.7547008447   11.6948315452
   5.6343938195   17.5261211167    3.0382385102
   8.2538601022    0.7836200696    2.7403987482
  -2.1530262836   17.2277579753    9.6087214499
  13.9629611242   18.8327428313    4.5451741582
   6.5939121180    2.4994831888    1.9485389372
  12.9403244172   17.8273937229    3.4601054849
  12.8738389281   17.6358584827    5.2236957650
   3.9831323014    2.8209600954    3.2360536125
  11.7842636382   15.9757587631    8.2640887893
  13.5017438448   17.9640290230    9.5016136758
   9.7911306813   14.8240599931   12.3174218804
  -0.1015857656   18.8351814603    9.5549680156
   1.7621199801   11.9535259345   10.6238427942
  11.9479243189   13.9056695924    2.2548863452
  11.1334208932   12.9246354156    3.5940829013
  11.1855236291   18.0645947173   11.0609323085
  12.8638367343   16.5285295782    0.2879729501
  11.1758661359   16.2362773468    0.4199175990
   2.0190230033   13.3200629027   11.8141839273
  11.7417732122   18.3314748472   12.7351867479
   0.4100719363   13.0076008729   11.2456123281
  12.9358989594   12.7506088557    3.1642218460
   4.5778512508    2.6380404655    5.9458139852
   9.5103199814   15.8782834534    9.9386658100
  -1.8627076874   13.8592958822    7.7669682908
   9.0488175307   11.5938550348   10.0987702803
   5.1638105507    3.1413381011    7.5635693245
  12.2091163409   15.1088622656    1.1870330950
   5.8589294939    4.8909225102    5.1285413218
   6.1123159114    5.2167707584    6.9192851349
  14.4408976108   11.9138252714    7.7239083703
   5.3563144538   19.5473377945   14.8180309998
   0.0605271557   19.3005423930    7.6907279507
   1.2850471019   18.1898088357    8.5309494558
   8.2787104589   14.8649419575   11.4439585143
   4.0130302904   16.6726206643   16.1058571157
   2.4891741688   17.1973196610   15.3101822041
  -0.4418670871   13.1554035272    8.4107150841
  -0.8215726181   11.1930701258    7.8199170398
  10.7575691786    2.5005029823   14.5347825704
  13.9911246225   15.5542430746    3.6514692206
   4.6607153037   18.9772068587   16.1307888212
   8.2246797673   13.1595812467   10.0831601243
  15.0026751553   10.9142637250    5.5442507076
   3.5171301866   19.7506046338   15.1353730821
  -0.8964490261   18.7033142575    6.0563326780
  -2.4911153339   18.0200096689    6.2654442185
   7.6325855280   12.0876122973   11.2788550715
   2.7165816717   12.6219843866    8.7740698128
  -1.2037502831   14.3916825926    9.2836263261
  13.2640403031   15.8925884038    5.2205047987
   3.8504410025   13.7941619510    9.6097448222
   0.4302346457   16.5757871120    6.4825923237
  10.6293130620    3.0435629668   18.9597373127
  14.3975188748   11.0408193832    9.3429296339
  -1.2642545025   15.9558770125    6.9570763720
  15.6399291365    9.3599846121    5.0325199201
   4.2003784683    6.2871027871    4.3709136090
   7.1302077765    8.4454619975    3.7250585030
   3.7691206955    7.2661959927    5.8879693457
  -1.4372277849    9.8211389639    8.9548863157
  14.0616845511   13.2040497348    5.5946915068
   0.3847554519    7.1086322133    4.4039666476
  -0.9419225902   10.5896287660    5.5953289373
  -0.8499943252   17.6710197310    2.6531365149
   0.4844011684   17.4649476360    3.9396094820
   1.7570732927   15.2168168190    8.0071687290
   0.6388302646    7.0482336130    2.5377705206
  15.3890804861   14.3279493623    5.4008796764
   3.5943783759   15.3690749751    7.8026785273
  11.4048287978    6.6423915949    3.5773868319
   6.5878922748    7.3747286057   17.3783156818
   2.6154843130    6.0121082088    5.3177185004
   1.0730924246    8.5946026391    3.4207200538
   6.8253575777    6.7399849728    3.3844129442
   8.0973572680   16.8043208024   17.2806867694
  11.1450071110    4.8964405355    3.1575473571
   7.2963676675    7.2487490740    4.9962808604
   0.8313644210    4.7056155359   12.0642567369
   8.1234385050   18.3112972719   11.0827980545
  11.1831134097   10.0525912006    4.0499188560
   8.4593145615   15.6259643921   15.9763937618
  13.5875940094    6.7364385058    7.0807061360
  11.3675417339    8.4081327777    3.3882995546
   9.2218141379   17.1447748286   11.2104660283
  -0.4083539908   19.0274563603    3.8837636680
  12.3626430221   10.5250350044    1.4538868871
  12.7124632835    6.6914613032    1.5902120286
   8.7961828205    5.1902762020    3.1790161073
  -1.1180488420   12.7054420738    5.0954047726
  12.3668822627    8.7936543024    1.3638045197
  12.3105126869    5.2989419290    0.7098326244
   9.7383468515   16.1189465337   17.1842033416
   9.3988812151    5.6223692910    4.9129175191
   7.6873147219   16.7937082932   11.9008198932
   1.9619671821   14.9250363894    5.1956090895
  -0.8771754853   14.1285604731    4.0987050878
   9.0468243848    9.4731728676   10.6122877135
  14.7932401704    7.8557669053    6.4296516330
  -0.7028954443   12.4394201727    3.4559690030
  14.8694695117    7.3509210891    3.4729115279
   3.7540149041   14.9062376203    5.4538156824
  14.7477010483    6.1332106547    5.6863816539
   7.1890169578   19.0002632388   13.4174674588
  16.1337006057    6.7045163242    4.3746398052
  11.6857621488    8.3275116604    5.9515483151
  13.7491290926    9.7047191699    1.1745010915
   2.8654461393   13.3964829286    4.8707985682
  13.2605491133    9.4353154690    5.7010201841
  11.8240189957    6.9685958928    0.1782784922
   9.0791624535   13.2196538845   17.1448477223
  -0.9159221900    8.2433182743   13.9839837891
   9.1260695063   11.6383178736   18.9129108689
   7.3323713659   17.6210180578   14.3743660764
   9.9482917072   14.1819580290   18.4548210016
  14.9304443943    5.4346204900    2.5432885064
   9.3132444051   18.8385923281   15.7121029590
  15.3997391226    6.4996774770    1.3234267515
   7.5734011318   12.4513069557   19.0573273858
   1.8819623982    9.6692512616   16.6120436295
   0.7590832453   14.6156184309   15.4808295735
  10.0602658636   17.7711193358    6.0472180402
  10.1418609075    1.6984402789    6.9391575792
   5.0045172516   10.8708213898    8.3203540560
   3.8862731008   11.3689268032    4.4851506646
  11.4486216359    1.3403983132    8.1521930964
  16.0312425493    9.6903671296    0.4004900988
  -2.0848160978   11.3324047568   18.2065707569
  14.5971299423    5.1968486623   12.2374097768
  15.8303824346   13.1078327569    0.5846167890
  14.6835877021   11.7446643740    0.0886740378
   0.1031386565    1.0447693911   11.9630669938
   2.6741666912    1.5854922088   13.7779199569
   0.0706257233   17.4884759141   13.1422161653
   0.6846713927    1.2187677932    9.8928933089
   7.9323051088   19.7886768792   15.4428269578
   4.2696546867   11.7626281937    6.9481973925
  -2.4186765991   13.5602855895   15.1341814510
   9.8172610903   17.9324386595    3.8299102356
   2.9214155433   10.3899405493    9.2960227654
   2.5842450693    9.4661026497   14.9073346363
   8.0477867580   18.7656400565    5.0128121559
  -0.2134634338    7.2207956142    0.0648469912
   1.4473585788   13.7037897672   14.1628938587
   9.1025841670   11.6631335866    2.8609151760
   1.9213322064   11.0878983562    7.9498486172
  11.3773830802   19.7345341325   14.3492685814
   5.0318410910   11.5295566022    3.3076355730
   2.3810949876   12.9431141353   16.2992250448
   1.5238083271   18.3616848917   13.3659633917
   2.3725379536    1.8014027788    9.7688459457
   8.8167212224   16.5491559122    6.9018329159
  -1.5382200852   12.1772961511   15.9988343670
  15.7343420590    4.0911934668    0.7760566966
   3.3696155208   10.6880036972   16.1620798981
  15.3436357413   12.0079916661    1.8271192075
  11.9568487064    1.2661028222    6.5376219340
   4.9728305319    9.9130789298    4.0006952949
   9.8096139530   10.2118735753    2.3236564181
  15.6438714496    6.8013583098   19.3231863622
   6.5503432347   10.3174961104    7.0574677612
  13.8365483780    2.3291756533   14.1359076003
  -0.2586018332    7.9781333224   18.1754826883
  10.5830246183   16.2210937308    3.6780209393
  -1.6421273647    8.9960598349   17.7651929290
  -1.1910712945   19.2519992278   13.9057846401
   0.5297399528    2.2222405442   13.2728170859
   1.0249816288   17.7876936226   11.6701143571
   0.9562470150    2.9356013326    9.5319082876
   0.5949082825    9.1125778652    0.8627066366
  -0.1462607401    4.2409646321    0.6044377393
   0.2763117233   11.7983133975   19.3020702501
   0.5530242278   12.3267399195   16.7713048684
  13.6392810269    1.6720038116   15.6831393148
   9.0608824768   16.4158549498    2.9403032391
   1.6658522468    9.4652749449    8.2972804098
   7.0910391718   17.4166500530    5.9499135840
   5.4014931947    9.2766297219    6.1794339156
   7.9948421013   10.5442074407    1.8469515304
  -1.0431174819   13.7579533136   16.4183593248
   4.8738217155    8.7779724901    1.4403138729
   8.3644270841   14.1373548224    7.2581997438
  12.2770141348   12.8368510959   13.7973238328
   3.7965369379    1.5136505860   16.6452234773
   1.7732624952    3.4235514521   18.2990073030
   0.5022753641    6.3663531800    6.0674307398
   3.9874689943    5.3184802553    0.9909359572
   0.2278077771    3.4666408617    4.7412899263
  10.5641065976   11.5461031515    5.7238329354
   5.4801890457   18.0884006101   10.2655226751
  16.3722532057    1.0573997588    1.9155161910
  11.1026650699   11.3155795802   16.4689486430
   3.1273052147   16.0551053579    0.1620083770
  12.0314765355   16.9398900278   16.0138481512
   5.5605121797    1.1255368029   10.2272848271
   2.3961631584   14.2601377097    2.2088160235
   7.3789536396   13.7042319162    1.5933512081
  11.8813496577   19.2616014569    4.6368585370
   5.4380164641   13.5630773906   18.5276598633
  -2.5782283805   15.6637507082   10.8292216821
   4.0599469637   18.7573846707    3.7601462060
   4.9404777646    1.1677803769    2.2802236325
  11.3526023574   16.0427090726   18.8448283348
   6.6621406163    2.6744821228    6.1235367275
  13.3533521315   18.5569395115   11.3980053619
  11.4888899421   14.9881219570   10.2401491313
   2.8535138451   15.5744218782   13.0284691606
   4.2391966068   17.9963170068   14.4021934721
   9.4389658335    3.8676971311   15.5324604322
   9.1898459616    3.8064955978   17.9405996704
  -0.6435120357   17.2655268750    8.2049701952
   9.4535181125   12.9951496617   11.6423254903
  12.1977566271   14.4943698200    4.2510311353
   1.7060561246   13.9031646108    9.8600510458
  15.5844815895   12.6303162116    9.5530584018
  15.7347161841    9.6921111957    7.0623491651
  11.2068518563    3.0045660802   17.0232583416
   4.0974151328    5.2063330953    6.2231306238
  -1.4190096195   17.2607628959    4.6217219767
   8.8535981004    7.2611005586    3.7361819443
   7.9614988952    6.8747411306   15.6883224919
  15.0584516364   13.1287089509    3.7602770397
   2.7306788515   13.7784745945    6.7619083592
   8.6145918920    7.7620728440   11.7232111388
  13.3322258153    7.3573895050    5.0206265406
  -1.0702056822    8.2503362085    3.2540288727
   0.1425826563    6.6470429338   12.3676159708
   8.0997213383   14.8761181326   17.9948782759
  10.6134770112    6.1936655607    1.6325336506
  13.0497218396    9.6901610110    3.0888706877
   8.9866897135   18.0206664257   13.0331026331
  16.3142788848    5.2697043446   11.2399907139
  15.5401079411    7.1548136986   12.6821022603
  16.9189074711    5.4947180853    1.8395687900
   1.5962107415   11.3704225713   15.1683663381
  12.2121231017    1.1433240073   14.3184685476
   5.9250842439   11.1198494288    5.2264483336
   7.7659277083   18.9418788605    7.1307394831
   9.5914639147   11.8252092834    0.9354115032
   0.0446593339    9.9924660355   18.4097574551
   0.0011354940   19.4199189730   12.2437537071
   1.4361264705    2.5421646851   11.4963730690
  -1.0767555143   11.5016752712    0.2334973861
   9.0441388204   16.2926837723    4.8995670400
  -0.4632031683   13.1783692073   14.4643287677
   3.4891845910    9.7937565899    7.3872521773
