B2 C140 Ca1 F48 H298 O66 
1.0
1.7785413668375714e+01 -3.7972075051530342e-16 -1.1462485740365236e-16 
-2.8290678361368857e+00 1.9239503253611360e+01 2.6179920319471477e-16 
-7.6192401454971626e-01 1.2261927664286199e+00 1.9534492944606651e+01 
B C Ca F H O 
2 140 1 48 298 66 
Cartesian
   9.9413371433    3.4488828621   16.9273133837
  -1.2422330813    6.3125368186   12.0994910394
  -0.1512264366    1.4384440516    1.5180495817
   7.0006838709   13.7038236051    6.9179779539
   4.8225136815    6.4283901308    1.1989397585
  12.5459308107   12.4642077062   12.4721216602
   4.2363571539    2.6462438910   16.1426424692
   1.9514436885    1.8950436837   18.2915031271
   1.3164633495    2.8754268927    5.4978280875
   2.3708785872    1.3638326748   16.9929404929
  -0.5814457482    4.0253618165    5.8063063836
   2.9697528694    6.2779214249   19.1930372195
   1.8009593999   16.9995664909   18.5163388940
   0.5450301965    3.8610040526   17.6976023480
  11.7343870844   15.7717944112   15.1908534116
   4.7149282783    9.9648296352    0.6204006236
   6.2622397159   17.2786373442    9.3381828605
  12.3535215507   12.0739039261   16.1453700900
   9.5718697340   12.0051982812    6.6432585438
   9.3797461259   13.4715209002    6.4438513174
  12.8174957955   11.8123659591   14.7312842533
   3.9000114666    7.7173254610    1.1741014864
  11.1375679786    9.9626811393   16.8733141071
  12.0224123889   11.5133987761    6.1275637834
   0.0838533254    5.1577347904    6.7388347871
   0.8980784046    7.3028211296    7.0748580607
   4.4897785291   18.7698890483    9.6519989322
   2.1965799715   16.3956536770    1.1767960146
  15.8664295804    1.7879437566    3.2050028712
   3.5079512316   19.2422575990   10.8148701583
   1.4841020728   15.0999882014    1.6826463659
  12.9498524194   16.7660320981   17.0784067047
   5.3671429397    2.2209275660   10.9456587869
   7.4521910739   13.7691252382    3.0301093378
  14.6151988062    1.1292007337    3.6966067861
   6.1360531121   13.6451008151    1.0588170537
   5.3685607760   14.8378442155   18.9988070996
  15.0161319422   15.1929943058   12.1527369744
   2.2038457633   12.8846422645    1.8542200519
  12.5390304515   15.7174571334   18.2333282192
   5.3919196729   13.4518038416   17.1829734113
   5.1504971877   17.7838136998    3.8993428711
   7.2116135898    0.4136441697    2.6518549278
   6.1906065510    1.6136815340    2.6481374663
   3.9012545466    2.1714333516    2.4255858687
  -2.6696320909   17.0995199897   10.6339179016
   6.7070229274    1.2966806278    6.5818774434
  12.0538150314   14.9668449572    8.9676336244
  13.6283463184   17.4109218235   10.5059341820
   3.6186396761   15.6628441080   11.9378407997
  12.9820737926   18.3271820074    4.4120647860
   7.0261793307    2.4944069241   18.3231860452
   7.5199315445    4.8824658669   19.2455180343
   7.7878941291    3.8767516050   18.0409228637
   3.5463043740   15.5598928214   14.3140341428
  11.9706934271   18.5809509929   11.8149711746
  10.0235505696   14.8954657435   10.1082107300
   9.2054003790    3.2273111199   13.2533355743
  12.1459078445   15.6687631367    0.4473540638
  12.0963423077   13.4777137775    3.2398500872
   9.4130811306   14.3558369348   11.4736388623
   5.3956726357    3.1969633084    6.4260773062
   1.5590616567   13.0190209584   10.8850273498
   3.5198775248   16.9103291696   15.1086700546
   0.3026994245   18.3867730072    8.4897723537
  10.2066927378    3.4396166701   14.4038724884
  11.2571219916    4.5133420396   14.1073304260
   5.4561837477    4.6894133936    6.2050025498
   4.4733931789   19.0968384666   15.2432104198
   8.5099067088   12.3306904613   10.6541124780
  -1.2982199311   13.4800745416    8.6942048455
  15.1364104025   11.5809453511    8.5930486680
  -0.6970325294   16.7889755342    6.9456574677
  -1.6437340328   10.5239640940    8.1124151430
   5.5725954225    6.6894429319   15.5150185212
  13.4893608045   14.9144449662    4.4483530256
  -1.3441089055   17.7777052625    5.9813405441
   2.8462180276   13.6519060399    9.0170062690
  15.7505428727   10.1799210424    5.7628943126
   3.7250120119    6.2223712380    5.4528348460
  11.4165902140    2.6135541642   18.4466512296
   2.0663525743    5.4930136007   13.3596976240
   8.8435645616   20.2794574730   18.6579058931
  14.6139684515   13.8727463989    4.9404766096
   6.7700097554    7.3022509999   16.2498120920
   2.7107831969   14.6465872299    7.8508095634
   7.4003804648    7.4089689582    3.9855979350
  -0.3717608159   17.9232140443    3.7144991576
   6.8543366303    8.8662935367   16.0639578230
   9.4959271141    7.7443664093    9.4580775153
   0.3822628104    7.7870924195    3.4155968098
  12.6657498347    3.4480891436   18.7506158136
   2.0274874523    5.8484648368   10.8905094219
   1.1300621304    5.6127114432   12.1160525435
  10.7455843354    5.8360929485    3.0636441273
   9.3831369331    5.8927259658    3.7952822450
   8.5712176392   15.8220068386   17.1690993216
   8.6258258602    8.4351104743   10.6007394017
  11.9526443760    9.0757256041    3.9959409746
   8.4643112782   17.4576070715   11.6590071672
  -1.2066422963   13.0718465401    4.0277612167
  14.2074545323    6.9523139982    6.1361243586
   7.2210648202    8.6397640913   10.0217912552
  12.9031028290    9.5796301008    1.7243596865
  11.9220297747    6.1954140764    0.9771274829
   2.8540072300   14.2517709265    5.4504982754
  12.4752629488    8.5505869857    5.3523924189
  15.8591460750    7.0536491544    3.4321544970
   8.0929227573   18.3091144528   13.9132271804
   8.9816646956   13.6429256809   18.1075373914
  14.6785570625    8.2013889468   14.7324759079
  15.8224981060    8.2182963555   13.5951213267
  15.7679455697    6.1332748465    2.2865868712
  14.9307293077    3.2420976397   10.9546921534
   8.4987269135   12.5564670615   19.1652107863
  14.9407506056    4.7609138075   11.1957397191
   8.7200900423   19.2501600108   14.9623164179
  14.1674103165    5.5080466636   10.1104764101
  15.7477122982    9.5518761979   12.7274706358
  11.1159244430    1.0292508817    7.1379881931
   2.3946778549   10.1896117100   15.8706007160
  -1.7977185424   11.3368718675   19.3535789508
   0.7784055981   13.4811557595   15.0618310482
  15.6038565924   12.0572339999    0.6192702459
   4.6140086106   10.7300345241    7.3245157869
   4.8847145479   10.9258974137    4.3096253957
   9.0832294107   17.1233126168    6.0078196625
   7.8906009758   18.1194111372    5.9221902702
   1.3767204123   12.3879657005   16.0347137522
  -0.7737144411   20.0085767628   13.2224883336
   1.0306014589    1.4956186336   12.4745684937
   0.7026343793   18.1570308081   12.6678134531
   1.2203998412    2.0067942792   10.0971560904
   9.1840894881   11.0131945066    1.9484059374
   2.4432688886   10.1800816194    8.3242643771
   5.7419842977   10.2481783562    6.4047745753
  13.5717429743    1.2931402791   14.7145703302
  -0.6826581102    8.7061848562   18.4800075995
  16.6247580367    4.7507893582    0.7473425015
  -1.4726188853   13.0770838108   15.5556286023
  -0.3452815734   10.8323113689   19.5189810656
   9.6320756775   16.7947231799    3.7333928088
   8.2600290135    6.6753394623   13.5897410926
   6.8271908719    1.8272267894   17.1547335112
   8.2130935895    6.0478865581   18.9598083455
   8.9875132561    4.4875560589   12.6238169186
   7.8447887260    1.6935968118   19.1067800029
   8.7021461605    3.1744242029    0.9469222125
   5.8739241107    2.6058201884   18.9508381693
   6.2508139876    5.1341577450   19.3396219824
   8.0224244666    2.9823563178   13.8705529662
  11.9442904338    4.2617860806   12.9953230473
   9.7099876898    2.3746814238   12.4254861359
  12.1733311744    4.5156975903   15.1271752045
   4.3701756676    7.0885606455   15.9817614586
   5.5637743898    5.3053830293   15.6556098147
  10.6246722739    5.7324526839   14.0241268945
   5.6284649726    6.8959738266   14.1669065870
   2.8772428003    4.3371165178   13.3821798242
   7.8929381748   19.6582686605   17.9595255328
   2.7519159747    6.6337740132   13.6201213595
  10.8027070760    7.7802249478    9.9993960148
   1.2792071161    5.6185702524    9.7901015622
   6.8141762618    9.1351131826   14.6944229874
   7.9718853750    9.3727810246   16.4921566320
   1.1599941822    5.1719597044   14.3325057354
   9.4515939190    8.1062227515    8.0915143558
   9.6992907449   18.6580751522    0.4015302907
  13.5382536548    3.3263690437   17.6975501840
  10.0785296398   19.8719397659   18.2134553678
   3.0463821338    4.9986333018   10.8464418983
   9.1817649169    6.4004539355    9.4398465015
   6.3984816979    9.1419005199   10.8749108869
  14.2289480595    1.9823215862    0.2958684630
  12.3821000884    4.8730343810   18.7481943512
   5.8043360711    9.7497103061   16.5898733917
   2.5622096028    7.0779261269   10.6198687891
   6.6383232817    7.4513642863    9.5852302803
  15.0540146851    8.9930034232   15.8156512302
   7.2224692608    9.5014620113    8.9195560116
  13.7856275571    2.5451162558   11.0274087840
  13.4915932424    8.5158932856   14.2645549298
  14.6067026311    5.0308638129    8.9228256655
  15.4972053929    2.8827991517    9.7779587350
  14.5503735891    6.9181026305    9.9908882538
  14.5918176970    6.8748052515   15.1545438343
  -1.5114377575    9.3792936440   11.5002510526
  15.7557235158    2.7441857480   11.9671655184
  -1.3885978699   10.5060428444   13.3376418126
  12.8286195114    5.3502354765   10.2351782910
  14.4833745003    9.9650911748   12.4851742970
   0.8913537661    1.6420773703   18.4172554649
  12.1781127403   13.0074618448   16.5920411457
   1.9786724189    2.2915795481    4.7714299625
   5.2847020496    6.2424476007    2.1850798390
   5.5202838916   17.2333803045    8.4926959960
   9.8579385610   11.7843064724    7.6654838939
   5.6079087084    6.6156295440    0.3743262272
   5.0727783309    2.4035388181   15.4301030451
  16.3640089008    4.5452561621    5.3642223224
   0.0182121601    2.4727418687    1.7589084594
   1.0489438275   17.7615606900   18.3314233393
   0.0164960261    1.3568412141    0.4000213863
   6.5343017077   14.4820970214    7.5349346491
  -0.2759843599    3.7570727948   18.2923200424
   0.6489176153    0.7624703397    1.8267690561
  12.2551627766   11.4545616762   12.2530593929
  -0.5311852835   19.5401133433   16.9867954111
   6.7439430944   13.7980920109    5.8709525759
  12.4320571949   14.9678213553   14.9325074186
   5.5604233137   10.6629849749    0.7847411146
  13.5700628879   12.4742503099   12.1916769430
   2.6207034919    5.1906735148   19.1675923615
   2.0604681529    6.8197124253   18.8953622620
  10.7776460369    9.8044394737   17.8541272158
  12.1633940842   10.6013535446    6.7985163793
   0.9338815611    2.2121313747    6.2498238216
  16.9586980192    3.1799401529    6.4616577951
  10.3693031944   14.0293689050    6.7286062366
   4.6114679203    3.3478244706   16.9318910527
   4.8855282073   19.6345720824    9.1256020951
  10.7466659712   15.2743184103   15.6205035195
  12.3156849834   10.8730064985   14.6706938982
   1.3657518900   16.0201000123   18.4834653468
   2.5665053482   16.8862391267   17.7242271270
  11.4032503474   16.1020643206   14.1748649114
   7.3540284454   17.4704501926    9.1293858964
   0.3803738955    3.3185579516   16.7512409212
   2.8381789994   16.5941479683    2.1212055927
   0.5032110914    8.3080497159    6.7369122057
  13.0654548996   11.5152088917   16.7295257866
   1.9032103941    3.6215346715    5.9817912360
   6.2912565774   16.3320535695    9.8052980073
   8.6116205750   11.5535425740    6.3905732279
   3.8323096140   10.6450530921    0.8035848025
   6.7927244492   12.6119063117    7.2138373291
   4.0080346944   10.8988373715   19.0904261576
   3.7790551481    6.6388963557   18.4819665904
  11.8715567694   13.0229347005   11.8384402531
   2.5387158937    1.5761796551   19.2311030201
   3.3850074909    3.2068282031   15.6137959127
   0.6848668231    5.0202008441   17.4667883403
   1.6913736523    1.6103650439   16.1358753538
  16.6989145057    1.9012640187    3.9066692453
  15.6444793355    2.8470256047    2.9725287672
  12.2138793021    9.5202468371   16.8610434075
   3.0644873445    7.7206679567    1.9681615898
   3.5000968949    7.8432677400    0.0806579188
   2.0313698815    7.3930154808    7.0278467725
   0.8285553902    4.7432187364    7.4190307159
   1.5854460679   17.2268024545    0.8649060775
  12.5821585992   11.2734975568    5.2711955904
   4.1490864966   19.6999922131   11.6723568738
  12.3902328930   12.4125110260    6.6924932625
  10.4380594750    9.3311412785   16.3422547409
   9.4523472047   13.5596553153    5.3297582552
  13.8945479867   11.8112807564   14.6788547305
   3.9461219443   18.2413496662    8.8035609210
   7.2167144249   14.7199802232    3.4668540864
  -0.7205873562    5.5840203394    7.3154463918
   0.5565827558    7.1892162004    8.0674456796
   5.5822672605   14.5404295697    1.3281508721
   6.3317896229    2.6187332315   11.1909360196
   0.9430628399   14.6192510370    0.8922957230
  12.9968965964   17.8238775931   17.5133785158
  14.0360046368   16.4430273397   16.7747701153
   4.4056731372   15.3775288191   18.8697876335
  13.9482186935   15.5825757599   12.3229524736
   8.3333748391   13.4273985123    3.6044797156
   4.7441733326    2.8896706542   10.3172843396
   2.9065224239   18.4027106155   11.2678232445
   5.5211971201   12.4100478795   16.8380077282
  15.1077828438   14.1047401722   12.2391516601
  14.1375166510    0.9335273963    2.7293444980
  13.8623403386    1.7192741878    4.2403122296
   4.6709861055   16.9301695380    4.3340110628
   6.0309463870    0.9526084059    7.3462972616
   4.4034357013   19.1745125362    1.5407115132
   0.6511307655   15.2825855513    2.3846239987
   6.2251174779    2.2199152746    3.7004314959
   2.9385129111    1.5628296573    2.3161481106
  -2.3314869277   17.8368292230   11.4507068861
   1.2090366448   12.5277499332    2.2392525801
   2.1998444738   12.7672916330    0.7185820713
   6.6729244861   12.9964050705    3.3785172220
  12.5248287930   14.7207659474   17.7031968633
   4.8712350216    1.9651153800   11.8897704137
  13.4532631522   15.8078655624   18.8629527692
   6.2824132326   14.0101618139   16.7012986564
  11.8197540988   14.1080417537    8.3463003801
  12.9057285995   16.6049075914   10.6036881194
   5.6264855289   12.6710012806    1.4055273973
   2.8249466792   15.5836808565   11.1533197942
   5.8721220214   18.2299067613    4.6476121994
   4.3917248574   14.8383827710   11.6373462368
  13.0992216845   15.2569107562    8.9966085080
   3.7679272423    2.8788564679    1.6094755736
  -2.0190471269   15.5023663026   12.9395965702
   6.2888132748   15.4171032703   18.6859606456
   3.0210110094   12.3172895766    2.2333033081
   7.7484368599    1.2070096061    6.9147750673
   6.6246501059    0.5964372815    5.6971122906
   4.4155873436   13.8356577853   16.7573392905
   7.3137014417    4.3477087012   17.2044008472
  11.6444682769   19.5717220315   11.7049101566
   3.1354315023   14.8389331708   15.0461049949
   4.7078861864   15.4824668235   14.2010569130
   9.7104685966   14.3078803370    9.2099724409
   4.0869785894   16.6604186399   11.8936900526
   5.7245764697   17.6212468361    3.0161380948
   8.2847416926    0.8018107123    2.9280694116
  -2.2163723839   17.1573948550    9.5821353884
  14.0371895681   18.7701877533    4.5418474606
   6.4395165734    2.4465149530    2.0669235699
  12.8767412212   17.6784819752    3.5538020135
  12.8746363627   17.6213690874    5.2293923369
   4.0121884508    2.5699889885    3.4056367597
  11.5901468577   15.8780227316    8.4318912037
  13.4019446379   17.7162151483    9.5061171742
   9.8122011632   14.9245387421   12.3321479207
  -0.0715770463   18.7316977154    9.4731859899
   1.8012497990   11.9557792590   10.6152331043
  11.9187266352   13.8920009271    2.2775397522
  11.3230431463   12.7832316891    3.5529864689
  11.4250042212   17.8806602269   11.0638604155
  12.8542250718   16.4942308833    0.2549586909
  11.1141350156   16.1516107356    0.3963753370
   2.1301249750   13.1848415682   11.8357658153
  11.7954151961   18.2026031203   12.8693853465
   0.4954753473   13.1282845712   11.0944356257
  13.0157250264   12.9249540415    3.2189179949
   4.5574479532    2.6107208334    5.9871872139
   9.7452257564   15.8764374072   10.0495962917
  -1.8082179995   13.7458599948    7.7128198353
   8.9640163001   11.5380450241   10.0305902368
   5.2141556041    3.0276531788    7.4747875396
  12.3034041838   15.3083449098    1.4861877195
   5.8609686551    4.8874576053    5.1972095075
   6.1374041549    5.0590180781    6.9695727277
  14.6200648876   11.9762923886    7.8010612939
   5.3867933588   19.6464335428   14.8739910761
   0.0973246200   19.2335051338    7.7824145861
   1.4066062774   18.2193826965    8.5693270558
   8.2469509601   14.4557513658   11.4979001238
   4.1867428354   16.6701023831   15.9634526013
   2.5689123538   17.3600876590   15.4682424916
  -0.3633876190   12.9090311792    8.4616928521
  -0.5848039516   10.8604048990    7.8887960334
  10.8654773988    2.6074040684   14.4638073210
  13.9576173845   15.4185500705    3.5021770832
   4.5835239247   18.7191371778   16.2944272465
   8.2479362235   13.0606285586    9.9278431208
  14.8994794490   10.9320965089    5.5592797970
   3.6681152464   19.8443449989   15.2729236996
  -0.8071892376   18.8401781779    5.9912217589
  -2.4219346254   17.8340288230    6.1533973989
   7.6269450326   11.8438600197   11.2322449152
   2.9021181627   12.7299567315    8.4432442350
  -1.1232564824   14.3430470467    9.4047609708
  13.5112253038   15.5311225332    5.3620042993
   3.8162069205   13.8311494989    9.6012150411
   0.2940296300   16.6327729112    6.4379653168
  10.5641604483    2.9052522294   19.1584088679
  14.4338173549   10.9462504939    9.1130954097
  -1.2508154164   15.8392056867    7.0453932175
  15.6932659221    9.2920156615    5.0809244915
   4.0220689794    6.0483042115    4.4072427482
   7.1317177196    8.4204279331    3.6118638283
   3.8884731258    7.2328378771    5.7907169063
  -1.4564446421    9.8535407342    9.0169888558
  14.2315217901   13.1111644194    5.6781714334
   0.6163793575    7.2223813734    4.3809196325
  -1.0455049373   10.6310076932    5.4319743849
  -0.9374236338   17.6661570693    2.7646646096
   0.5289116384   17.3501589898    3.6855680057
   1.8551946635   15.1772246181    7.9956649986
   0.6502356952    7.1985384439    2.5997851680
  15.3259612982   14.3801272814    5.5570765717
   3.5317845837   15.3580530253    7.9742929528
  11.4383183176    6.5218132527    3.6368428885
   6.6686564971    7.1571413830   17.2626680728
   2.6241144866    6.1690405322    5.3203202925
   0.9539833794    8.7329745286    3.4750150064
   6.9749317770    6.6490439251    3.3160692585
   7.9808630456   16.7390367187   17.4495825234
  11.1858900541    4.7959526965    3.1560852370
   7.0001457482    7.3053498933    5.0388706488
   0.6700446867    4.6694426816   11.7500620209
   7.8995710895   18.2741434372   11.2110866381
  11.1757616300    9.8713020914    4.0718051049
   8.5127870592   15.4739381446   16.0703875131
  13.5385508597    6.6682346819    6.9794221511
  11.4781807864    8.4035117261    3.2373527996
   9.3312040916   17.0936840494   11.1323367527
  -0.3496507068   18.9743620969    3.7498034081
  12.4643186763   10.5627097060    1.3385819974
  12.6164151876    6.6281102023    1.6804336188
   8.5673839878    5.3854173898    3.1919678320
  -0.9998259866   12.5943306113    4.9685770580
  12.3312738711    8.7424089972    1.4613714727
  12.2412969131    5.2686543452    0.5252023673
   9.6627654187   16.0570183646   17.2848614213
   9.5801872904    5.2774083389    4.6520961366
   7.7825881856   16.6640470212   11.8833364253
   2.0625443719   14.9492928476    5.3608834421
  -0.8034036805   14.0850472732    3.7444295254
   8.9609960724    9.5699719196   10.6938277475
  14.9269205991    7.6239433594    6.4964761770
  -0.7629875791   12.4446076623    3.2584112692
  14.8621579610    7.3612288200    3.4731206392
   3.8845941894   14.7928833083    5.2009537418
  14.6737597763    6.0093363692    5.8396667739
   7.2908333616   18.9975172657   13.3829514308
  16.2499242745    6.5119076769    4.3438875017
  11.7284804232    8.3697475701    6.1380914262
  14.0326828770    9.5734336337    1.3709147134
   2.6618721961   13.3892284136    4.8316065836
  13.1663660657    9.2582127145    5.8331249935
  11.8781201200    6.9867236103    0.0490595875
   9.0130842727   13.1421555933   17.1253064493
  -0.9391829785    8.1279233893   13.9900174611
   9.0922492829   11.6061253541   18.8688128411
   7.6107445995   17.4803659800   14.4941809980
   9.9966616104   13.9983407615   18.2781437183
  14.9784971396    5.3251205995    2.3429827178
   9.4698360465   18.7341789739   15.6159078937
  15.4863388084    6.8667595855    1.3709165887
   7.4204268016   12.2184822492   18.9194766431
   1.8916137927    9.7173927165   16.6457916391
   0.7519634060   14.4925731535   15.4979739707
  10.0944011652   17.4090710347    6.0164973200
  10.2962566372    1.7275222899    6.9055208254
   4.8349153634   10.7206674687    8.4140380500
   3.8574246199   11.2301193226    4.6322991867
  11.3782708883    1.2115846145    8.2061939461
  15.9890814497    9.6169930260    0.3928077483
  -2.0623689250   11.4606487296   18.3038713832
  14.3484156287    4.9850140767   12.1215883732
  15.7067967615   13.1161546428    0.5626821466
  14.6508241856   11.7163800380    0.1360023725
   0.2895905885    0.8024735753   12.0658238988
   2.6431563208    1.4905303742   13.8253356557
  -0.1095901580   17.5492453977   13.0779924277
   0.6356290545    1.1039156724   10.2123832158
   7.8724950966   19.5295437876   15.6037517460
   4.2327535939   11.7356195178    7.0061503623
  15.3251547465   13.3982607158   15.1350582589
   9.8474165042   17.8861787292    3.7709562369
   2.8224112750   10.3983348528    9.3171899633
   2.6200138909    9.5000389517   15.0179341266
   7.8999930691   18.7207160608    5.0487385144
  -1.1698021430    8.6233892735   19.4578610595
   1.3908524274   13.5456139447   14.1672058786
   9.0624548306   11.6453871927    2.8085586468
   2.0161505201   11.1494038909    7.9325054047
  11.4776769133   19.7102614592   14.3233809462
   5.3154634504   11.2989199781    3.4121587095
   2.2120958708   12.8925676735   16.5747989158
   1.5460406437   18.3571312108   13.3915622691
   2.2125355708    1.7483401892    9.5686600562
   9.0077639591   16.5114998154    7.0028597637
  -1.6997990268   12.1253547811   16.0206947290
  15.6634691236    4.0865212926    0.8619852466
   3.4049619056   10.4953234729   16.1739461438
  15.4262646810   11.7133372284    1.7568339170
  11.8019323022    1.0599285844    6.3393200180
   4.7215523706    9.8269526121    4.1704440772
   9.9098287624   10.1586174322    2.1828598043
  15.6349224591    6.7548699754   19.3835576448
   6.7812863342   10.3059005705    6.8940685791
  13.9530877429    2.0803012204   14.0465007564
   0.0173109517    7.9572639819   18.0230145274
  10.5769501727   16.2784748399    3.5498143505
  -1.5619094963    8.8255721024   17.8509922119
  -1.3205588624   19.2526466375   13.9274556087
   0.5092201513    2.1995137981   13.2554376847
   1.0509748315   17.6443122415   11.7037274068
   0.6537552433    2.6443963128    9.4092400698
   0.5435530014    9.0901685235    1.0037689816
  -0.2703633913    4.1185565257    0.4069287234
   0.3005500006   11.7383031420   19.4921345560
   0.6805596910   12.1324247481   16.8676666675
  13.7717718305    1.3858275855   15.7353649775
   8.9768468186   16.7302171384    2.8777869127
   1.7056903440    9.3936759318    8.3304498457
   7.0208067533   17.5314269100    5.7326994871
   5.5175369341    9.2270409529    6.1936730559
   8.2077784668   10.5763853348    1.7451408590
  -1.3513142566   13.9363413548   16.2609257631
   4.8430390347    8.7711853722    1.3904501517
   8.3383415614   14.0510684103    7.1632496447
  12.2690341002   12.7651011122   13.8831524745
   3.7698826554    1.5048771138   16.7334538216
   1.8211395575    3.4331292445   18.3973884702
   0.5423194352    6.3482519110    6.0883327816
   4.1088228778    5.2699513453    0.9567481735
   0.1851338240    3.3922938405    4.7804348186
  10.6055036665   11.6523701775    5.7695256061
   5.4767088019   18.0802478256   10.3369728559
  16.3712760659    1.0128829084    1.8878871006
  11.0364381218   11.3826917880   16.4938357569
   3.2122252816   16.0863016353    0.1807090034
  12.0379761249   16.8781401653   15.9801116983
   5.4360466279    1.0416821974   10.1316358681
   2.4310106503   14.2377968897    2.2402788342
   7.4927860089   13.6474827161    1.6194267200
  11.8869211602   19.2399522587    4.5264874091
   5.3658272091   13.5191224552   18.5613128583
  -2.4446519384   15.6320979374   10.7890716532
   4.0160211601   18.7325415077    3.6109494553
   4.9127017911    1.1785688304    2.2556702544
  11.2715352882   15.9619070674   18.8622932283
   6.5947436862    2.6540873748    6.1093312980
  13.3880022743   18.4659224834   11.4500399050
  11.4403506058   14.9547654917   10.2731878696
   2.8388322249   15.5066453751   13.1645821583
   4.2327444899   17.9582120372   14.3483439405
   9.4934136321    3.6770381765   15.6101955323
   9.1375745668    3.6566985472   17.9616925092
  -0.4461634959   17.3299821568    8.2635930379
   9.4788267103   12.8188035719   11.6894112361
  12.2185227405   14.5164298856    4.2442707164
   1.7029979376   13.8226464273    9.8048817104
  -2.1250130350   12.5885137849    9.4621143350
  15.7228475366    9.6996885228    7.0878629299
  11.1574811271    2.8715667852   17.0579942505
   4.1627007560    5.1553376822    6.3433481165
  -1.4121691712   17.3521039351    4.5908140793
   8.8043913406    7.3187108462    3.7917941745
   7.9733337472    6.7985292948   15.7659860717
  15.1733254575   13.1601301399    3.7867966397
   2.6681140754   13.7497665420    6.8224339696
   8.5997844048    7.6932180164   11.7590991376
  13.2995986363    7.3284207736    4.9934788195
  -1.0010297042    8.1878692121    3.3331567500
   0.1044685989    6.6039688420   12.2561975377
   8.1579361638   14.7641187996   17.9808849719
  10.6950755364    6.1747002749    1.6915811792
  13.0223843382    9.6111918159    3.2295372126
   8.9969918518   17.8875760380   12.9359942175
  16.2563083568    5.2285018265   11.2622120271
  15.6061828786    7.0644285784   12.8215754201
  -0.8130263204    5.4653827135    1.9191015148
   1.6165443212   11.2628557369   15.2508925446
  12.2172969720    1.1056114196   14.2919149877
   5.9311763827   11.0291707151    5.2796738656
   7.7845303287   18.7902177064    7.1526382160
   9.6150778607   11.8589012461    0.8497714711
   0.0460605667    9.9412378688   18.4307149719
   0.0206459799   19.3172137193   12.2663663452
   1.4723971862    2.4392039357   11.4265047518
  -0.8848314451   11.4907895362    0.1762284420
   8.9812664017   16.3302114066    4.9011619288
  -0.5257433346   13.1408019400   14.5187113771
   3.4820446966    9.7496705232    7.3981256153
