B2 C140 Ca1 F48 H298 O66 
1.0
1.7798187902307873e+01 1.2334092870348943e-16 -6.7935384255689601e-17 
-2.8505836323293190e+00 1.9243104926837756e+01 -1.5004811150370103e-16 
-7.5422665158228697e-01 1.3098481315628736e+00 1.9517425839062728e+01 
B C Ca F H O 
2 140 1 48 298 66 
Cartesian
   9.9254664633    3.5212382212   16.7549389148
  -1.2554756750    6.3175548689   12.1506147272
  -0.1008436114    1.4590415109    1.5146999190
   7.0230302809   13.7145564635    6.9870843040
   4.8330433686    6.4627776577    1.1526770463
  12.5071131769   12.4600766461   12.4532339701
   4.2637747719    2.7438236501   16.1764840733
   1.8980735553    2.0734108108   18.3399741893
   1.3290168822    2.8033903855    5.4880693749
   2.3629539940    1.3843196180   16.9358316263
  -0.5564267851    4.0731970896    5.7971443985
   2.9210749343    6.3533926787   19.1559953127
   1.7857705933   17.0848387480   18.4620162852
   0.6181645829    3.8837842173   17.6921528624
  11.7213171836   15.7968844058   15.1675309258
   4.7676233227    9.9908318393    0.6980824645
   6.2292106330   17.2503903221    9.3938168562
  12.2705418670   12.0568275935   16.2050613167
   9.5568485206   12.0546413783    6.7176411136
   9.4642019342   13.5441955164    6.4105266539
  12.7726577651   11.8386693701   14.7523074845
   3.9187372118    7.7603553687    1.1173220370
  11.2236043219   10.0147420438   16.8297079782
  11.9373446124   11.5908807441    6.1510472541
  -0.0079570817    5.2212044982    6.7119321568
   0.9426256327    7.2861207518    7.0196788833
   4.4780045930   18.8675478502    9.6248792302
   2.2063130312   16.3805527770    1.2118980988
  15.8889352464    1.7661649330    3.1380063524
   3.4821133600   19.3561580819   10.7930528331
   1.4373327610   15.1721077029    1.5890050067
  12.9333780683   16.8003757639   17.0806959528
   5.3087716633    2.2523878679   10.8896161995
   7.4352493061   13.7792881301    3.0176253652
  14.6035539930    1.1081350442    3.5995903030
   6.1417373413   13.5913319873    1.0125692541
   5.4158133543   14.8802062314   19.1179992825
  14.9943793555   15.2616076058   12.1316700939
   2.1512716200   12.8802214517    1.8054011947
  12.5539390319   15.8451573544   18.1549988115
   5.4035848667   13.5569665890   17.1246172048
   5.0502034675   17.8283385623    3.8867303066
   7.2009352305    0.4743364356    2.6523699383
   6.2269470311    1.6057158195    2.6553605061
   3.8643972724    2.2468029545    2.3255847687
  -2.7233682014   17.1032005111   10.5671798021
   6.7658586605    1.2456634103    6.5763104909
  12.0815636750   15.0344737783    8.8834250231
  13.6402789252   17.4923299121   10.4859752708
   3.5767724304   15.7822738406   11.9390043672
  12.9674492931   18.3854472865    4.4483587677
   7.0531575309    2.5388536556   18.2720049759
   7.5352965976    4.9347815253   19.1908892687
   7.7299621243    3.8681744630   18.0921575920
   3.5956750623   15.6354198834   14.3152424998
  11.9685858104   18.6252005476   11.7389962479
  10.0303056642   14.9457812685   10.1740607399
   9.2087978057    3.3640122222   13.3232927394
  12.1409096966   15.7464020568    0.3624382271
  12.0590022935   13.4896343216    3.2420422241
   9.3846099780   14.4243593417   11.4539629990
   5.3466478855    3.1553306800    6.4629436749
   1.5092278979   12.9943396122   10.9292052297
   3.5706561980   16.9501971807   15.1338888548
   0.2283436165   18.4693515662    8.5294403254
  10.1782473290    3.4159118281   14.4370562523
  11.2082126012    4.6015506530   14.1310128170
   5.4340545907    4.6684559982    6.1639133325
   4.3998311184   19.1870191244   15.1727427768
   8.5278241118   12.3549442295   10.7185344060
  -1.3920977908   13.5125555753    8.6894510542
  15.1051264048   11.5890247627    8.6015563504
  -0.6747231307   16.8261039533    6.8672966806
  -1.6620141348   10.5509915676    8.1072559560
   5.5554570484    6.7574439429   15.4943974489
  13.5260412162   15.0255590388    4.5109921572
  -1.4163158441   17.8025097431    5.9469842890
   2.8479529163   13.6659010371    9.0360675823
  15.8319349888   10.2275283186    5.7705976327
   3.6864222252    6.2341801075    5.4080486606
  11.4486681667    2.6805131024   18.4354662906
   2.0281851580    5.5097700111   13.4020146415
   8.8507415302   20.4011188905   18.6360409009
  14.5209749333   13.9279774543    4.9434470387
   6.8324905636    7.3500971743   16.2258879304
   2.7146487986   14.6289293311    7.9328707269
   7.4429910438    7.4250010681    3.9863496408
  -0.5088294547   17.9038899706    3.7247609204
   6.8154722853    8.9430674343   15.9948848033
   9.5194200360    7.7249970549    9.4988741865
   0.3669713553    7.7339269645    3.4629688791
  12.7336546595    3.5384317406   18.7279533819
   2.0590853045    5.9802795149   10.7990923837
   1.2033880214    5.7016421805   12.1014957370
  10.7839912043    5.8824416620    3.0708046747
   9.3606088578    5.9598827185    3.7570710189
   8.5880168780   15.8863904717   17.0525381183
   8.5776281740    8.4704440073   10.5418029656
  11.9498182833    9.1632346650    3.9062537472
   8.4580714542   17.5518615297   11.7481677373
  -1.2797809183   13.1167270865    4.0662725724
  14.1740296582    6.9469969611    6.1085449384
   7.2007093217    8.6076771942   10.0081770273
  12.8637704815    9.6132100684    1.7486975583
  11.9302874489    6.2348696690    0.9867166803
   2.8575793821   14.2789490853    5.5105841656
  12.5279836493    8.6383205296    5.3108653650
  15.8994970486    7.0733351681    3.4003964891
   8.0322466286   18.3973132302   13.9482087013
   8.9839806278   13.7232288065   18.0723183907
  14.7328703710    8.2189514608   14.7774868222
  15.8398005718    8.2599462910   13.6099767473
  15.7837340970    6.1085248992    2.2330583303
  14.9945241883    3.3042021367   10.9782288890
   8.5767168848   12.6277968407   19.0631619447
  14.9318816625    4.8644131098   11.2092290932
   8.7503697489   19.2967142057   14.9595658162
  14.2006108237    5.5748841706   10.0379392186
  15.7229726848    9.5690167188   12.7101175494
  11.0760097611    1.1035602538    7.1410579231
   2.3953062805   10.2307069250   15.7542467998
  -1.7673362486   11.4233263261   19.2875347663
   0.7760226299   13.5399294378   15.0218172713
  15.5311756464   12.0772186635    0.7135078908
   4.5554936701   10.7830813774    7.3264462012
   4.8368182262   10.9442316364    4.2493565446
   9.1062155504   17.2044767802    6.0247579256
   7.9751603153   18.0987716940    5.9264983457
   1.3762135723   12.5240497762   15.9953718716
  -0.8287652855   20.0384740553   13.2158996727
   0.9285222718    1.5831934081   12.4675193649
   0.6922145697   18.2676470772   12.6866892445
   1.3212047640    2.0947978749   10.1009418257
   9.1107401617   11.0384740891    1.9820696092
   2.4658595573   10.2313847208    8.3477495734
   5.6574449429   10.2834861902    6.4340271338
  13.6065050013    1.3110172334   14.6348834864
  -0.7569959967    8.8331830882   18.4812045266
  16.5868623554    4.7743829806    0.6990213820
  -1.4737262803   13.1944572743   15.5553066693
  -0.3916455060   10.9295603462   19.4543043345
   9.6635473227   16.8381542907    3.7445050641
   8.2456702922    6.7873782461   13.6362470769
   6.9170047051    1.8909468893   17.1107449215
   8.1613904736    6.0882208993   18.9633241027
   9.0592317644    4.5542833961   12.6078216581
   7.8932317102    1.8089106789   19.0362145285
   8.6438854896    3.1756320312    0.8893039006
   5.8715349689    2.6670933304   18.9108955028
   6.2191500353    5.2522825199   19.3930693796
   8.0502195168    3.0160246685   13.8642337439
  12.0243428539    4.3355231497   12.9507037670
   9.7237613455    2.4385657129   12.4345733209
  12.2099275952    4.6342672762   15.1015655077
   4.3559502730    7.1188592050   15.9486255634
   5.6278626278    5.3932062412   15.6168256262
  10.6308401113    5.8519793369   13.9323064848
   5.6705295392    6.9377032079   14.1601064308
   2.8616100342    4.4203124842   13.4074585239
   7.8916743476   19.6798979951   17.9642720756
   2.7511204605    6.6811003370   13.5888806891
  10.7319599366    7.8521601575   10.0462768735
   1.2951004443    5.6208292898    9.7869571162
   6.7855610219    9.2355493920   14.6945200966
   7.9535068652    9.3807933896   16.5028590270
   1.1575330883    5.2446777302   14.4004580990
   9.4672323632    8.0925523413    8.1143166094
   9.5891270676   18.6959163965    0.4813008921
  13.5225695783    3.3258176194   17.7314605413
  10.0638346834   19.9522486520   18.1682775752
   3.0443831997    5.0413246261   10.8021301677
   9.1423661014    6.4418533767    9.4990443270
   6.3631832597    9.1771758072   10.9455307799
  14.1558040002    1.9019765173    0.2888588538
  12.3788571432    4.9120028783   18.7296912489
   5.7981347048    9.7982355764   16.6011979278
   2.6349983182    7.1180516938   10.5776604525
   6.5866527349    7.5211244938    9.5370346807
  15.0556266310    9.0671302081   15.7759599746
   7.2319713399    9.5323055611    8.9155716514
  13.7863392028    2.6199195342   11.0646738129
  13.4723945259    8.5409775293   14.2213954345
  14.5631091069    5.0791957569    8.9071171158
  15.4254611264    2.9459711126    9.7724624270
  14.6187060399    6.8836369705   10.0281480701
  14.5914342720    6.9233169015   15.1726097512
  -1.4649820638    9.4309691850   11.5067678923
  15.7627841556    2.8041297569   11.9858973798
  -1.3695823231   10.5720702474   13.3866527523
  12.8584780527    5.4371738666   10.2014815963
  14.4293454991    9.9863812111   12.4107259789
   0.9398495478    1.4123420937   18.4555433785
  12.1684177324   13.1426568847   16.5955279370
   1.8822438169    2.2439582724    4.7946266027
   5.3251892393    6.5155984726    2.1232517227
   5.5992866793   17.1038849181    8.5183262254
   9.8477263144   11.8717557094    7.7685826146
   5.5748715002    6.7438183875    0.4345599180
   5.0353366228    2.4778360553   15.4931187006
  16.2236225972    4.3512047931    5.3873876769
   0.1585244972    2.5389776199    1.7937258993
   1.0069772140   17.8148450153   18.1543063098
  -0.0790399469    1.4860057589    0.4344208709
   6.3168426396   14.3292327791    7.5747013645
  -0.3108669109    3.8035728287   18.4328570046
   0.7485887334    0.8372017064    1.8906877589
  12.2625033621   11.3555162031   12.3677821168
  -0.5582156483   19.5044150814   17.1497516356
   6.7211733354   13.7814830386    5.9277437037
  12.5601937741   15.0906241342   14.9809313003
   5.6708864007   10.6169861182    0.8326786962
  13.6639223856   12.8024373116   12.3021150215
   2.6752364446    5.3318264725   19.1557472153
   2.0425988265    6.9549111197   18.7706803500
  10.8699278550    9.8060752380   17.9298377279
  12.1625718612   10.7073844621    6.8076810652
   0.8349147643    2.1612932986    6.3000299138
  16.8493247550    3.2855924481    6.5384928973
  10.3424723960   13.9914540396    6.7137936452
   4.6073924950    3.3233785862   17.0424494068
   4.9057018403   19.7897970984    9.1270626456
  10.9936574686   15.3231450875   15.6617693373
  12.2266341081   10.8862386440   14.3083933337
   1.3661263369   16.0033576371   18.3192954038
   2.5970821196   17.1252138820   17.6725966528
  11.3433738495   16.3684731418   14.2541770022
   7.2387871899   17.5734684971    9.0361890089
   0.3001908738    3.2258329175   16.8785574975
   2.7240837361   16.6245151095    2.1156710968
   0.6490487479    8.2456376511    6.5705544914
  13.1562874207   11.6837620768   16.7795449729
   1.9861955874    3.6006657642    5.9589683662
   6.3252218566   16.2686247264    9.9202187430
   8.6728948151   11.4221586605    6.4735955530
   3.8538037407   10.6096944640    0.8151249091
   6.8671401260   12.6637916416    7.2664401766
   4.1426468649   11.0190639835   19.1756125705
   3.7852496543    6.5601532494   18.5387633567
  11.8703468702   13.1085739976   11.8390450306
   2.3662625453    1.5912273230   19.1697734738
   3.4057406071    3.4043810733   15.8080467098
   0.8663321723    4.8639698092   17.3445711746
   1.8542597154    1.8495519106   16.0607507896
  16.6954959944    1.8432681244    3.8759456897
  15.6480955286    2.7960608727    2.8451210917
  12.3285631306    9.8410973377   16.6790493230
   3.2124955086    7.6579391017    1.8998304674
   3.3567879296    7.9202079996    0.1333677318
   1.9764263020    7.4651893548    7.2832847639
   0.8584171689    4.9532446620    7.4139273541
   1.5992966926   17.3478908907    0.9852983491
  12.3314257533   11.4414805702    5.0881340882
   4.1193451054   19.7847996622   11.5359711398
  12.2696708246   12.4187113261    6.7615023177
  10.5906898100    9.2622257199   16.2468045970
   9.3173542368   13.9046050261    5.3761053529
  13.9036108888   11.7219028272   14.5556773161
   3.8325175371   18.2575480197    8.9865299544
   7.2554353059   14.8145339994    3.4503595050
  -0.8930803031    5.5403689232    7.3706705394
   0.4362552649    7.2290480027    8.0503849679
   5.5628941098   14.5051091851    1.4102524388
   6.4065808730    2.7724612913   11.0615574821
   0.8449344096   14.6665262571    0.7653411665
  12.9862463459   17.8005601139   17.4224493828
  13.9822001840   16.6268460406   16.7500394102
   4.4022206507   15.2489790009   18.8527001046
  14.0204503890   15.5392411921   12.3970114345
   8.4541143701   13.4464992133    3.4406307404
   4.6302356414    2.8784470395   10.3085080636
   2.8546228728   18.5837014118   11.1522450493
   5.4517208310   12.4995609397   16.9138651330
  15.0297616908   14.2076267494   12.1263106340
  14.0962679488    0.7990350810    2.5863729933
  13.8981494510    1.7910370733    4.1192796778
   4.6682567029   16.9061015117    4.3704466752
   6.0507637025    0.9652764588    7.4480624974
   4.4277057551   19.2755324710    1.7440563272
   0.5967637766   15.3842863783    2.3413078694
   6.2235164696    1.9618593013    3.6118235524
   2.9228445132    1.7310991582    2.3274402439
  -2.2058999410   17.7463476761   11.3415548549
   1.2528933750   12.5976428657    2.3534418793
   2.3764530100   12.8033786325    0.7573299865
   6.7576500024   13.1163963042    3.4817891997
  12.4074177846   14.8380064364   17.7204060778
   4.8763903606    2.2102367090   11.8774565754
  13.3724576326   15.7886676176   18.9061271252
   6.2177388397   14.1136683877   16.7333274708
  11.8854411193   14.0883029780    8.2837180609
  12.9914326638   16.6021549099   10.5252262780
   5.5667858128   12.7518164929    1.3531471424
   2.8769112760   15.6102557197   11.1484799039
   5.8014330238   18.3183048540    4.5579634474
   4.3199554156   15.0061091832   11.8187131663
  13.2139126494   15.1730943241    8.9845792900
   3.9013507025    3.0847073652    1.5950323086
  -2.0618949271   15.6662616373   12.8525051174
   6.2086367350   15.4494952380   18.6649812136
   3.0338914063   12.2395901695    2.1506131838
   7.7866641972    1.2562648057    7.0846687081
   6.7523262409    0.6715367084    5.6844222177
   4.4828569879   13.9594363366   16.7007177883
   7.3030397233    4.3171216508   17.1687627243
  11.7572304051   19.7488713738   11.7114243876
   3.1933408348   14.9041475128   15.0247196119
   4.5810045800   15.3432007728   14.1293033764
   9.8297758014   14.3353758868    9.3148828602
   4.0811832434   16.7299855119   11.6859102628
   5.7278664408   17.5807191881    3.0450655559
   8.2228773639    0.7204435909    2.7724347819
  -2.1818842867   17.1721471116    9.6559286922
  13.9434861802   18.8004213191    4.5556075808
   6.5245339505    2.5498038107    1.9586459604
  12.9273706622   17.7657105410    3.5000912369
  12.8593832903   17.6315460692    5.2163323157
   4.0086005586    2.7562368976    3.3019584720
  11.7734824108   15.9293154994    8.3358353637
  13.4644636777   17.9473196884    9.4663335208
   9.7969797245   14.8873034355   12.3494680132
  -0.0948677727   18.7816930328    9.5263342788
   1.7460408204   11.9934175902   10.5860178295
  11.9717326515   13.9352356519    2.2157302759
  11.2125865070   12.8855448154    3.6171915562
  11.2687023171   18.0370375486   11.0949730941
  12.8749189070   16.5796563350    0.3079616039
  11.1924095928   16.2065033681    0.3934104854
   2.0279364885   13.3031034802   11.8375821465
  11.7375900503   18.3426986144   12.7467272662
   0.4293990725   13.0350674987   11.2077876340
  12.9542070689   12.7748890573    3.1768329552
   4.5516025682    2.5976708046    5.9654505100
   9.5183214596   15.9982568004    9.9837841971
  -1.8056299085   13.8400105327    7.7130430486
   9.0304055204   11.6114373098   10.0593192200
   5.1976702143    3.1455124812    7.5967454249
  12.2046940277   15.1410119755    1.2509055105
   5.8473450417    4.9180307803    5.1554368118
   6.1203108184    5.1813550446    6.9597707264
  14.4336460223   11.9280584273    7.6556262486
   5.3697237323   19.5272167369   14.8803753037
   0.0920198978   19.2660434094    7.7120100132
   1.2994652714   18.2221507576    8.5480048914
   8.3305890583   14.7651893013   11.4786014123
   4.0755732422   16.6698151652   16.0917226108
   2.5171387753   17.2647132981   15.3409218544
  -0.4219249761   13.1445863531    8.4056543836
  -0.7913348969   11.1308970486    7.8526294319
  10.8281201259    2.4900743596   14.5122984884
  13.9687657918   15.4928261629    3.6694719957
   4.6640298114   18.9322196603   16.1766177212
   8.2381304435   13.1784609225   10.0083602936
  15.0004802146   10.8689569654    5.5656523264
   3.5126864795   19.8360149053   15.2023958347
  -0.8790363593   18.6867484240    6.0584519319
  -2.4829564762   17.9805913614    6.2308600874
   7.6768909106   12.0571616714   11.2525886378
   2.7102515112   12.6322872660    8.6700099228
  -1.1892104489   14.3419242779    9.2983113673
  13.3114983550   15.8338146543    5.2840624665
   3.8272674241   13.8332779898    9.5719994618
   0.3723849117   16.6305122549    6.4861295083
  10.6371749759    3.0004039683   18.9824292364
  14.4328152775   10.9956579830    9.2911248000
  -1.2585882751   15.9528639397    7.0159748288
  15.6602248371    9.3600754790    5.0778864739
   4.1566283685    6.2269865188    4.3453839718
   7.1400170806    8.4319495994    3.6853617016
   3.7785323259    7.2834265267    5.8763289174
  -1.4558515366    9.8509705816    8.9371157726
  14.1405697025   13.2125342366    5.6260697225
   0.4384895261    7.1606622317    4.3731794925
  -0.9834282464   10.5625834334    5.5531304739
  -0.8518635028   17.6685664779    2.7154170542
   0.5276692366   17.4121234930    3.8722405886
   1.7199809826   15.2947959872    8.0012277765
   0.6522613694    7.0837012712    2.4995220238
  15.4330878745   14.3358406764    5.4911335717
   3.5771446925   15.4049256745    7.8526187513
  11.3635217350    6.6210026751    3.6012283612
   6.5745818725    7.3793229907   17.4348345796
   2.6192853856    6.0543190354    5.3262240770
   1.0585543646    8.6000291471    3.4201144388
   6.8779457304    6.7266793352    3.3496142144
   8.0831002429   16.7955030144   17.3214071534
  11.1457029520    4.8632021978    3.1233865378
   7.2280424952    7.2872746962    5.0207213286
   0.7645884628    4.6955282530   12.0247107448
   8.0518150055   18.3420117924   11.0459389607
  11.1660406706    9.9924092068    4.0038361465
   8.5279900617   15.6170547356   16.0108673693
  13.6052935084    6.7532316560    7.0582125378
  11.3827385859    8.4374289178    3.3215743324
   9.2580578155   17.1549981011   11.1470400976
  -0.3866574690   19.0799059761    3.8387795288
  12.4567405087   10.5348684436    1.4545578337
  12.7305934805    6.7177057248    1.6236754357
   8.7636226819    5.2500766259    3.1621080977
  -1.0688767643   12.6328011612    5.0659126897
  12.3146445160    8.7058436006    1.3592812579
  12.3332486804    5.2361393695    0.6357909560
   9.6891635414   16.1223107411   17.1773303162
   9.4691336317    5.4987693870    4.8822148596
   7.6700885741   16.7375391293   11.9297174273
   1.9668244395   14.9453479854    5.2527454252
  -0.8851001526   14.1172973185    3.9738234700
   9.0131924617    9.4386378964   10.6215293710
  14.8247417268    7.8698221938    6.5246204050
  -0.6597278941   12.4348840433    3.4472573708
  14.7846166603    7.3250495630    3.4141704974
   3.7049302249   14.8818302512    5.4184565996
  14.7266755305    6.0789505879    5.7121162438
   7.2538557939   18.9417412016   13.4394814504
  16.2108104494    6.7072386475    4.3533617497
  11.6756413328    8.3370368035    6.0114466974
  13.7564759506    9.7255670616    1.1954725963
   2.7746331161   13.3577451206    4.8863338711
  13.2411135109    9.4213338113    5.7392775278
  11.8560841112    6.9334772167    0.2356006867
   9.0730681574   13.1752629571   17.1228816447
  -0.9138826992    8.1841798128   13.9705903692
   9.0338499010   11.6159743013   18.9166797052
   7.3562520637   17.6024346478   14.4051943514
   9.9647847523   14.2021496404   18.4039920714
  14.9161404630    5.4167621295    2.4691328813
   9.3296615632   18.8072409239   15.7184919109
  15.4608008261    6.5626385169    1.3444782344
   7.5431253390   12.3487176955   19.0202146839
   1.8871573429    9.6160265664   16.6709844310
   0.7643211799   14.6010232120   15.4440877624
  10.1545533915   17.7039420611    6.0105263040
  10.1706198019    1.7130005334    6.9633557259
   4.9509253433   10.8121374746    8.3489096654
   3.8560653538   11.3692536272    4.4762381980
  11.3962816886    1.3086779369    8.1561029330
  15.9986065604    9.7007581457    0.4544762376
  -2.0688339302   11.4353896645   18.2148391148
  14.5951759858    5.1819067330   12.2103008673
  -1.9303619554   13.1375736315    0.5891217247
  14.6773023571   11.7267597817    0.1141600130
   0.1322532320    0.9844082308   11.9500812622
   2.6610979278    1.5783680457   13.7759415523
  -0.0052381201   17.5045103096   13.1252994035
   0.6777097241    1.1815445921    9.9396746113
   7.8624677928   19.7512388236   15.4636382862
   4.2831286704   11.7547713262    6.9306136427
  -2.4016015119   13.5398391389   15.1652126231
   9.8177038741   17.9173373288    3.8496186304
   2.9407096528   10.4238714194    9.3420835614
   2.5984098463    9.4889153826   14.9648197209
   8.0313289172   18.7851248027    4.9911854631
  -0.2216965436    7.2774307230    0.0605060722
   1.4301544137   13.6908540756   14.1611319905
   9.1056064223   11.6611116004    2.8909234262
   1.9353157727   11.0622122805    7.9343727236
  11.3996598884   19.8009735035   14.3370095481
   5.1037708123   11.4820621048    3.2869317501
   2.3534442338   12.9660199751   16.3293672212
   1.5057876881   18.3412108824   13.3832119437
   2.2668074312    1.7612639473    9.7463630921
   8.8202271826   16.5935509730    6.8744135690
  -1.5938719482   12.1506561454   16.0180813185
  15.7447333547    4.1687661410    0.7607524441
   3.3604303365   10.6652932992   16.1655003977
  15.3873699010   11.9911879619    1.7281927981
  11.9646304763    1.1779309511    6.4477089938
   4.9835833226    9.8879747806    4.0747756072
   9.7932704163   10.2365052601    2.3083312163
  15.6416542907    6.7336482789   19.4109364594
   6.5544229220   10.3512921164    7.0016638003
  13.8575581087    2.2528949746   14.1364258031
  -0.1971623358    7.9856799302   18.1493810532
  10.5644875534   16.1961636239    3.6543441759
  -1.6004433373    8.9886926252   17.7380239228
  -1.1861878007   19.3087438202   13.8734088379
   0.5895099614    2.1944839337   13.2334419346
   0.9882831932   17.7840711897   11.7197765567
   0.8415110841    2.8292790988    9.4621178011
   0.5960494296    9.1324533862    0.8564163681
  -0.1615697356    4.3028474645    0.6409990472
   0.2475198188   11.7852857661   19.3551064496
   0.5609845381   12.2838790419   16.7541075693
  13.6725805685    1.6483250841   15.7428871959
   9.0227896719   16.4503964682    2.9180058119
   1.6555755590    9.4599432999    8.2245310048
   7.0135393941   17.4295217925    5.9098393386
   5.3828960815    9.2006080745    6.1902984883
   8.0386569480   10.5200281153    1.8500698481
  -1.1528898596   13.8029637164   16.4077266544
   4.8700444236    8.7823868648    1.4202230712
   8.3549584538   14.1165813484    7.2334768604
  12.2722960562   12.8236722518   13.8249430411
   3.8035210227    1.5298469572   16.6613876460
   1.7787575569    3.4341186944   18.3194590488
   0.5197754822    6.3880256860    6.0738865085
   4.0060267501    5.3091342507    0.9769306513
   0.2019805786    3.4519409644    4.7323951899
  10.5823814369   11.5785362751    5.7291090952
   5.4712244095   18.1018636825   10.2909176666
  16.3755216175    1.0365445469    1.8943109219
  11.0902561606   11.3306864880   16.4854509370
   3.1474395634   16.0634716149    0.1581187473
  12.0240136884   16.9291338930   16.0093961299
   5.5277727444    1.1139914238   10.2113207629
   2.4037592328   14.2619494176    2.2193014026
   7.4077491767   13.6964906092    1.5902649110
  11.8855453413   19.2579946377    4.6201542468
   5.4086885600   13.5665602652   18.5328959672
  -2.5520604277   15.6516169818   10.8252278100
   4.0652524389   18.7558314409    3.7404953476
   4.9468532924    1.1678712004    2.2800970846
  11.3245639028   16.0256694910   18.8524266339
   6.6504804192    2.6823480276    6.1152682783
  13.3716953779   18.5546704204   11.4087291497
  11.4668283550   14.9854013788   10.2601435961
   2.8547824258   15.5715906087   13.0428796906
   4.2398885023   17.9984206196   14.3896434719
   9.4497114619    3.8229234080   15.5474279543
   9.1676538734    3.7737965411   17.9535005809
  -0.5864856741   17.3033342470    8.2212661151
   9.4624642462   12.9469070971   11.6625636926
  12.2065017635   14.5010917577    4.2499760533
   1.7126661798   13.8821660385    9.8503971860
  15.5974593772   12.6350111522    9.5594061684
  15.7311096604    9.6975768048    7.0609949291
  11.2020286214    2.9748623635   17.0356997085
   4.1171062482    5.1981251349    6.2514037122
  -1.4154424819   17.2930481142    4.6168960858
   8.8330928100    7.2886775608    3.7459118610
   7.9720330143    6.8599741979   15.7080917316
  15.0860472564   13.1336634763    3.7536150790
   2.7160387767   13.7893595346    6.7603708606
   8.6042214547    7.7476192579   11.7384450292
  13.3237622182    7.3422849993    5.0056738938
  -1.0616700909    8.2497632038    3.2745377889
   0.1342439266    6.6455289934   12.3385943566
   8.1193940000   14.8534122021   17.9991366581
  10.6347648786    6.1926823255    1.6467053128
  13.0383982146    9.6771860019    3.1251841106
   8.9854039148   18.0082557795   13.0197530298
  16.2884345323    5.2496583133   11.2424066531
  15.5465596133    7.1446523464   12.7207800355
  -0.8665573778    5.4944187701    1.8540886875
   1.5902794503   11.3724098906   15.1955095199
  12.2030495862    1.1340623380   14.3123480515
   5.9359258976   11.1079515582    5.2364152818
   7.7628295657   18.9036782072    7.1302536758
   9.6007215542   11.8586130139    0.9162594779
   0.0330289451    9.9716402932   18.4096736392
   0.0139506745   19.3882297587   12.2505551245
   1.4447984051    2.5321773072   11.4794632471
  -1.0283155662   11.5016901165    0.2205651199
   9.0355514018   16.3184661644    4.9001824145
  -0.4725658030   13.1717754525   14.4611912501
   3.4874919368    9.7805123492    7.3867310512
