B2 C140 Ca1 F48 H298 O66 
1.0
1.7762236207745172e+01 1.5043230477949658e-16 -7.4458885229410350e-18 
-2.9496189844576555e+00 1.9214069227214772e+01 1.9060902305033425e-16 
-6.6587226842559244e-01 1.4490486850190070e+00 1.9474262505579297e+01 
B C Ca F H O 
2 140 1 48 298 66 
Cartesian
   9.9429711211    3.6138293085   16.8066866706
  -1.0886679717    6.3891412149   12.1630272577
  -0.0787159225    1.5283278939    1.4946928826
   7.0233964929   13.6678864172    7.0358553931
   4.7230978226    6.5777784312    1.0764072760
  12.4964327787   12.5504508255   12.4583165370
   4.2991544656    2.9380739842   16.2762692788
   1.8820363926    2.0167588489   18.2520942944
   1.3207883450    2.7778809967    5.4269169040
   2.5162993996    1.5112531329   16.9878396462
  -0.5907333660    4.1536664784    5.8174296967
   2.9147292955    6.4771257013   19.0474686759
   1.8136120233   17.2270076389   18.3199744011
   0.6613109889    3.9494528506   17.5734510538
  11.6979889317   15.8726836057   15.1713504968
   4.8419070384    9.9623125757    0.7128857455
   6.1149975125   17.1665361331    9.4107811921
  12.2718458403   12.0507775799   16.1751184452
   9.5686651154   12.0974533763    6.6887796587
   9.3491847989   13.5976060978    6.4765405068
  12.6183546151   11.8900253230   14.6709602910
   3.9428821822    7.8004102766    1.0935654717
  11.4004295827    9.9629822468   16.7791784605
  11.7655224161   11.6331968868    6.1619567497
  -0.0626787898    5.2053909355    6.6906520239
   0.9390391318    7.4461504699    7.0041496861
   4.3557707849   18.9748868016    9.6798496920
   2.1532173913   16.3726821426    1.2380876828
  15.8675420106    1.6808991685    3.0137080110
   3.5378034814   19.5018838639   10.7530427981
   1.2865664752   15.1567217475    1.5295217197
  12.9270442688   16.9448954524   16.9984948057
   5.3099937528    2.4401858930   10.8895398312
   7.3785920339   13.7862660775    3.0496223581
  14.5933277103    1.0060318878    3.4909051269
   5.9814942266   13.5744626516    1.1550484562
   5.3507509694   14.9409798615   19.0105101731
  14.8590519677   15.3115929369   12.1276608616
   2.0992065549   12.8760202760    1.8299445948
  12.5443687793   15.8637682515   18.0875034640
   5.4285002389   13.6411287613   17.0969731673
   5.0026181174   17.8168876338    3.9737244077
   7.2100596254    0.4556647062    2.6722296274
   6.2300553619    1.6654309992    2.6968082219
   3.9740506948    2.3134300397    2.2945094680
  -2.7064324275   17.0845970131   10.4685267209
   6.9141725166    1.2798150764    6.5897363361
  12.0664516066   15.1312831180    8.8778838665
  13.5741040835   17.6251218056   10.3766386878
   3.5463014375   15.9154134728   11.7824197313
  12.8699056708   18.3975687428    4.4065190733
   7.1556873121    2.6578188743   18.2620838578
   7.4867816353    5.0716275506   19.1462181163
   7.7797398293    4.0842508142   17.9835669545
   3.6381912235   15.7176821895   14.2607127947
  11.8711813940   18.7848800925   11.6982169293
  10.0260710821   14.9367677866   10.2023950390
   9.2930256385    3.4581139763   13.2880268814
  11.9707129190   15.7431257603    0.2834149163
  11.9845035095   13.4723752054    3.2660243869
   9.3387990979   14.4841263156   11.4662281756
   5.3968557369    3.2086514308    6.4918894256
   1.4036430822   12.9860961917   11.0074447174
   3.5473890430   16.9534694197   15.0572395113
   0.0805482578   18.5111230833    8.5021811132
  10.3094182156    3.6050954004   14.4299532802
  11.3776345518    4.6420583588   14.0524054569
   5.3837217293    4.6843509096    6.0953909663
   4.3555207098   19.2049613748   15.0857734876
   8.5138780173   12.4758498606   10.7552885707
  -1.4799818573   13.5777060375    8.7527397214
  14.9176169677   11.5213774995    8.7416837141
  -0.6754333744   16.9026917828    6.8410583657
  -1.6922447780   10.6260319658    8.1369183460
   5.6592429854    6.8096700545   15.5415495607
  13.4256716827   15.0382008603    4.5299015573
  -1.4943967859   17.8118615854    5.9222700896
   2.7794021359   13.6568804643    9.1683073115
  15.8002476727   10.2273754453    5.7451590264
   3.5565098233    6.2762349030    5.3692958851
  11.5690271610    2.8220229709   18.3397248401
   2.0093905487    5.6142375338   13.3750042570
   8.8474295800   20.4444593826   18.6180630419
  14.3778001898   13.9352367789    4.8855108770
   6.7955830106    7.5613951000   16.2027419093
   2.6815230523   14.6077512900    7.8975054979
   7.4405167871    7.3936229841    3.9583236333
  -0.6437043748   17.8517613379    3.7595462600
   6.7295835585    9.0906861261   15.9893684473
   9.4203938721    7.7260410945    9.5256154332
   0.2615885193    7.7150380906    3.3889819825
  12.7447824352    3.6745783407   18.6478248518
   2.1073111839    6.0232637367   10.7692447141
   1.2471371469    5.7760597987   12.0762945266
  10.6478973259    5.9661846657    3.0547405098
   9.3255562909    5.9268564721    3.7078326651
   8.5890357797   15.9096614649   16.9760909892
   8.5478392114    8.4217054216   10.5012644834
  11.9501495051    9.2634059937    3.8641469043
   8.4163098149   17.6819965404   11.8425721943
  -1.4136018716   13.0900010142    4.0963258790
  14.0286872946    7.0531767734    6.0803745692
   7.1043636681    8.7131469781    9.9114722517
  12.6805101773    9.7356453593    1.6615770596
  11.8409712767    6.3215668592    1.0715973488
   2.7479978380   14.3855797407    5.4928549807
  12.5605619251    8.6530669450    5.0821349268
  15.8258111377    7.1650953134    3.3318383148
   7.8633028304   18.5529062557   13.9181140260
   9.0484806715   13.8207142240   18.0404355443
  14.7634562567    8.2364235518   14.6072108642
  15.7732258998    8.3117381837   13.5050097585
  15.6338105907    6.1705858817    2.2267013912
  14.9400928278    3.3681275649   11.0215619086
   8.6260477750   12.7772568382   19.0486762862
  14.9606375137    4.9577103246   11.2150036586
   8.5645132590   19.3456652233   14.9814162684
  14.2575197209    5.6488430531   10.0597941520
  15.6817162469    9.6719900672   12.7125911708
  10.9731715920    1.1297489344    7.1590686299
   2.3572143742   10.3913686463   15.6563655328
  -1.8433050369   11.6246667501   19.2226345648
   0.8489276798   13.6862072505   14.8850867667
  15.4493132346   12.1077372743    0.7579941487
   4.4918120831   10.8444018525    7.3533424062
   4.8402257571   10.9321725250    4.1962041646
   9.1204433885   17.2141319007    6.0515454008
   7.9013807734   18.2084647181    5.9912908501
   1.3617130216   12.6638576287   15.8632224201
  -0.8909742104   20.0772668386   13.1189898671
   0.9079041698    1.6959974090   12.4387613484
   0.6612619462   18.2669424174   12.6179900975
   1.4839408629    2.1822494823   10.0963165751
   8.9763912435   11.0235542433    2.0548873614
   2.4457803963   10.2194924734    8.2367073834
   5.5823821341   10.3588083351    6.3810853924
  13.6046718497    1.5043475869   14.5994975275
  -0.8035424792    8.9670059668   18.4674310934
  16.6182930721    4.7490418238    0.6115244908
  -1.4188091357   13.2968581156   15.5421723210
  -0.3240602930   11.0690018637   19.3288404410
   9.6128423789   16.7559313365    3.7215225963
   8.2516194579    6.9464775546   13.6236194218
   7.0969857867    2.0416999603   17.0168105340
   8.1375298995    6.1988430892   18.8948314068
   9.1221056947    4.6229859272   12.5604779409
   8.0314622057    1.9403748531   18.9753741992
   8.6106129483    3.1657349390    0.8452840596
   5.9191611236    2.7413973295   18.7785398331
   6.2055270948    5.4370293681   19.3652274450
   8.0769777109    3.0518679675   13.7880012008
  12.0085117977    4.4634035397   12.9300695658
   9.6825588046    2.5626739843   12.4316304874
  12.2272502921    4.8310784798   14.9999723765
   4.3513616048    7.1781213343   15.8791911105
   5.7424786059    5.4838623944   15.5873610401
  10.6780566503    5.9929466676   13.8091212727
   5.7490781718    7.0386870191   14.0876266325
   2.8521221057    4.5723593797   13.3988987331
   7.8392311012   19.7458874613   17.9866951995
   2.7350048085    6.6945875462   13.5360101946
  10.6951643083    7.9598215983   10.0160564724
   1.2546550173    5.6661702968    9.6812701131
   6.7314659918    9.3932371839   14.6082177084
   8.0031581439    9.4482594911   16.4968149668
   1.2074286246    5.3931074081   14.5269969187
   9.5064667801    8.0710999819    8.2474449317
   9.3009621407   18.7426139046    0.4662917579
  13.6731335955    3.3597703594   17.6392229513
  10.0008132249   20.0445486240   18.1147568300
   3.1186891229    5.1201915796   10.7621190198
   9.0877996784    6.4065654868    9.5345535168
   6.3578481121    9.2382617954   10.9859542033
  13.9916075946    1.8138998331    0.3576550484
  12.4142460083    4.9487464170   18.6944136238
   5.8215414481    9.8082029144   16.5620331666
   2.6702405755    7.3068449626   10.5271802766
   6.4863392510    7.5934680173    9.4584251628
  14.9955844123    9.1494131546   15.6329459023
   7.2109004930    9.5642769513    8.9172260106
  13.7720825381    2.7628178171   11.1414578932
  13.4956318856    8.5570287480   14.1948637295
  14.4829686315    5.1111194606    8.7540085231
  15.4083789462    3.0157692590    9.7382600604
  14.6650822960    6.9191477029   10.0703022684
  14.6021460122    7.0386899686   15.2243265541
  -1.3923707733    9.4481167105   11.5501989838
  15.7957054236    2.8932048552   11.9523553430
  -1.3802037219   10.6083905720   13.4153297733
  12.9047284240    5.6009423876   10.1542506858
  14.3969315007   10.0074441176   12.3458971641
   0.7845091930    1.6974626352   18.4659047238
  11.9841597004   13.1243360943   16.1585339706
   1.8130630276    2.0975509000    4.7168373138
   5.2191023190    6.4778388244    2.0654313117
   5.7559439663   16.8063487097    8.4706102949
   9.9138340222   11.9545163478    7.7628659372
   5.4846082187    6.4910032209    0.3124750103
   5.0327629330    2.8658089042   15.4914805083
  16.2511728311    4.3763509415    5.1956154256
   0.0855668036    2.5608441571    1.8631489969
   0.9457150880   17.8201527761   18.0609460152
  -0.1096735706    1.4105512403    0.4043948930
   6.2653983827   14.2126565676    7.6843472511
  -0.1275275616    4.2217714225   18.4515329088
   0.6878428799    0.8284332796    2.0711834750
  12.3050783440   11.4624175649   12.1682264497
  -0.7792663011   19.6765147651   17.0298836498
   6.7590521094   13.7829484821    5.9626636777
  12.6846903795   15.4525743455   14.8406879098
   5.6994617786   10.5114856459    1.0835997739
  13.5837649507   12.6825960223   12.0807214265
   2.6185871714    5.4686351677   18.9823391851
   2.0852085409    7.1823624003   18.7357194767
  11.1436523010    9.8834773264   17.8702940783
  12.0829914500   10.8673552306    6.8082867356
   0.9379225192    2.0567828825    6.2182662392
  16.9347061219    3.4053070616    6.5848063665
  10.2752674832   14.1237758808    6.7544662316
   4.8245724897    3.4459125368   17.0904494546
   4.8142744018   19.8308895411    9.1223736431
  11.0997429396   15.0357355811   15.5781084443
  12.3302580136   10.8227614699   14.2589664443
   1.4429969060   16.1492172105   18.2572743896
   2.6736998311   17.4863299516   17.6381086239
  11.1830949616   16.2148823396   14.2350325949
   6.9611668240   17.7127370531    9.1046897503
   0.3325516833    3.1670687365   16.8346244147
   2.7656079854   16.6955588821    2.0391347259
   0.8165535451    8.3784878660    6.4603089783
  13.0093461338   11.8534158045   17.0170162775
   2.1140636996    3.4230297490    5.8989508373
   6.3695073987   16.2082097004   10.0088392968
   8.6242663573   11.4442506433    6.5788509911
   3.8741512483   10.5054657665    0.9636825714
   6.9035049209   12.6391610352    7.2602286603
   4.1911234781   11.2783803422   19.0890630185
   3.7547436404    6.5167872216   18.3766256818
  11.8419036666   13.1633240383   11.8332251166
   2.5462987758    2.0774544257   19.1257647198
   3.5391423089    3.4871307496   15.7656677574
   0.8905489619    4.8048570029   17.0997258008
   1.8910115396    1.8565339944   16.1430966336
  16.5172759730    1.6406222348    3.8999935550
  15.6098243842    2.7832734757    2.6973377156
  12.3947367630    9.6452824768   16.6982434751
   3.1854902866    7.6852231078    1.8547163736
   3.4408784263    7.9878392096    0.2123785232
   1.9728879592    7.2020308243    7.3696147347
   0.6440869229    4.6875732055    7.3682594499
   1.4476081521   17.1874102454    0.9589902131
  12.5461691125   11.7118311633    5.2957084868
   4.1479628205   19.8701394846   11.5292456158
  11.9429612281   12.6755318498    6.5961924926
  10.8879716299    9.3354280771   15.9909446320
   9.0075781328   13.9076395373    5.4251996069
  13.7826614291   11.7422317758   14.7294434526
   3.8758399671   18.3720662030    8.9243091571
   7.2001847418   14.8669873478    3.3013558707
  -0.9571521726    5.3457515675    7.3635354782
   0.1928878422    7.2758020725    7.8173079167
   5.2967721453   14.4422645575    1.2341116834
   6.1936273133    3.0859391392   10.8802022923
   0.8665471855   14.7018811261    0.5712723956
  12.9293483815   17.9319471863   17.4509227502
  13.8788636781   16.6883816371   16.6052725257
   4.4323182538   15.4110453734   18.6078781405
  13.8761723861   15.5629857456   12.6275302216
   8.4542912161   13.6176719199    3.0416568147
   4.6105287391    2.8381920967   10.1968561477
   2.9538058328   18.6710636985   11.2024942925
   5.4498332342   12.6193248684   16.7367355181
  15.0012253119   14.1967698054   12.1407450127
  14.1054409621    0.3574254343    2.7681382898
  13.9738722733    1.8963276977    3.7336604752
   4.5120919285   16.8568354874    4.3959944407
   6.0345291535    1.0769681105    7.2256943182
   4.1296703520   19.0288453344    1.7848946516
   0.5957866326   15.5445552590    2.2852905993
   6.2074661738    2.0292608001    3.6887860758
   3.0280168546    1.9023623300    2.1607789008
  -2.0952443614   17.5708117209   11.2486999763
   1.1591708699   12.3452395957    2.0350066134
   1.9256924194   12.7483577383    0.7325279046
   6.7245671257   13.1390172934    3.5804753179
  12.4133569298   14.8986279151   17.6622450587
   4.8661894835    2.2273436019   11.8416163502
  13.4281375122   15.7174735175   18.7767394493
   6.2560238324   14.1866085568   16.7364180928
  11.8533203322   14.1899081531    8.3763099263
  12.9535555457   16.7088848462   10.6294731781
   5.4107523853   12.7434544956    1.5062578830
   2.8904582111   15.6949152406   10.9230649666
   5.7523182969   18.1723773384    4.6644340567
   4.3946331510   15.2722637837   11.8534224405
  13.1086606403   15.0259177616    9.1869054754
   4.2598101947    2.9793449741    1.4093302771
  -2.1567849255   15.7848189955   12.7630442895
   6.1562065305   15.6028848618   18.6377582541
   2.8884427388   12.2432303934    2.3193810762
   7.8507181051    1.0975454453    7.1160753341
   6.8286932274    0.4886363603    5.8372168083
   4.4760904440   14.0697630590   16.7330148165
   7.4008690034    4.4582454074   16.9909185876
  11.5892043411   19.8974005526   11.5451021082
   3.1363572900   14.9425435687   14.8555599950
   4.5832949050   15.3185940421   13.9965756302
   9.6482245905   14.1887383818    9.4349022052
   3.9009029102   16.9754282474   11.8571524116
   5.2901188793   17.5064055941    2.9363867011
   8.1675019515    1.0086676023    2.7626385149
  -2.1901053429   17.3130226251    9.6107204934
  13.7913668211   18.9175876092    4.4213356994
   6.7660196012    2.3795115620    1.9675538064
  12.8016680267   18.0167064297    3.3610406410
  12.8607723789   17.6944481729    5.2365905621
   3.9026834447    2.9638326640    3.2495394964
  11.8200568533   15.9386598039    8.2602514686
  13.4010721940   18.0936772948    9.2973833928
   9.8838851913   14.8536108067   12.4049644982
  -0.0715875234   18.9386121222    9.4771464973
   1.7729263084   11.9598072519   10.8430305380
  11.8194382043   13.9353527660    2.2616038963
  10.9844345330   13.0982600161    3.3825267876
  11.2186951285   18.3287841392   11.0394075691
  12.8437417162   16.4506859308    0.1457843749
  10.9866935430   16.2582766202    0.3510631619
   2.0451798530   13.3600285217   11.8188733574
  11.8026920797   18.3773617330   12.7070300532
   0.3282900261   12.9392119320   11.2845398135
  12.7604212697   12.6874169810    3.2116676808
   4.6044124167    2.7598495673    5.8541900532
   9.4379960655   15.9176924859    9.8048325648
  -2.1061167941   13.8431455374    7.8546107897
   8.9697506818   11.5770778467   10.2700281667
   5.0530777256    3.0262828145    7.5770386859
  12.1983147424   15.2215594746    1.2429918959
   5.8164141656    4.7366027764    5.0713852237
   6.0477539236    5.2913816643    6.6992772142
  14.3613550336   12.0345812877    7.8603677889
   5.1139367708   19.8645998092   14.5613305728
  -0.0327338468   19.3456460643    7.8198359137
   1.1122291299   18.1827444451    8.4313955679
   8.3966976673   14.8963401822   11.3926877211
   3.9107548493   16.8102273218   16.1070876736
   2.4940828724   17.1600879634   15.2249211053
  -0.5469781021   13.0888463510    8.4568216593
  -0.8850879267   11.2539849345    7.7352458104
  10.6637148564    2.5334918616   14.6505734327
  13.7847480644   15.6271016271    3.7359767019
   4.5431905771   19.0332358663   16.2142187631
   8.0412278427   13.2202467412    9.9711207745
  15.1422968244   11.0522315789    5.4989041460
   3.3229752363   19.7717911944   14.8726488378
  -1.0765833052   18.8148603826    5.8670015489
  -2.5362286719   17.9387474876    6.3471336783
   7.7012937045   12.0978438469   11.3065992472
   2.8562470032   12.5646017547    8.8847636984
  -1.3255793691   14.5201914422    9.3007849635
  13.2556676240   15.8736793563    5.2633557498
   3.6950938132   13.7654660065    9.7157662329
   0.2645348394   16.6234418424    6.4736143300
  10.7706647638    3.0622951289   19.0041459122
  14.1432581113   11.0701771105    9.4081091925
  -1.1584375986   15.9088003010    6.7593529547
  15.6788989436    9.4476328557    4.9619867615
   4.1956163730    6.4288780907    4.4741091119
   7.1818948624    8.4461389274    3.7982614845
   3.6909165844    7.2481449820    5.9086987351
  -1.3041654743    9.9572911777    8.9132472864
  13.8324262018   13.2900700632    5.5780715476
   0.2577233684    7.1637015222    4.2838929852
  -0.9760202479   10.6954262277    5.7347760310
  -0.8874544018   17.6872005980    2.7457915272
   0.3997645023   17.5877588679    4.0596756916
   1.6026766595   15.1260866731    7.9990290412
   0.5143878041    6.9217958063    2.6042861237
  15.2965074264   14.4474874271    5.3656420812
   3.5646293140   15.2616152031    7.8024224457
  11.4410281134    6.5897503883    3.4124186153
   6.7711049547    7.2491271553   17.3231132471
   2.5308102065    6.0431054646    5.0915942061
   0.9438248199    8.5411732048    3.4454836530
   6.7111622461    6.7055465458    3.4515054971
   8.1010149643   16.8980964709   17.1411883197
  11.1061236371    4.9460520609    3.2887700566
   7.3105768273    7.1715262825    5.0593894835
   0.8642706428    4.7408952405   11.8633847522
   8.0742878027   18.6012908000   11.1933156497
  11.3790678344   10.0879558545    4.2465423343
   8.2142344351   15.6569999753   15.9479257342
  13.5188786637    6.6586809681    6.9351185117
  11.3268464419    8.4516860989    3.4684128345
   9.2299714189   17.0648523028   11.4169179387
  -0.6925482206   18.9336191952    3.9982473148
  11.8933106931   10.5002670412    1.4285286531
  12.6589754843    6.7186700752    1.7841414639
   8.6649835584    5.1733686177    3.2767721561
  -1.3758292740   12.7882784751    5.1662984325
  12.1145687524    8.7203162082    1.3202389463
  12.1924781064    5.2254796076    0.8513774602
   9.6853555911   16.0012101887   17.1410227260
   9.2738135536    5.8423656600    4.8050456190
   7.5559107174   16.9588597232   11.9154322211
   1.8384533951   14.9214136342    5.0897769640
  -0.9480534001   14.0848653236    4.2349943158
   8.9309841937    9.4144008437   10.5349453410
  14.8418139314    7.8426996329    6.2525177292
  -0.9060458286   12.5320946938    3.2928264272
  14.8018250435    7.6688469153    3.6196243321
   3.5996090666   14.9936837965    5.4246217618
  14.7085718392    6.2683487618    5.7370214322
   7.2048439632   19.2132401484   13.4296247122
  16.0101196461    6.5183816473    4.2316715688
  11.7248513065    8.4637042693    5.7790434042
  13.6625764222    9.6801343625    1.1967703272
   3.0940649550   13.6450595393    4.7160539960
  13.2089802649    9.3698675831    5.5934597336
  11.7501447333    6.7964530927    0.1437490964
   9.1562590175   13.3855780866   16.9802613770
  -0.9907502591    8.3949575464   13.9604689022
   9.3096298368   11.9570198887   18.8398839953
   7.3862316151   17.6515005917   14.3211692472
  10.0601266855   14.1402520136   18.4487760659
  15.0475693184    5.3671281646    2.7662076543
   9.2882464659   18.8106603976   15.6052671797
  15.1025941651    6.6126396538    1.3366764184
   7.5177896840   12.6670898318   18.9366950955
   1.7467650848    9.8833011680   16.4719416334
   0.8176828528   14.5548927536   15.5654197912
  10.0450104912   17.9457699163    6.1476352972
  10.1661193780    1.7793398689    6.8014788923
   4.9586340794   11.0800397325    8.3295226203
   3.8517410587   11.1594734151    4.6797848314
  11.3998418551    1.4077414127    8.1046574591
  15.9350665271    9.4436820203    0.3741540715
  -2.1536964668   11.3424900042   18.1779982009
  14.3263131405    5.1683802968   12.0635544546
  15.5906515293   13.2263113188    0.5446052036
  14.6163474885   11.9018166261    0.0780106637
   0.1161715998    1.0583607702   11.9736560056
   2.5993637282    1.6061976548   13.7174689668
   0.0803130620   17.4714397972   13.1994266487
   0.7501957248    1.3500173041    9.8835704809
   7.7916192379   19.8774302418   15.6802428826
   4.0306875083   11.8328429030    7.1140467740
  -2.3416380171   13.7060354299   15.1369071687
   9.6918840155   17.8243868255    3.6193585410
   2.8928036145   10.3241760483    9.2919984019
   2.4902126811    9.7080563791   14.8800124577
   7.9459252184   18.8178264126    5.0270316256
  -0.3138348813    7.2255512553    0.0303983627
   1.5709578563   13.7251666071   14.0246927782
   8.9915804915   11.7768668592    2.8813062116
   1.9617438530   11.1728402519    7.9949452433
  11.2064879510   19.8261420725   14.3614499128
   4.9961603844   11.6568698266    3.3844463863
   2.2761924600   12.9073244674   16.3865366623
   1.4993700814   18.5932418104   13.2449646762
   2.4858193718    1.9813114331    9.8551961455
   9.0483957089   16.6202234493    6.9293027667
  -1.5905934240   12.2564548197   15.8750050370
  15.9119512177    3.9974974426    0.8196926458
   3.3216424514   10.7000726057   16.0750549081
  15.2442300900   11.9203969359    1.7538105828
  11.8429097452    1.5244109991    6.5186732516
   4.6663184983    9.8487653084    3.7562255375
   9.5927760119   10.1762256704    2.2395167091
  15.6546257779    6.8059330513   19.3086503259
   6.4577089038   10.2637701304    6.9710613558
  13.8710017819    2.3844409913   13.9973970763
  -0.3005331114    8.0592404927   18.0672879467
  10.7066158780   16.4550749550    3.6710397424
  15.9535924796    9.0212820275   18.0116410256
  -1.2385972580   19.3303500961   13.7934850954
   0.3322238513    2.1927876162   13.2120207340
   1.1398253726   17.8730061623   11.7463051043
   1.2979420512    3.1647912946    9.6558531499
   0.4183945922    9.2193722303    0.8799135122
  -0.3571592452    4.0550145929    0.2772630256
   0.3131737696   11.9049190303   19.2029445746
   0.7799032090   12.5760824522   16.7855516996
  13.6876184129    1.7075478392   15.7327956382
   8.9780672261   16.4720980350    2.8354536150
   1.7456293557    9.4181849434    8.4751579797
   7.0207043567   17.4675125098    5.9392644182
   5.3617756727    9.2478729752    5.9741169501
   7.9327808898   10.7317989975    1.8235075477
  -0.9463703119   13.8564826284   16.3713165188
   4.8659555320    8.7931826614    1.4946562079
   8.3509919091   14.2390917357    7.3108945392
  12.2366841314   12.9392047326   13.7815390749
   3.8313527807    1.5320859962   16.5692831902
   1.7995300976    3.4620393271   18.2438629163
   0.4586033787    6.3309033499    6.0576264424
   3.9688285220    5.3614150192    1.0064653964
   0.3091974468    3.5422229038    4.8502961646
  10.4405521402   11.4950132598    5.7534789397
   5.4313170003   18.1469919832   10.2072287429
  16.3797103833    1.1060200201    1.9363006643
  11.0764214208   11.3424862400   16.4137634916
   3.0038111271   16.0838482429    0.1569276339
  11.9602144016   17.0159200837   15.9540151493
   5.5780034385    1.2161727671   10.1789054307
   2.2736808462   14.2458430558    2.1388646961
   7.2878428633   13.7411654630    1.6428613535
  11.8005692165   19.3375498687    4.6431481068
   5.5186813579   13.6128716374   18.5130461012
  15.0808217781   15.7270247261   10.7740641924
   3.9219467074   18.8420438867    3.7690282595
   4.8696349537    1.2166212128    2.2626427202
  11.3652050257   16.1653701384   18.7809560811
   6.6561271656    2.6099557325    6.1663566888
  13.2389836824   18.6084343057   11.3775147379
  11.4713162348   15.0625240052   10.1376846360
   2.7679000478   15.6501113387   13.1081406751
   4.2101467540   17.9947076192   14.4429775707
   9.4291192680    4.0330803604   15.5202219459
   9.2044958566    3.9331164888   17.8766517649
  -0.7822927442   17.2646118231    8.2100538258
   9.3712362972   13.1473970420   11.5766741036
  12.1323690833   14.5126514153    4.2769488895
   1.6266453653   13.9657474645    9.9259050475
  15.5139226740   12.6248935150    9.4500009176
  15.6576627823    9.6794116610    7.0714918271
  11.2088268872    3.1131372640   16.9707737693
   4.0414392235    5.1844966817    6.1497687014
  -1.5317270400   17.1845894344    4.6624837728
   8.8278475591    7.2495809921    3.6401523129
   7.9137447308    6.9582571109   15.6587409956
  14.9333406746   13.1740869662    3.8022258352
   2.7107250177   13.7458444739    6.8140854100
   8.6235757486    7.8135446268   11.6828386108
  13.2410130606    7.4646864750    4.9920234539
  -1.0213708406    8.2273302041    3.1734099999
   0.1946698891    6.6981884165   12.4413006581
   8.0693692518   14.9842064087   17.9111228647
  10.5693615865    6.2254435980    1.6262217787
  13.0252734466    9.7040386089    3.0393162585
   8.9194272520   18.0702605639   13.0547879548
  16.3519106243    5.3829120384   11.2799997633
  15.5338323124    7.1854478690   12.5795701377
  16.8368073620    5.4617463055    1.8152826707
   1.5987045499   11.3813140039   15.0948188798
  12.2685291126    1.2153844258   14.3084927148
   5.8020421395   11.1528777066    5.2162166136
   7.7029672733   19.0289665907    7.1338624196
   9.5395795278   11.7399824239    0.9181672518
   0.0611320927   10.1078037664   18.3939910253
  -0.0205981445   19.5268499205   12.1917464883
   1.4099918043    2.5807839179   11.4939638200
  -1.1847658197   11.4761182096    0.2334129984
   9.0207743943   16.2931276545    4.9841898705
  -0.4489552769   13.2357745213   14.4850767423
   3.4626108697    9.8604835682    7.3775472124
