B2 C140 Ca1 F48 H298 O66 
1.0
1.7854608748662248e+01 -4.8573986694433240e-16 6.5101634728360963e-17 
-3.0168144770887975e+00 1.9282442553743120e+01 -6.2307011342466594e-17 
-4.6586455170553359e-01 1.5941107837725470e+00 1.9416502991761320e+01 
B C Ca F H O 
2 140 1 48 298 66 
Cartesian
  10.1373945937    3.8725557980   16.7623045369
  -0.9818893861    6.5660014859   12.0252238295
   0.0051560494    1.5969150713    1.5181555084
   7.1999574582   13.7999502741    7.1566133884
   4.7655398550    6.5008965020    1.0201490190
  12.6582708634   12.7599595736   12.3866104806
   4.4069304548    3.0429757281   16.2920931393
   2.2267081373    2.1465324416   18.2938264727
   1.4531713715    2.7019945581    5.5058717655
   2.5880570325    1.4732567727   16.8447081123
  -0.5750850142    4.0442827079    5.7844458769
   3.0229259261    6.6469104224   19.0576191316
   2.0244734444   17.5032923389   18.2608262491
   0.7173574466    4.0508105022   17.3646595892
  11.9421854712   16.0036522371   15.0803109545
   5.0117008900   10.0709883178    0.7590025485
   6.1666668926   17.2465706755    9.3952753541
  12.2741864424   12.2053253629   16.0004967302
   9.6394300359   12.1580822700    6.7867940881
   9.4262319108   13.7090623206    6.5186684439
  12.8996046067   11.9622980586   14.6112437630
   3.9656428050    7.8839855080    1.0627621490
  11.7450537727    9.9362197894   16.7535647518
  11.8384323919   11.8539263834    6.2284124120
  -0.0881212601    5.1525228848    6.7881022633
   0.8466613746    7.4141277560    6.9638042695
   4.5601035359   19.1274105643    9.5920983329
   2.0867994024   16.4450293116    1.1389020958
  15.9613831818    1.6896003169    2.9987488240
   3.6225184253   19.7382592529   10.8364729971
   1.3005478677   15.2288416649    1.5614500448
  13.0685612747   17.0725013223   16.8856720878
   5.3337091361    2.5925940482   10.7551465379
   7.5088395750   13.9666124881    3.0660922167
  14.6617844221    0.8994167170    3.3796853032
   5.8558567587   13.6646298499    1.0624493669
   5.4688896900   15.0584129614   19.0070394048
  14.9298992090   15.4498703484   12.0602782214
   1.9800570299   12.8377653320    1.8087090333
  12.8235246119   16.0611930600   17.9805949225
   5.6804262154   13.7021466730   17.0466195259
   4.9021522993   17.9526788788    3.9222028949
   7.1714748157    0.4866708331    2.7025724926
   6.2577476317    1.6854309233    2.6612776327
   4.1733600305    2.4337936852    2.1320151948
  -2.7380696697   17.2769675902   10.4640611790
   6.9703692149    1.2021095438    6.6500018440
  12.2321387062   15.2154304284    8.8452666949
  13.6986171802   17.7986504876   10.3108433509
   3.5494656989   16.1586247797   11.8891480999
  12.9546201760   18.6180114131    4.3188420931
   7.4739338108    2.8774720646   18.1137387093
   7.7145525185    5.2895886469   19.0744398515
   7.9279699388    4.3397154650   17.9255636431
   3.7516496723   15.7283347618   14.2140585265
  11.9910015331   19.0058762536   11.6215962990
  10.1843542137   15.0262498054   10.0238657984
   9.4226813841    3.5462209968   13.2212305398
  12.0983088014   15.7977260023    0.1715479878
  11.9485310944   13.5991262084    3.2571434268
   9.6001024455   14.8022310050   11.4012651240
   5.4683311489    3.1857470987    6.4235646427
   1.4968251244   13.0710592566   11.1259606234
   3.6276733472   17.0232846554   15.0117974072
   0.0648813289   18.5351881068    8.4900414383
  10.4184962702    3.8918926364   14.4083787858
  11.4742042093    4.9577361825   14.0136220193
   5.4460137386    4.7103491680    6.0085254605
   4.3752486203   19.3389966617   15.0624831388
   8.5199687126   12.5606192547   10.6903356418
  -1.5329674094   13.6204877415    8.7012045359
  15.0664003712   11.5601432832    8.7425689868
  -0.6655097994   17.0641133197    6.8561032690
  -1.7215443349   10.6962062515    8.1499232119
   5.7991244110    6.9447207523   15.3806478309
  13.4621437980   15.0619108064    4.4062294263
  -1.4790161215   17.9030615524    5.8899227756
   2.8033411614   13.8108257666    9.2867282213
  16.0086667312   10.4250653404    5.8331917545
   3.6757746261    6.3214037296    5.3226130985
  11.7576791254    2.8662401090   18.2429043702
   2.1063221020    5.6817018149   13.3918098600
   8.8995664489   20.6850662916   18.4615260923
  14.4339778019   14.0782105539    4.8937444525
   6.8943009334    7.6290498670   16.1641299079
   2.7484393167   14.5531102146    7.9790778586
   7.4986468369    7.3944861843    4.0698643127
  -0.6757971159   17.9109142686    3.8269266010
   6.9917392371    9.1623953980   15.9215457832
   9.5924134761    7.7170040130    9.5588649743
   0.3731593125    7.6651919794    3.2908142533
  13.0990665214    3.6623040941   18.5581286025
   2.1704838497    6.1731704750   10.7014726536
   1.2686364004    5.8054842313   12.0212522295
  10.7395133547    5.9865582102    3.0514867352
   9.3738058665    6.0370938420    3.7506780675
   8.7579606359   16.0078057247   16.8101527566
   8.6106981284    8.5320735055   10.5019729126
  12.1623468270    9.3585367191    3.8019461915
   8.5095783860   17.8825276661   11.8641844959
  -1.4873674600   13.2335311612    4.1141801929
  14.0978480378    7.1799681985    6.0052034865
   7.1562591995    8.7074190571    9.9834430577
  12.5462429544    9.8478555946    1.5692132283
  11.9491376288    6.3132973105    1.1106248194
   2.8635296077   14.5616980906    5.5078058135
  12.6760494260    8.7903512656    5.1396924416
  15.8847326784    7.2611844388    3.2581728410
   7.9766541509   18.8205806916   13.9014716890
   9.2772582140   14.0726902441   17.9954559253
  14.9012728543    8.3056811489   14.5577900658
  15.9302274876    8.3398232580   13.4161618671
  15.6066412830    6.1844655766    2.1908194936
  15.2141395203    3.4482349259   10.9858033929
   8.8443575209   12.9989977259   18.9539344532
  15.1666000302    4.9977590072   11.0579249479
   8.6842177831   19.5744493283   14.9766603116
  14.4766107923    5.7585773751    9.8566631717
  15.8751986191    9.6504095641   12.6466078495
  11.1334811612    1.2720532569    7.1268683001
   2.4172157704   10.5204374422   15.5878427353
  -1.7486351464   11.6902595900   19.1861715294
   1.0434721999   13.7884651232   14.8860271936
  15.3912255221   12.1667012071    0.6912445150
   4.5435615504   11.0038480341    7.3398033319
   4.7471918091   11.0464274562    4.1608225805
   9.2429332707   17.4865511717    6.0819410292
   7.9662226647   18.3414122407    6.0337051284
   1.6373159969   12.6960780149   15.7960841004
  -0.8644896663   20.2459160816   13.1159826840
   0.9650597263    1.6179401221   12.4247830504
   0.8575000230   18.5549615234   12.5440212434
   1.7894971195    2.3654833677   10.1845711270
   8.9181968634   11.1416593294    1.9758448924
   2.4918184096   10.2551137207    8.3093699866
   5.6212467788   10.5002778351    6.3370111995
  13.7927381065    1.5668399473   14.6275949806
  -0.6804871446    9.0623451064   18.5183860794
  16.6069502151    4.6682041997    0.5295221498
  -1.2377817511   13.4485166345   15.5318999800
  -0.2924390923   11.3454536533   19.2104574715
   9.7069754913   16.8196977851    3.8006145875
   8.4438903139    7.1502345747   13.5006221347
   7.4147962530    2.2083601204   16.9328334272
   8.4184076393    6.4543255926   18.7829677906
   9.2212530166    4.7466860681   12.5117835348
   8.2725284488    2.0654312238   18.9230810410
   8.6832846912    3.1435967572    0.8235353063
   6.2405682342    2.7882459082   18.6684509719
   6.3080789436    5.6423068816   19.3066685700
   8.2778532904    3.1256457222   13.6930127221
  12.1836680975    4.5495271890   12.7851353498
   9.8871049162    2.6116022881   12.2982488590
  12.5100869532    5.1010033483   14.9520403215
   4.5916533764    7.2466660924   15.7680317008
   6.0223624970    5.5563631731   15.5893644872
  10.9600500932    6.0993783359   13.7600092496
   5.9534475963    7.0979498727   14.0765380455
   2.9703728527    4.6518358101   13.3315417614
   7.9571717459   19.9269413323   17.9386110485
   2.8931800265    6.8986735076   13.5884750663
  10.8531285405    8.0468539640   10.0191758047
   1.4177508234    5.8447101149    9.6454345873
   6.8592675214    9.6204788011   14.6493281990
   8.1997508799    9.6296005323   16.4278581042
   1.3184905448    5.6068800773   14.5458752597
   9.6358128989    8.1757767797    8.2699947779
   9.1830617124   18.9292608976    0.4095860991
  14.0980396699    3.5538509830   17.6452605257
  10.1476304272   20.2451464032   18.0490178391
   3.2710724169    5.3539376242   10.7023012532
   9.2691304562    6.3597972455    9.5555770235
   6.4490480568    9.3350912431   10.9480108475
  13.9476583066    1.8274269134    0.4245389557
  12.7242635528    4.9778385053   18.6762849515
   5.9950983213    9.8607524803   16.6417332145
   2.6440667287    7.4249805302   10.5110104441
   6.4810009701    7.6972651521    9.4446227981
  15.1440473034    9.3114168757   15.3992237682
   7.2518776212    9.7049194077    8.9636711678
  13.9000619147    3.0034320604   11.2051630224
  13.5885596447    8.5596877983   14.0817482301
  14.5838911815    5.2211237750    8.6532845728
  15.5632759591    3.0848548453    9.7587910223
  14.8913619644    7.0902330737    9.9985019558
  14.9280040048    7.1419820470   15.2476620190
  -1.1923726169    9.5498869038   11.5311965209
  16.0210062475    2.9608447644   11.8885260947
  -1.4516165978   10.6527542981   13.4668844973
  13.1765538980    5.8290531893   10.1255071216
  14.6962315791   10.1514039598   12.2499078775
  -1.7565945325   20.7428057415   18.4110939084
  11.8729533204   13.2765940230   16.1382339369
   1.7395461138    2.2976533782    4.5480490774
   5.3657294289    6.4131480612    1.9083866702
   5.3906065911   17.0053918088    8.7146757206
  10.0819028433   11.9224624711    7.7764866726
   5.5051284396    6.6923774416    0.2727568975
   5.2319314439    3.0267577634   15.6701896399
  16.4544117423    4.4646006169    5.1271075249
   0.0318746774    2.7345042751    1.7291245697
   1.0864060554   18.0740924478   18.0494090411
   0.2829615928    1.5267627290    0.4479316762
   6.4754026795   14.2357516241    7.8497444742
  -0.1329727027    4.5166542141   18.0816431473
   0.8579513609    1.1013230721    2.0453308026
  12.3195622014   11.7085327301   12.2677097008
  -0.4688442467   19.6531435503   16.8027841775
   6.9034128084   14.0551706657    6.1092561899
  12.9036822957   15.7864035664   14.5669100036
   5.9074334232   10.6987666679    1.0590539054
  13.7775762502   12.9102386787   12.1992537393
   2.6046938080    5.6546203634   19.0996552687
   2.3495784487    7.4512875822   18.6323652303
  11.3180555616    9.6683377138   17.7746350985
  12.1637516535   11.2601275173    7.1082544857
   1.0045967073    1.9730927680    6.2230430651
  16.8320996506    3.1483499097    6.2874300464
  10.2588224737   14.3350889669    6.5209101472
   4.5959472704    3.5077833900   17.2512390346
   5.0828762012   20.0098687960    9.1167995336
  11.6952900621   15.2576265740   15.7405973983
  12.3912219565   10.8668967537   14.2981675311
   1.9378143152   16.3672572898   18.1285132843
   2.7950958144   17.7542042801   17.4349087494
  11.0918218324   16.2038310770   14.3495686059
   7.1689003277   17.4591095911    8.9922522854
   0.1580803652    3.3222065428   16.7933523917
   2.7286698376   16.7237693641    1.9696273913
   1.1921981831    8.1822818828    6.2154252907
  13.2717787463   12.1640626934   16.5947625143
   2.3489570015    3.2232422028    5.9015667964
   6.2528086085   16.4362188481   10.1743274670
   8.6791802224   11.6535143132    6.6932227206
   4.1380626536   10.6634019586    0.9478537870
   7.2517824036   12.6664778400    7.2796704642
   4.6542178555   11.3474460046   19.1599752913
   3.8818830118    6.6038542332   18.3778121461
  12.1059259928   13.4205235757   11.7005245330
   2.8296053635    1.7024959798   19.0480865375
   3.5352751989    3.6942792252   15.9977866632
   1.0986925798    4.7997575111   16.6619336789
   1.8826901169    2.0461942545   16.1974533389
  16.7351885144    1.6516855360    3.8078826308
  15.7948549717    2.7719723676    2.8036075253
  12.8890593258    9.9637271418   16.6900821549
   3.1019253384    7.9176141853    1.6908182457
   3.6034961459    8.2001846278    0.0385125529
   1.7003182587    7.1787158085    7.5258738308
   0.8171978047    4.7193379317    7.3720045399
   1.4590967274   17.3898916366    0.9354242480
  12.4335021710   11.6413121674    5.2968713114
   7.2579437762    1.0524585670   11.4395133529
  11.8133636527   12.8717113907    6.5709724342
  11.2138146021    9.1721727124   16.1104358503
   8.9750365440   13.6812616590    5.4974309257
  14.0548307936   11.9168155870   14.5074936287
   3.8915288459   18.6108494388    8.8948746156
   7.1471570792   14.9207019110    3.5342224506
  -0.8759659108    5.5777199215    7.4525835684
   0.1297300623    7.9889307330    7.6427654208
   5.3904401732   14.5642473037    1.4153163169
   6.2240618972    3.3550623012   10.9314009735
   0.7714906817   14.8379866361    0.6406853208
  13.2296414357   17.9795894671   17.3407567945
  14.0354663998   16.8477511054   16.4128115623
   4.5419088629   15.3336437613   18.4362278948
  13.9338861984   15.6283411181   12.3151756685
   8.5827823067   13.8371928381    3.3323713900
   4.5419179695    3.2301585458   10.2823437690
   3.1470897880   18.9589955891   11.3687593949
   5.6555122825   12.6773259567   16.7863595778
  15.2183480693   14.4103408596   12.2427133075
  11.4680222504   19.4294174093    2.5680491844
  13.6848297287    1.4065308130    3.5406428673
   4.4420671862   17.1757841283    4.5467078175
   6.2557730698    0.8610010061    7.4697144016
   4.0676236792   19.2477853090    1.8013241597
   0.4328283822   15.3474392102    2.2567444594
   6.3224306285    2.1389084364    3.5971132355
   3.1562870128    2.1009821789    1.9957199369
  -2.2237596312   17.8725246908   11.2458526880
   1.1219886912   12.5581059080    2.4487714903
   2.2431378674   12.6483835727    0.7444280335
   7.0621314802   13.1556032222    3.5895800530
  12.6345625257   15.0533045245   17.4951187894
   4.9994849339    2.4458244174   11.7659501269
  13.6083790429   15.9828347043   18.7330249412
   6.4084146137   14.2723267200   16.5477157403
  12.0251726392   14.3455323383    8.1943704238
  13.0101260392   17.0142847207   10.3081171926
   5.3877959969   12.8536553568    1.6058563723
   2.9721041278   15.9474272931   11.0639298595
   5.9123140514   18.2535872097    4.4097807015
   4.5244427454   15.6493820366   11.8074356926
  13.3654589536   15.2571229987    8.9782430235
   4.5339193567    3.1230570935    1.3130519748
  -2.2309708743   16.0988956111   12.6971268854
   6.3275528533   15.6643715033   18.6519158601
   2.9412127658   12.5203990093    2.2524520061
   7.9564175691    1.2728158731    7.1342320305
   7.0119060455    0.6138150152    5.7614759639
   4.7624981165   14.2118495289   16.7986486635
   7.5272912798    4.7608811664   16.9823512404
  11.7295972030   20.0659861958   11.6825998814
   3.5795806203   14.8274825680   14.7997173962
   4.7105264278   15.7007486402   13.8190006923
   9.9996572764   14.2031851722    9.4302692811
   3.8140927484   17.2322091429   11.8547877691
   5.2908701118   17.5995152602    2.9374022303
   8.2581365333    0.7017142459    2.6649522813
  -2.1915411747   17.2159373388    9.5448245291
  13.9271897032   19.0074584055    4.2219822953
   6.5589695001    2.4659346183    1.8276288177
  12.6576800251   18.0148546960    3.4326588857
  12.9713019158   17.9052462347    5.0849638626
   4.2383855979    3.0756269658    3.0531877389
  12.0419700304   16.0549261853    8.2982779684
  13.5709196489   18.2503571513    9.2364813588
  10.1126842215   15.2093109037   12.2447275210
  -0.1822368256   18.7130897481    9.5274955384
   1.8859581142   12.1366852908   10.7053868710
  12.2502338974   13.9369521014    2.2779485732
  10.8893129444   13.1626822362    3.3999534351
  11.3245393422   18.4294244845   10.9579644774
  12.2020871906   18.2872247617   19.2251024777
  11.0610567725   16.1806871403    0.1317195720
   1.8184903475   13.4452205982   12.0973170883
  11.6355791407   18.6504103407   12.5651301864
   0.3830202070   12.9811112578   11.2961511927
  12.6324340723   12.7395446732    3.5175658191
   4.7177635184    2.7274620989    5.7958164598
   9.7763898212   16.0077222616    9.4714768193
  -2.0804603844   14.0096313940    7.8315795942
   9.1937465101   11.7922418524   10.2948389528
   5.1960315124    3.0144124090    7.4897796658
  12.2589675905   15.6756485067    1.2738753263
   5.7637507629    4.7387083462    4.9232731001
   6.0610843677    5.4998869590    6.5727662295
  14.3045293690   11.9170129446    7.9316929567
   5.2442727093   19.9244844594   14.5455832642
  -0.2536971282   19.3943091110    7.8182434932
   1.1406949198   18.3118042999    8.2991786487
   8.5912160285   15.2253291745   11.5115476477
   3.9252353211   16.8736596982   16.0249866869
   2.5584783463   17.3744878383   14.9842980882
  -0.5395033113   13.4229465417    8.3496745920
  -1.0945373489   11.3859375458    7.6558634487
  11.1373770170    3.0348417116   14.5165865641
  13.7813511757   15.6784615593    3.6236982444
   4.6904891058   19.2590605674   16.1313870416
   8.0980688150   13.0613766037    9.7746252164
  15.2265399454   11.1433403842    5.6470707213
   3.3293906515   19.8382713656   15.0348285839
  -1.1841611470   18.9400298045    5.7898914257
  -2.5099211809   17.9874667562    6.3454608209
   7.6988633930   12.1305507420   11.2778543546
   2.8899355755   12.7499637954    9.0935864221
  -1.5165295993   14.3273002625    9.4814072339
  13.3493613415   15.5528033834    5.4427482212
   3.6183981544   14.1687186480    9.9259721946
   0.4169513099   17.2446590915    6.6597671850
  11.1053990791    3.2077151858   18.9748706289
  14.5282613861   10.9263471449    9.4981089145
  -1.0870699119   16.0957892788    6.7958572575
  15.8987932201    9.5560199947    5.0940758585
   4.4196032816    6.5564258558    4.4582048551
   7.1296940888    8.4449082719    3.9716801865
   3.5209710490    7.1575284889    6.0697638471
  -1.1405624796   10.1983667758    8.9520045514
  13.9565561722   13.3728419180    5.5392904924
   0.3667598195    7.1373805828    4.2553464812
  -0.8203020251   10.7243895557    5.7081492371
  -0.7970869056   17.6032942068    2.7920058232
   0.4149979551   17.7007608726    4.0287182211
   1.8292188970   15.2629349456    7.9267775885
   0.7123158045    7.0025774017    2.3689113564
  15.2175577326   14.6396412814    5.5154824198
   3.5451251564   15.3870469755    7.9427835371
  11.2327279872    6.8286166885    3.5109770200
   6.6171607326    7.6014364565   17.3264019779
   2.6687698603    6.1991444574    4.9529257947
   1.1062169679    8.5184920955    3.2732931771
   6.8852403635    6.7589194449    3.4018907719
   8.3398804939   16.9813228562   17.0715935553
  11.2755228966    5.0113273403    3.1377904864
   7.5537171004    7.0815620077    5.0860457098
   0.7175786007    4.8462364260   11.7395222054
   8.2469831948   18.8037140889   11.2731817459
  11.5179627721   10.2363890277    4.1239328445
   8.5520819806   15.6462624795   15.7989972957
  13.3393903610    6.9633070432    6.8355059608
  11.4250553524    8.8767314921    3.2595097698
   9.2471924443   17.3675759092   11.2511617224
  -0.8611195414   19.0779868224    3.8211462533
  11.8048465705   10.6618664744    1.5078684546
  12.6382472320    6.9100059702    1.7919754557
   8.6662593793    5.2934434114    3.3704222597
  -1.1619355279   12.6205264986    5.0064813633
  12.0972949206    8.7870630435    1.3300456583
  12.3131708124    5.2270828948    0.9438954298
   9.8994910170   16.1244171410   16.7532961934
   9.6997183733    5.5781861475    4.7235483907
   7.5740076187   17.2029787875   11.9571856954
   1.7435069704   14.8421310594    5.3152601010
  -1.0143691129   14.1968788543    4.0529610498
   9.0208315962    9.5304290305   10.5029133573
  14.6959572431    8.0889244581    6.4040784655
  -1.0515172957   12.5518831533    3.3626255777
  14.9228350948    7.7715059044    3.4689793481
   3.3689926330   15.4410136339    5.6949905097
  14.6952921277    6.2948713126    5.7188770491
   7.3691946542   19.3602168778   13.2644187165
  16.2242832068    6.8082818375    4.2654130074
  11.7305032130    8.8074276882    5.8202975368
  13.1714853803   10.2348380179    0.7480467156
   3.1001183497   13.8686034385    4.7184665609
  13.4699453242    9.5376272305    5.4966311050
  11.9223025366    6.9435823802    0.2273009727
   9.3850811074   13.5007957953   17.0288189335
  -0.9473022218    8.2601996222   13.8809531020
   9.3414080245   12.0218123622   18.7052479863
   7.1595069583   18.1170875499   14.2439602811
  10.3044183120   14.6056351677   18.1109854369
  14.8314683522    5.4174087342    2.5249005775
   9.3812043050   18.8898850799   15.3808216377
  15.1242131967    6.5566112282    1.3056037395
   7.8136652926   12.6999102718   18.9031861497
   1.8144112251   10.0423063674   16.4481843248
   1.0675139655   14.8490529165   15.2482815407
  10.2181618092   17.9781635988    5.7355696856
  10.2466953096    1.8555657631    6.9011952592
   4.9917011723   11.0856749732    8.3318320693
   3.6947623711   11.1563280828    4.4696065711
  11.3604469181    1.5746500404    8.1478856929
  15.9321122389    9.4210061023    0.3791431307
  15.6878656701   11.8323281847   18.2091713942
  14.5551017126    5.1980348384   11.9701423121
  15.6843091199   13.2044509416    0.8726106604
  14.4750759119   12.0604128178    0.1757121290
  -2.6794198731   20.0873714988   11.9749932630
   2.7806514011    1.6367427584   13.8032635023
   0.1826487171   17.8130784834   13.0133132579
   1.0450642457    1.6309970962    9.8028987141
   8.0038519366   19.9615417619   15.7590871399
   4.1410421437   11.9554638763    6.9359171313
  -2.0636648602   13.9888732351   15.1203870056
   9.5642364499   17.8984354928    3.6081891689
   2.9061152314   10.5070433195    9.3333812792
   2.6645957011    9.6936304300   14.9053079827
   7.9118614265   19.0266351749    5.0815788956
  -0.1825052450    7.1274727192    0.1878279931
   1.5077023707   13.9563440273   13.9371098877
   9.0415221932   11.7568700838    2.8588199575
   1.8600704578   11.0730168220    7.9424362883
  11.3688992504   20.0128923935   14.4616809830
   4.9430056518   11.9185832641    3.4360125233
   2.6603901711   12.9820427629   16.0687712009
   1.6690635664   18.7480047666   13.2342121057
   2.7350429331    1.8857863672   10.1100343401
   9.3737902972   17.0483833735    7.1123611766
  -1.5323292973   12.3999279647   15.8173739237
  15.9115051132    3.9326306593    0.6247146866
   3.3435269612   11.0416667819   15.9277861725
  15.1614556212   11.8482806729    1.6646806412
  12.0371218286    1.3622001923    6.4059938090
   5.0630486264   10.1058992148    3.5733934792
   9.3078583983   10.1691180181    2.3240629317
  15.7816866273    6.8518764525   19.1854074963
   6.6823063619   10.5228863642    6.6359248909
  14.0975606080    2.3625275577   13.9742661985
  -0.3261676321    8.3977005637   17.7829701934
  10.7574275752   16.4310358470    3.6371051250
  16.1004809395    9.3755920582   18.2611105405
  -1.3465241282   19.5382589913   13.7152974536
   0.4368637940    2.1230365642   13.2080176032
   1.1810599420   17.9308729121   11.6269716470
   1.6368152617    3.1856434017    9.5608209909
   0.4559657529    9.5020336262    0.7797104796
  -0.1014260933    4.4386149860    0.3205132657
   0.3091820226   12.2195926187   18.9966354457
   0.7963955954   12.3955506502   16.5219155780
  13.9946044465    1.9148313520   15.6794712414
   9.1607731658   16.1249285483    3.1061441146
   1.8667886291    9.3852279211    8.2361401481
   7.0211455272   17.6362527137    5.8824654878
   5.2070781840    9.4447398747    6.0586626813
   7.7798191832   11.0833034978    1.7032126609
  -0.9131320575   13.9556738181   16.4537884771
   4.9625926178    8.8285516951    1.5545066924
   8.4363969309   14.2965335099    7.4781297953
  12.4114491557   13.0062733596   13.7829912410
   4.0403126857    1.7331384201   16.5175866517
   1.9000862312    3.5571051417   18.1324533287
   0.4833330535    6.3421071816    6.1280916695
   3.9403738898    5.3581010753    0.9025077488
   0.5291415403    3.6905284301    4.9707910910
  10.5100370664   11.4586977294    5.7606546452
   5.4917364875   18.2236276931   10.1752327826
  16.5155345502    1.0107221232    1.8031602671
  11.2890400404   11.2717865169   16.4026243472
   3.0238522151   16.2308766996    0.1007142658
  12.0086956883   17.2332263640   15.9070168573
   5.6959546821    1.3631429785   10.1267418275
   2.1490266692   14.2410986340    2.1116248236
   7.2043746033   13.8233861488    1.6065398323
  11.9378743299   19.5425515541    4.6424538378
   5.7685959073   13.7121115841   18.4934760475
  15.0715957790   15.7999442056   10.6997791144
   3.9986949842   18.9595286616    3.8860509270
   4.9928794943    1.2894412918    2.3594745619
  11.5413269739   16.3194966782   18.6330567643
   6.8034103516    2.6104137285    6.1877364701
  13.4047230834   18.8070517504   11.3260918089
  11.5504176937   15.2639388263   10.1481214187
   2.8715711765   15.8089064043   13.0105298675
   4.4859869335   18.0198469661   14.3726600008
   9.7657092143    4.2758874798   15.5261282573
   9.3567990670    4.1189433370   17.8940260294
  -0.7944128049   17.4734946929    8.1908494752
   9.4973813622   13.3609626868   11.5854784854
  12.0993033852   14.5481257313    4.2593136584
   1.5982122837   14.0018635635   10.0644004862
  15.6494949689   12.6156437034    9.5157792956
  15.7369002399    9.7913768636    7.1088430064
  11.3067822853    3.2234843492   16.9720583832
   4.0113888019    5.0773609392    6.0193966189
  -1.6076901270   17.2104798296    4.6576381111
   8.8143676877    7.3217170008    3.4659534001
   8.0197366265    7.1184367056   15.6375579889
  14.9788127391   13.3270607333    3.8447484772
   2.7765882942   13.7461142337    6.6955450745
   8.7320390263    7.8912858370   11.6802984066
  13.2960491340    7.4753621789    4.8681450805
  -0.9777871437    8.2390088393    3.0081909494
   0.3307562836    6.7903603436   12.3939924599
   8.3445329464   15.0603257901   17.8207720440
  10.5836257199    6.3399072838    1.6613478456
  13.1964912314    9.7285715401    2.8478977674
   8.9993576477   18.2220488331   13.1606563453
  16.4756563249    5.4140675040   11.3429311420
  15.8099570525    7.2934620987   12.5397627747
  16.8665620378    5.4977721099    1.7273559066
   1.6629006662   11.5868621072   14.9670558049
  12.3633101606    1.3716305240   14.3311231022
   5.7550589540   11.2294866507    5.1370837494
   7.7590347600   19.1296429425    7.2143485313
   9.6644622975   11.7440575186    0.9624808359
   0.0627069665   10.2735171041   18.3366853334
   0.0317028459   19.5916571624   12.0806500681
   1.3653756647    2.6974543833   11.5663031334
  -1.2223160943   11.4974318516    0.2352308693
   9.2052955127   16.4121902441    5.0596469998
  -0.2590992382   13.4886653099   14.4489721909
   3.5564615662    9.9556699566    7.3686740112
