B2 C140 Ca1 F48 H298 O66 
1.0
1.7850654338610454e+01 -9.5243148877006256e-18 2.4357514411879069e-17 
-3.0660680163173630e+00 1.9279500170635103e+01 -3.8976059555487740e-16 
-3.1915775312971995e-01 1.5729476088486316e+00 1.9379111763069417e+01 
B C Ca F H O 
2 140 1 48 298 66 
Cartesian
  10.2654798992    3.9103065884   16.8169831467
  -0.9423818947    6.4733453666   11.9744006008
   0.0995203765    1.6027964313    1.4853510846
   7.2089837027   13.7848243141    7.2039140957
   4.7006251737    6.5505865964    1.0153473502
  12.7401349651   12.7488966120   12.4414141379
   4.4325068588    3.0642945205   16.3445789398
   2.3041223471    2.0608471221   18.1888979595
   1.5277155637    2.6653859396    5.5119582103
   2.7720460410    1.4673782993   16.7857159608
  -0.5265617732    4.0524585355    5.8244671418
   3.0851826106    6.6594819142   18.9726672419
   2.1616384524   17.5036531328   18.1606310318
   0.8192884439    3.9969089120   17.2912460712
  12.0227076230   16.0483195797   15.0144976825
   5.0837019406   10.0850959440    0.7842690886
   6.1023378576   17.2067717337    9.4648332355
  12.3331298723   12.1513133562   15.9664304190
   9.6729033093   12.1491326830    6.7895418864
   9.4626184503   13.6312656026    6.5060832406
  12.9354485802   11.9844775034   14.5114069191
   4.0040202066    7.8754155448    1.0183385031
  11.8638960527    9.8621805881   16.7324009293
  11.8154536261   11.8486155525    6.2555242557
  -0.0599998089    5.1837183642    6.8362091508
   0.8552815198    7.4245871751    6.9236556536
   4.6024068536   19.1589396878    9.6505874476
   2.0615160271   16.4740204700    1.1166888291
  15.9827184808    1.6933889498    2.9079977143
   3.6645361981   19.8190666888   10.6961941348
   1.1574172120   15.1992489142    1.5306087764
  13.0944245150   17.0327569406   16.7965068308
   5.3771558093    2.6122295351   10.7288394477
   7.4525011849   13.9831004682    3.0595512453
  14.6701706006    0.8968655747    3.3289622390
   5.8556319037   13.6378751112    1.1405894916
   5.5822216188   15.0204304913   18.9566474769
  14.9834840255   15.4332041039   12.0190588153
   1.9679300803   12.8705537810    1.8323198242
  12.8432753619   16.0519715182   17.8943265720
   5.7875736534   13.6353787242   17.0347071427
   4.9083715427   17.9376755854    3.8934033056
   7.2364878706    0.5106812178    2.6957112428
   6.3120523676    1.7570070378    2.6108734718
   4.2503907959    2.4505549546    2.0862541780
  15.0543923568   17.1838242153   10.4333439334
   6.9959378297    1.2452851806    6.6618538144
  12.2927895156   15.2388309677    8.8377945371
  13.6841263445   17.8153110398   10.2518233246
   3.5898687676   16.2269932445   11.8915308540
  12.9211612131   18.5580815475    4.3297109338
   7.5928969092    2.8466693631   18.1336887378
   7.8673727435    5.3028994016   19.0555843511
   8.0475782684    4.2854093726   17.9542391153
   3.8016069775   15.7121310365   14.2101849645
  12.0164832967   18.9695143581   11.5881382750
  10.1948885877   15.1473805395    9.9480876622
   9.5472597256    3.5084912141   13.1489120274
  12.0336395140   15.8728610794    0.0804330507
  11.9368175766   13.5327563820    3.2940908969
   9.6093696661   14.7653227568   11.2998546963
   5.5332105675    3.1621553573    6.3590869992
   1.5031991628   12.9793531882   11.1656077714
   3.7201554940   16.9632758878   14.9119672991
   0.0911574709   18.5473634818    8.4951625282
  10.6075268160    3.8802555622   14.3288682205
  11.6614696760    4.9544939835   13.9638155685
   5.4512507286    4.6206709878    5.9356272538
   4.4187871463   19.2736003712   15.0366667652
   8.6036241860   12.5601510683   10.6989639230
  -1.5539846840   13.5887474449    8.6925880190
  15.0962448396   11.4775608647    8.7387896893
  -0.6286074066   17.1418042185    6.8748463152
  -1.6840446934   10.7027893402    8.1117873530
   5.9401412875    6.8829408873   15.3997286216
  13.3539196673   15.0160034278    4.4992617732
  -1.5951211826   17.8620948104    5.9010457630
   2.8073602659   13.8006079468    9.3195625106
  16.0268864021   10.3693716342    5.8508519327
   3.7493339439    6.2705758174    5.3082820098
  11.9030089435    2.8870970990   18.2037894541
   2.2098779694    5.7055178042   13.3178824095
   8.9964619169   20.6181968051   18.4137081976
  14.4361721816   14.1028458463    4.9042521410
   7.0245919539    7.6562719150   16.1296934963
   2.7767711054   14.5607647997    7.9406461623
   7.4941282557    7.4013203158    4.0775797217
  -0.7044024095   17.8860507414    3.7765382110
   6.9973250263    9.1839580864   15.9543126810
   9.6476250654    7.7110475586    9.5308784437
   0.4558340009    7.6738560204    3.1695967963
  13.2134060101    3.6306685155   18.5507632268
   2.2135646345    6.1589596110   10.7565543356
   1.3478606364    5.8197824894   12.0205445693
  10.7080791302    6.0003644631    3.0446392906
   9.4104965964    6.0180008640    3.6931683613
   8.9095765746   15.9345561856   16.7186892257
   8.7148237821    8.4454669507   10.4614262112
  12.1691578807    9.4453150782    3.7517398521
   8.5086422509   17.8961738278   11.8728484044
  -1.4232819590   13.1709476192    4.0345453207
  14.0438847974    7.1845361012    5.9851853832
   7.2312272572    8.7494353260    9.9053103833
  12.4445614531    9.8455161682    1.5711171274
  11.9413907743    6.3081297855    1.1409507645
   2.8142447484   14.5497601876    5.5549109487
  12.6536716546    8.8169619466    5.1053183635
  15.8934040214    7.2214526582    3.2292015270
   7.9989662896   18.8182291233   13.9006871024
   9.4067389779   13.9767627978   17.9407452749
  14.9587130854    8.2811281858   14.5251161944
  16.0242262360    8.3021923561   13.4328736719
  15.6306640296    6.1246531708    2.1681490837
  15.2553667893    3.4756231447   10.9798164821
   9.0375514933   12.9515425521   18.9508426793
  15.1939400230    5.0080903622   10.9963129724
   8.7560319722   19.5289261315   14.9084830923
  14.5538757418    5.8290027963    9.8662679771
  15.9452157103    9.6531758433   12.6158878706
  11.1975265910    1.1817354300    7.1119205956
   2.4513429010   10.5154584988   15.5541388223
  -1.6964814707   11.7719870601   19.1608263250
   1.1386690243   13.7953049834   14.8713767902
  15.3881138733   12.0741020839    0.7238277071
   4.5624917785   10.9761816302    7.2864406084
   4.7179834372   11.0995713502    4.1015845322
   9.2989620327   17.5266509695    6.0094339637
   7.9774657787   18.3349992469    6.0549220330
   1.6901568986   12.7057944260   15.7602921787
  -0.7749911268   20.1728491466   13.0927481225
   1.0934639143    1.5668263586   12.3612341749
   0.8969300583   18.5672466441   12.5130388009
   1.8400042749    2.3398748267   10.2103660252
   8.8424384778   11.1494455254    1.9730719930
   2.5616934481   10.2109618093    8.2812547974
   5.6266566742   10.4838896193    6.2903495298
  13.8369962361    1.5724900898   14.6368699854
  -0.5944554310    9.0556099082   18.5284343724
  16.6219338446    4.7151834451    0.5635158593
  -1.1717950417   13.4418026305   15.5099489878
  -0.2047505591   11.3171877873   19.1072259767
   9.7059639594   16.7824123804    3.8256643925
   8.5504674574    7.1657821596   13.4443406981
   7.6011701771    2.1823711456   16.8577059361
   8.5436423073    6.4369082421   18.7605871554
   9.2343367125    4.7521010672   12.4632706682
   8.3920442291    2.0843333712   18.8492522333
   8.6719430136    3.1706894504    0.8000544628
   6.3956066640    2.7628620375   18.6330908673
   6.4992791367    5.6154651415   19.2618200670
   8.3650452700    3.0871565915   13.6633054029
  12.2535026333    4.5263867786   12.7569643401
  10.0106077115    2.6154845752   12.2614543231
  12.6049464474    5.1356737575   14.9171279755
   4.6463092568    7.2049873565   15.7229755493
   6.1310170926    5.5466657480   15.5864902977
  11.0710267629    6.1825859089   13.7391675004
   6.0420690475    7.0579641694   14.0231869522
   3.0229548322    4.6107047421   13.3116257293
   7.9654811458   19.8938645525   17.8681165059
   2.9618146067    6.8601256930   13.5908087009
  10.9171341546    7.9728962548   10.0452288881
   1.5142890029    5.9071265929    9.6177622700
   6.9864715090    9.6158273794   14.6975422819
   8.2985280141    9.6166572531   16.3851281532
   1.4268215130    5.5939130942   14.4472714772
   9.6428026538    8.1389670169    8.2582223319
   9.1325754789   18.9755254701    0.4057628568
  14.2683333467    3.5637524635   17.6696139759
  10.1984133727   20.2527007553   18.0090802003
   3.3446296534    5.4254997952   10.6612630458
   9.4320678252    6.3454171388    9.5262408233
   6.4568294135    9.2820886397   10.9588084449
  13.9427995462    1.7876300778    0.4449792716
  12.8651914276    4.9043874933   18.6227823287
   6.1155761369    9.8063954217   16.6770475383
   2.6099543720    7.4068811938   10.5081078921
   6.4813703270    7.6794402477    9.4523897138
  15.1975421697    9.3272737807   15.3187611646
   7.2559516354    9.7036839593    8.9983220471
  13.9663864687    3.0652450432   11.2153597655
  13.6038955329    8.4776348401   14.0195490920
  14.6500858240    5.2130048290    8.6099485559
  15.6349634854    3.0337190983    9.7204654375
  14.9898039801    7.0880700907    9.9084104251
  15.0693598438    7.1077576964   15.2229776191
  -1.0925641340    9.5223738547   11.4379787558
  16.0899562202    2.9101674724   11.8535858150
  -1.4444081697   10.6073192441   13.4728356765
  13.2609936285    5.8670960963   10.1380338686
  14.7937108946   10.1478865652   12.1860944923
   1.4810431155    1.5322947660   18.6132915849
  11.8543229398   13.1085029495   16.0481834561
   1.9353558819    2.1015943013    4.6416042659
   5.3148841344    6.3958993783    1.9688051649
   5.3601165168   16.9341386440    8.6386254029
   9.9897642415   11.8842179008    7.8133448747
   5.5148447439    6.7136830279    0.1835801089
   5.3697190703    3.1008014571   15.6255348500
  16.5552387399    4.3954448985    5.1485797368
  -0.0437944780    2.5810887805    1.7887096825
   1.2127768130   18.0265817548   17.9757166358
   0.2378816922    1.5802783213    0.3972206595
   6.4061994722   14.1381943387    7.9223753278
   0.1308096548    4.4708800559   17.9194299065
   0.8294048744    1.1917353251    2.2186335300
  12.4287264690   11.7607859762   12.0496647828
  -0.4046877972   19.6532282246   16.8590994181
   6.9255982669   14.0424926748    6.1909938375
  12.9086311924   15.7736480445   14.4020367627
   5.9787583374   10.5847419086    1.0896852704
  13.7733261256   12.8639972444   12.1998169965
   2.7094778797    5.6471804601   19.1374684166
   2.4581366966    7.4672125955   18.6085556538
  11.5174364334    9.6714812010   17.7357537808
  12.1638280771   11.3774095088    7.1961375651
   0.9552614872    1.9613223548    6.1331941304
  16.7968847561    3.1338307550    6.2094780244
  10.3681794600   14.3460606523    6.4375624580
   4.7054506814    3.5419705668   17.3206298503
   5.2133885850   19.8738268083    9.1148902316
  11.9472218072   15.1718971073   15.8014679812
  12.6805217892   11.0778913658   14.1638909924
   1.9388276746   16.4489310221   18.1909341416
   2.8073847659   17.9030066361   17.4242131031
  11.1635499047   16.1527624512   14.4333048438
   7.0029444422   17.4697851349    8.8812784891
   0.2670070299    3.1584438870   16.7968481611
   2.6530446523   16.7538765327    1.9989603756
   1.1663506462    7.9697775368    6.0526587033
  13.2053310432   12.2107327494   16.5768120817
   2.4177836573    3.1026451654    5.9921654052
   6.2306639259   16.2471141887   10.0020092651
   8.7136180560   11.5712312417    6.7406067668
   4.0993186594   10.6786428524    0.8721702301
   7.1594641895   12.7237201388    7.2208019014
   4.8842424239   11.2810314460   19.1114806687
   3.9592538431    6.4239607103   18.3420931067
  12.2623823843   13.5216299895   11.8660329572
   3.1840361654    1.9345995003   18.9993475115
   3.6711722620    3.6851040345   15.8919413070
   1.2580719021    4.7092658738   16.5472565154
   2.1115556630    1.9517728993   16.0268231309
  16.7189748744    1.5660356574    3.6920889214
  15.6962298485    2.7443434122    2.6664895969
  12.9473022770    9.9011244695   16.7238233947
   3.0192386507    7.9510119402    1.6213578851
   3.7215733817    8.2404630874    0.0134651824
   1.6137935456    7.0517084881    7.7482409145
   0.7517194562    4.8637580777    7.5107049954
   1.4345693539   17.3518516965    1.0204825488
  12.4105120463   11.7011874522    5.3584053372
   7.3733577189    1.1927813181   11.4084915770
  11.9061151532   12.9679657280    6.3668376198
  11.5288041803    9.1073737088   16.0497884066
   8.7967488239   13.8107050390    5.6499582413
  13.9972470854   11.7540987637   14.4967595914
   3.9950858403   18.5898574105    8.8853415783
   7.0638894864   14.9374783811    3.4615748955
  -0.8254898904    5.4571123481    7.5546115690
   0.0480485046    7.9086623290    7.4730040674
   5.2843888259   14.6354439919    1.2583118198
   6.2861612260    3.1980896843   10.7281662745
   0.7241098790   14.8200798353    0.6174020072
  13.3580872811   18.0867799632   17.2937006595
  14.0391488116   16.7517682153   16.2470469719
   4.6598870641   15.3168034877   18.4972279559
  13.8652756656   15.5359348656   12.3628588732
   8.5336544606   13.9640577559    3.1056337883
   4.5946944661    3.1524894360   10.2094830850
   3.1405621591   19.0134214457   11.3305474767
   5.7129741670   12.5211029878   16.8382062612
  15.2716013629   14.3600495280   12.1690672278
  11.5649164491   19.4410600471    2.4830355192
  13.6756225075    1.3261279802    3.5308244041
   4.5399797533   17.1382738663    4.5217847973
   6.3154068485    0.9454760619    7.4092260343
   3.8171801988   19.1327173926    1.7440927065
   0.4253981689   15.4583834709    2.3127414576
   6.4139702541    2.1752508068    3.7139281818
   3.1791529626    2.1967521681    2.0288562985
  -2.1391107897   17.7510222255   11.1331244837
   1.1005247155   12.4708944292    2.3283943277
   2.0771794472   12.4983104027    0.7946832290
   7.0363038987   13.0917360113    3.6240590474
  12.8404964071   15.0331444697   17.5329811431
   4.9262256423    2.4619353346   11.7712625558
  13.6571136061   15.9775637218   18.6431480101
   6.6624521327   14.2052246219   16.5700661240
  12.0386360055   14.3204325893    8.2291056415
  12.9577117296   16.8902985759   10.3329519827
   5.1876719796   12.8473867826    1.5922501810
   2.8546611729   15.9874242864   10.9829625487
   5.7954685770   18.3102849106    4.2649705876
   4.5158812553   15.6138388643   11.8819750514
  13.3311930421   15.2386491975    9.0421698794
   4.6706781925    3.0363468152    1.2809697793
  -2.3210029283   16.1578968205   12.6164586753
   6.3549943228   15.6838282111   18.5303640534
   2.8387623824   12.3995561362    2.3824289101
   8.0052882636    1.2675346978    7.0707757767
   6.9812748947    0.5683969048    5.7466540117
   4.8279931820   14.1223257964   16.6470255065
   7.6361077303    4.7020036536   17.0192670175
  11.8445061482   20.0646915228   11.4759737840
   3.7096519538   14.6794349623   14.6470312922
   4.8467593457   15.7627081404   13.6988029237
  10.0851679876   14.1751041869    9.3059734890
   3.8809308767   17.2807452924   11.8209891204
   5.0789007684   17.4181285863    2.8973498031
   8.3294602920    0.6708336141    2.5181796423
  -2.1031626609   17.2706240788    9.5403191536
  13.9426354609   19.0390439069    4.0681988973
   6.6520527362    2.4118267488    1.8592607817
  12.5980819419   17.9860367230    3.4487150022
  13.0172001081   17.8819202274    5.2339775244
   4.3170826645    3.1772535707    2.9229709668
  11.9713576638   16.1986930846    8.1146178626
  13.6498940057   18.4053541290    9.3550729315
  10.3551027148   15.2505565965   12.0809288442
  -0.0603845153   18.8041397771    9.5704736835
   2.0083029964   12.0348853725   10.8539728910
  12.2588192921   13.9182786760    2.2639358995
  10.9059647155   13.3045301070    3.2280173627
  11.3857630499   18.4425859524   10.8422545852
  12.3173205154   18.2775425832   19.1058811492
  11.0042015622   16.1801260680    0.2474019064
   1.9129780485   13.3793651397   12.1279400068
  11.7086829747   18.5295232347   12.5840856339
   0.4415797544   12.9011882819   11.2548507301
  12.5194654506   12.6576469108    3.4731225498
   4.7554662931    2.5739516525    5.7133585232
   9.6740568914   15.7939185949    9.3056485820
  15.6036063490   13.9316947100    7.8622105844
   9.2091574933   11.7405026363   10.2547282709
   5.1940454854    3.1220493388    7.4062776258
  12.4917815883   15.5328154493    1.0396919998
   5.8067670623    4.8090536543    4.9094124420
   6.0027272929    5.3073061142    6.5582510301
  14.3619807202   11.7633240037    8.0237831004
   5.1776117760   19.8075408329   14.5555491365
  -0.2618427286   19.4412907930    7.9744319760
   1.1231890036   18.3293319262    8.2439707500
   8.6729500267   15.3799517831   11.5386927424
   3.8852992876   16.8196198669   16.0349097882
   2.6602341999   17.3197916823   14.9508649290
  -0.5138048024   13.3990267697    8.3436865081
  -0.9701878841   11.4573066341    7.5812304685
  11.1557254197    2.9268507444   14.5046065488
  13.7261478649   15.7102465566    3.6113239099
   4.7747303931   19.2063867142   16.0725403102
   8.3002836913   13.2143357348    9.8683940567
  15.2695248050   11.1900453641    5.6388033699
   3.4646832970   19.7319620965   15.0018513159
  -1.1345375170   18.8920080232    5.8553695542
  -2.5516282834   18.0855782294    6.3760497949
   7.7279975042   12.1064543025   11.2479952839
   3.0100858681   12.7066749336    9.2150316431
  -1.4621761990   14.4883909338    9.4050134000
  13.1744214382   15.7790124128    5.2251826485
   3.6785076293   14.2166299556    9.8655314306
   0.4461959073   17.0711858598    6.6256189666
  11.1657444864    3.3471129146   18.9632593861
  14.6568151514   10.8933865043    9.5186422897
  -0.9187197826   16.0182735251    6.8121233302
  15.7722169061    9.6042303064    5.1737340842
   4.5028425581    6.6760034145    4.6548345514
   7.1146006477    8.3927951871    4.0935444054
   3.7531413978    7.0639301001    6.0638981618
  -1.1775696767   10.1100015364    8.8669776496
  13.8419861483   13.3795281331    5.5528221130
   0.5200983301    7.0547291355    4.1171761329
  -0.7655004028   10.8241455891    5.7804119080
  -0.7796980937   17.4537409885    2.7637763414
   0.3056719151   17.7639388136    4.2219138674
   1.8258758077   15.0591693478    8.0514913149
   0.7836895055    7.0256889195    2.4004638747
  15.2191693608   14.5824748262    5.4177081350
   3.6913627827   15.1295009435    7.8155854145
  11.3222258025    6.7290973641    3.6292366202
   6.6485530013    7.5570219161   17.1271333265
   2.7162587908    6.1378610353    4.9049252025
   1.1164316430    8.5470353820    3.2677624522
   6.7555633068    6.7868241427    3.5446258996
   8.3196046081   16.8435328574   16.9360604146
  11.2750884071    5.0633345020    3.0387018914
   7.6215291301    6.9632349724    5.1398722432
   1.0218585287    4.7603676045   11.9248938321
   8.2477367794   18.8086161466   11.2983382141
  11.6259745390   10.3879697000    3.8931756635
   8.5459478711   15.6139485844   15.6829308774
  13.3007735781    6.9634889248    6.7334123216
  11.4266349560    8.6319004997    3.2672770781
   9.2214530032   17.4268466130   11.2136123263
  -0.8029733770   18.9320529623    3.8175288900
  11.6605347017   10.6116533410    1.7200440786
  12.6634914201    6.8276566402    1.7494140951
   8.6866144272    5.2632408311    3.2992860306
  -1.1837326111   12.8111272086    5.0319863829
  12.0739846323    8.9624017314    1.0693681467
  12.3780627060    5.3447851332    0.8938498630
   9.9326609440   16.1235559658   16.8851006612
   9.5351991025    5.9019598018    4.8308937501
   7.6660516579   17.2899024603   11.8893266387
   1.8163592524   14.7717136899    5.2550155380
  -0.8978273134   14.1806276773    4.0947317182
   9.1410136127    9.5031490993   10.5111347271
  14.6532738377    8.0269370262    6.1791069597
  -1.0169623178   12.5475313430    3.2320944439
  14.9065621922    7.7182917733    3.3502982984
   3.4823599394   15.5242950319    5.7119722827
  14.7466298221    6.3618382872    5.7639628784
   7.3717086525   19.5283730664   13.1543616892
  15.9998694363    6.9302519366    4.2562687136
  11.8792004637    8.7376218830    5.8519424036
  13.0499823295   10.2418556567    0.7317900036
   3.2783766931   13.9711889205    4.7047686919
  13.3944116419    9.4275195074    5.5246889190
  11.9330911407    6.8752377485    0.1877385765
   9.4575215705   13.3876701567   17.0022583612
  -0.8378617471    8.2701174811   13.9820852807
   9.4838041242   12.0063877768   18.6813913801
   7.2189783976   18.2128873604   14.3831175252
  10.2708932472   14.4773518754   18.2775249888
  14.7743360226    5.5052135493    2.4505042351
   9.5666735240   18.8847492942   15.4337178971
  15.2680908291    6.5936093436    1.1580977920
   7.8898967996   12.9255679437   19.0458013621
   1.9821434811   10.0743316603   16.4174062904
   1.1715176168   14.7488353873   15.4059185787
  10.0496620016   18.3135799876    5.7500954251
  10.3672263546    1.8468193222    6.7433565378
   5.0375843334   11.1524863116    8.2892386386
   3.6491686672   11.1662749020    4.3481577840
  11.5924491331    1.6102866895    8.0627511986
  15.8431987063    9.5310627735    0.3968784031
  15.7676070798   11.6188332999   18.0616720420
  14.6796985074    5.2783453257   11.8921986368
  15.6420772933   13.1598512130    0.9440810530
  14.1862663922   13.6552629865   19.3265161222
  -2.5715191204   20.0878390600   11.8450710164
   2.8663304113    1.5501261492   13.7090319177
   0.2702054660   17.8374710904   13.0446781124
   1.1140019185    1.5669607980    9.8264614219
   8.1069772305   19.9915060168   15.6972032047
   4.3307898889   11.9958058753    6.9096343576
  -2.0682759843   13.9530041854   15.0325850444
   9.5671575171   17.8391979667    3.6056919799
   2.8493503638   10.4642669556    9.2996209888
   2.6706929554    9.6591913640   14.8623220732
   7.9143349915   18.9087637830    5.1883972398
  -0.0993278214    6.9773124308    0.0718586259
   1.7856041285   13.8149396244   13.9199302082
   9.0201705768   11.8156381376    2.8812996293
   1.8954345064   11.0329847399    7.9687295231
  11.1975545166   19.7673985302   14.4619118828
   4.7206452579   11.9449395562    3.5042981877
   2.7812215758   12.8613154811   16.0807932476
   1.8112872969   18.7571324757   13.1906984727
   2.8884773249    1.9347935804   10.3630326069
   9.3248077069   17.1781071044    7.0378911831
  -1.3786003071   12.4153941471   15.7439495418
  15.9386001671    3.7044913879    0.6334540609
   3.4247771191   10.9802032285   15.8871086016
  14.9645504571   11.7347758351    1.7782016055
  12.0754775700    1.3783984842    6.5440445951
   5.1505293380   10.2263227567    3.5884703495
   9.1237316210   10.1149637927    2.1815396160
  15.8083754013    6.8712886075   18.9963804248
   6.6380583698   10.4993530979    6.6992740923
  14.1035081453    2.4274615677   13.9565039147
  -0.3427660468    8.2648320534   17.7190698779
  10.7337656972   16.4866185710    3.6513757996
  16.2208837797    9.2666723394   18.4020298072
  -1.2438092284   19.3767657621   13.8343492193
   0.5033725435    1.9097493287   13.2898083246
   1.2744784328   18.0903715148   11.6561562294
   2.0091712005    3.3425401352    9.6152461196
   0.4820495288    9.5586208914    0.8187867724
  -0.2747107697    4.3602101106    0.3652390912
   0.3564855211   12.1891788131   18.7317809190
   1.0628733803   12.4292343638   16.5850818847
  13.9973852300    1.9533089640   15.6411948087
   9.1864690009   16.0382859963    3.2044508213
   1.9875788613    9.2653937736    8.3337983596
   7.2511230198   17.5919250282    5.9325103411
   5.2204004714    9.4611781819    6.2296820020
   7.8427398872   11.2729487089    1.6370572475
  -0.7452554789   13.8362034184   16.4520110395
   4.9320296489    8.8369556288    1.5859374287
   8.5514385639   14.2280776344    7.5018595363
  12.4619488012   12.9566525680   13.7330300113
   4.0944265534    1.7017746888   16.4801772389
   1.9800836662    3.5065706042   18.0901978627
   0.4295616341    6.2490559820    6.1303604729
   3.9337327992    5.3573111894    0.9366561695
   0.6422426427    3.7186790854    5.0030072571
  10.5140211954   11.4672561173    5.8199559184
   5.5426368048   18.2077567132   10.1839005393
  16.5255375247    1.0259179071    1.8111362308
  11.4025222327   11.1195534588   16.4038883271
   3.0455469743   16.2804138396    0.1029816817
  12.0913611051   17.1991953456   15.8917030387
   5.7711356656    1.3844625545   10.1210563277
   2.1337589945   14.2296573017    2.1144761467
   7.2034018893   13.8246764535    1.5917092751
  11.9325397674   19.5208178565    4.6085401756
   5.8825482657   13.6870840132   18.4803562451
  15.0766598039   15.8254864626   10.7025341521
   3.9665704511   18.9808094501    3.8918409007
   4.9451697981    1.2558537493    2.3777718964
  11.6595267296   16.2729440233   18.5809661316
   6.8101343222    2.6267363414    6.1951258109
  13.4197543312   18.8239943679   11.3004395966
  11.6357148017   15.2441642092   10.1225924780
   2.9450301531   15.7468568151   13.0263777194
   4.5771446253   17.9460463061   14.3831120027
   9.8832162652    4.3333987812   15.4910809000
   9.5050824790    4.1233805825   17.8863660376
  -0.8349892152   17.4565824157    8.1688919499
   9.5230948800   13.3667569998   11.5584111830
  12.0275826914   14.5734064397    4.2437325135
   1.6066229315   13.9992221261   10.0401275631
  15.6957694080   12.5765076299    9.5183255028
  15.7760908563    9.8251777320    7.1223139856
  11.3918865381    3.1774488321   16.9451893001
   4.0150489146    5.0318487465    5.9413140660
  -1.5641485392   17.2428107717    4.6115983760
   8.8347832194    7.2993074398    3.4672632147
   8.1738745587    7.1002778398   15.6067969256
  14.9822457683   13.3263073496    3.8687459159
   2.8283856942   13.7209476295    6.7282093130
   8.7708833870    7.8911308244   11.6583708115
  13.2784170388    7.4954693311    4.8900034290
  -0.9161213804    8.2349455084    2.9325835677
   0.3625495443    6.8096960636   12.2858235338
   8.4289030107   15.0719497825   17.7975977362
  10.6097106992    6.3761964648    1.6625678374
  13.2367083210    9.7302141423    2.7364617188
   9.0150358857   18.1534315009   13.1694644178
  16.5428180339    5.3533127338   11.3292730549
  15.8406942437    7.2491812644   12.5021137890
  16.7634832584    5.4999872879    1.6891569850
   1.7969154798   11.4981920839   14.8618620585
  12.4454229063    1.4474349308   14.3625398257
   5.7189853515   11.2440252799    5.0853858911
   7.7701317248   19.1608849882    7.2457362006
   9.6490142436   11.7524263924    0.9597675196
   0.1593883184   10.2483546420   18.3142248983
  -0.0221439957   19.6042247649   12.0712853658
   1.3519374339    2.7400186578   11.6067924643
  -1.2930881442   11.5244851729    0.2675915620
   9.2351755159   16.4184938448    5.1135090955
  -0.1791931138   13.5033283013   14.4692025475
   3.5821826070    9.9561698117    7.3853071453
