B2 C140 Ca1 F48 H298 O66 
1.0
1.7799381789424771e+01 -1.3327126764351599e-15 -1.6858513574245011e-16 
-2.8803560712252421e+00 1.9222015234623598e+01 -1.7672565758853909e-16 
-7.3273084277160427e-01 1.3570497371997043e+00 1.9505128676702949e+01 
B C Ca F H O 
2 140 1 48 298 66 
Cartesian
   9.9336002996    3.5485537450   16.7505521704
  -1.1859377139    6.3328507453   12.1775647012
  -0.0543114996    1.4725202794    1.4935927150
   7.0301826562   13.7115846289    7.0080570641
   4.7756727198    6.5234321962    1.1435939438
  12.5078859341   12.4656263104   12.4648769316
   4.2754544743    2.8218133196   16.2200435941
   1.8367343576    2.0992916504   18.3220076694
   1.3272899914    2.7887145108    5.4801980804
   2.4250630910    1.4187796342   16.9402998322
  -0.5790958898    4.1124834362    5.8024447504
   2.8897021182    6.4129143071   19.1169114147
   1.7946101879   17.1023822192   18.3966751552
   0.6282427307    3.8692763843   17.6900727417
  11.7207849636   15.8197866099   15.1545928670
   4.7999144874    9.9913018965    0.7026269217
   6.1768031981   17.1963197469    9.4499234446
  12.2518852515   12.0260729846   16.2361397569
   9.5559700779   12.0643216138    6.7338928245
   9.4519082749   13.5454102538    6.3987985679
  12.7208492175   11.8387994036   14.7257215512
   3.9811728397    7.7638541507    1.0970030121
  11.2607895689    9.9879121478   16.8212964318
  11.8771624167   11.6090929809    6.1394536360
  -0.0413702962    5.2366157775    6.7075611741
   0.9655904733    7.3522549950    7.0320952401
   4.4306306714   18.9221284720    9.6564454323
   2.1907694000   16.3604908625    1.2193028873
  15.9030111106    1.7429417718    3.0723676501
   3.4851529148   19.4150443654   10.7414363612
   1.3657194819   15.1739310321    1.5372916595
  12.9059198832   16.8236063517   17.0493177879
   5.3147778239    2.3088760214   10.8877711989
   7.4197020896   13.7778420368    3.0244546387
  14.6043813500    1.0786710356    3.5443155753
   6.1262637151   13.5726902166    1.0579970259
   5.4004801380   14.8968198150   19.1296749727
  14.9639274157   15.2621984847   12.1179007899
   2.1491204822   12.8698151438    1.8111091001
  12.5614389475   15.8700286697   18.1173480082
   5.4142902640   13.5771369030   17.1142515231
   5.0196212468   17.8123934988    3.9182679663
   7.1934301614    0.4971721005    2.6832939586
   6.2395826673    1.6313447588    2.6345079485
   3.9058863262    2.2796201268    2.3074024309
  -2.7403132981   17.0442132296   10.5317503457
   6.8221316390    1.2545369256    6.5832741647
  12.0944584165   15.0634284656    8.8769040282
  13.6241773437   17.5272108403   10.4245039272
   3.5563726393   15.8361032106   11.8842155239
  12.9261688237   18.3654564221    4.4380698786
   7.0927683476    2.5883415152   18.2684960584
   7.5398910274    4.9503781604   19.1646134931
   7.7098028055    3.9323015361   18.0775055179
   3.6039380324   15.6833665312   14.3303508946
  11.9574413986   18.6827497385   11.7214659365
  10.0095404000   14.9700013259   10.2013060352
   9.2379721482    3.4169620364   13.3356435562
  12.0924278653   15.7499409145    0.3181744521
  12.0594079235   13.4749415777    3.2483127403
   9.3775806401   14.4089934846   11.4559633861
   5.3489871321    3.1636357255    6.4942989025
   1.4631400141   12.9645169335   10.9714218387
   3.5905186258   16.9402043883   15.0973635810
   0.1938753747   18.4989048527    8.5295099320
  10.2452855015    3.4372689662   14.4451401485
  11.2624661371    4.6004020173   14.1170699718
   5.4215742685    4.6550497181    6.1351590502
   4.3601990165   19.1970006916   15.1444280947
   8.5456668830   12.3975952847   10.7309989311
  -1.4414944298   13.5236190227    8.7055679784
  15.0312828163   11.5570275876    8.6339852116
  -0.6631102614   16.8639152156    6.8688987150
  -1.6626618413   10.5740283930    8.1210130395
   5.5958572864    6.7617000874   15.5229519248
  13.5210118806   15.0264060566    4.5722319693
  -1.4754717043   17.7806252012    5.9357423793
   2.8218225900   13.6474087222    9.0691712396
  15.8473384654   10.2083962102    5.7671841078
   3.6338820505    6.2540134002    5.3923100460
  11.5150439888    2.7215034562   18.4090281141
   2.0084968028    5.5060393047   13.3954283907
   8.8793941088   20.3991332639   18.6187208518
  14.4923693027   13.9413407283    4.9301696104
   6.8458943569    7.4217450545   16.2404681048
   2.6779362961   14.6429214234    7.9343858621
   7.4411001039    7.4205304598    3.9666649015
  -0.5750921567   17.8596919649    3.7517118193
   6.7430134867    8.9946965721   15.9882645883
   9.4878008609    7.7069524169    9.5298052159
   0.3405652534    7.7175446883    3.4336070107
  12.7457048799    3.6083137006   18.6909555477
   2.0802612343    6.0010914973   10.7886598887
   1.2293226536    5.7350043538   12.0781199723
  10.7495285389    5.9035471690    3.0648612764
   9.3511541363    5.9676707866    3.7318911703
   8.6105482172   15.8861038284   17.0077933002
   8.5681746067    8.4211964883   10.5207207904
  11.9513163797    9.2054547962    3.8739423778
   8.4366739211   17.6096527918   11.7962661563
  -1.3136501006   13.0961681518    4.0686256891
  14.1333908955    6.9755223530    6.0902073417
   7.1723651859    8.6338877226    9.9468717182
  12.7977918607    9.6277761751    1.7603650629
  11.9309641208    6.2405284410    1.0410963550
   2.7937737449   14.2995210579    5.5104898274
  12.5524272878    8.6450195130    5.2246964898
  15.8778838521    7.0962425400    3.3660185681
   7.9888863938   18.4454284162   13.9509534126
   9.0120857397   13.7296880495   18.0576105150
  14.7798351027    8.2047610601   14.7381554978
  15.8295275236    8.2774444194   13.5892799917
  15.7629633107    6.1155939785    2.2439291000
  15.0028191678    3.3113519592   11.0231423405
   8.6167267922   12.6847556543   19.0220793226
  14.9310299228    4.9192092792   11.2104195535
   8.6912651406   19.2856274022   14.9632222611
  14.2332625565    5.6275607250   10.0367977471
  15.7042493851    9.5832165742   12.7225566647
  11.0337351533    1.0883642256    7.1354184801
   2.3802527432   10.2704150745   15.7323257841
  -1.8032345650   11.4962659469   19.2666318859
   0.7980053869   13.5778085528   14.9586120208
  15.5414391041   12.0890257740    0.7226475677
   4.5050615188   10.7827185405    7.3408777667
   4.8385103365   10.9184517011    4.2167008015
   9.1495286230   17.2112499754    6.0290808066
   7.9569028797   18.1204172475    5.9385085551
   1.3554689156   12.6007425410   15.9522870747
  -0.8216385310   20.0230729720   13.1499026317
   0.9216106790    1.6394908912   12.4217301829
   0.6608874153   18.2620530958   12.6794282202
   1.3563030986    2.1048042067   10.0879249210
   9.0631399814   11.0367294081    2.0102814539
   2.4817484328   10.2151682678    8.3094738205
   5.6093864822   10.2852864397    6.4102690972
  13.6213772561    1.3896840504   14.6286584335
  -0.7985282717    8.8926391912   18.4706619395
  16.6298951418    4.7729360359    0.6785480656
  -1.4794331051   13.2240787213   15.5565179023
  -0.3823873023   10.9501423536   19.3918187296
   9.6496335204   16.8067883112    3.7329378114
   8.2453861102    6.8443610159   13.6465534246
   6.9795953915    1.9289957098   17.0686954881
   8.1412693726    6.1110995465   18.9524698095
   9.0878715072    4.5779282004   12.5941837645
   7.9406497645    1.8573571799   19.0120110856
   8.6286216786    3.1791220600    0.8621010130
   5.8687434917    2.6908832375   18.8746411847
   6.2082154934    5.3148464068   19.3977701359
   8.0599275280    3.0244025504   13.8477771042
  12.0349156035    4.3838862819   12.9370632205
   9.7141307003    2.4841089683   12.4408015726
  12.2219404291    4.6999816042   15.0652048308
   4.3427873297    7.1368163588   15.9295233056
   5.6724590393    5.4323652194   15.6033601550
  10.6488915395    5.9155260608   13.8804220682
   5.6980257959    6.9659024805   14.1344851495
   2.8522701808    4.4801845894   13.4145271846
   7.8752550372   19.6811113115   17.9736298270
   2.7470915080    6.6863245339   13.5667695819
  10.7168170828    7.8870689637   10.0437273915
   1.2760880003    5.6274936252    9.7477876254
   6.7744649723    9.2788115424   14.6610274829
   7.9747263941    9.3865207903   16.5182843155
   1.1677412159    5.2965372615   14.4534651904
   9.4858946448    8.0751474061    8.1530733165
   9.4979803151   18.7013832763    0.4979691559
  13.5661938031    3.3128774123   17.7069614224
  10.0477423462   19.9747485400   18.1471014666
   3.0685063288    5.0564288041   10.7841743743
   9.1245656989    6.4408709114    9.5104644682
   6.3561698478    9.1965572970   10.9818405914
  14.1036586824    1.8535100247    0.3164401324
  12.3903861748    4.9041281511   18.7210884151
   5.8036718096    9.7925339572   16.5903542588
   2.6615872664    7.1773592422   10.5579091133
   6.5615161551    7.5452123659    9.5105161256
  15.0455067758    9.0914681346   15.7377549194
   7.2315194481    9.5341355392    8.9181573986
  13.7844901618    2.6697193429   11.0967078542
  13.4749765230    8.5402378691   14.2081527748
  14.5386703036    5.0910512776    8.8579883648
  15.4130712565    2.9675736509    9.7552447574
  14.6449775586    6.8707336999   10.0511574066
  14.5950403592    6.9613426610   15.1875236319
  -1.4377991990    9.4293872826   11.5213729621
  15.7762907390    2.8305796619   11.9774425054
  -1.3623647859   10.5943255917   13.4039780130
  12.8784904189    5.4819966662   10.1871764757
  14.4085262754    9.9898100143   12.3812707372
   0.8995238050    1.4652020525   18.4324022601
  12.1333804715   13.1173176774   16.4239200526
   1.8816549472    2.1463288689    4.7648271465
   5.3009834824    6.5761252215    2.0869166984
   5.6808465119   16.9356813698    8.4549919824
   9.8600145911   11.9134001888    7.7729092657
   5.5776795605    6.6970448991    0.3641018660
   5.0651982790    2.6037147919   15.4562392082
  16.2503233332    4.2954728953    5.3725635394
   0.1488399559    2.5046907378    1.8278818485
   0.9568442979   17.7992211762   18.0865355437
  -0.1579870077    1.4916434281    0.4150381171
   6.2661199227   14.1811124893    7.5786234472
  -0.1331056557    3.9266112705   18.3817061368
   0.6787469588    0.9217757937    1.9636860302
  12.3040253475   11.4081296711   12.3375416975
  -0.6219657500   19.5583668381   17.1465056916
   6.7324045276   13.7525484837    5.9647182311
  12.6227622634   15.1886915871   14.9612608580
   5.7204816089   10.5556349738    0.9484354408
  13.5305710248   12.7762708949   12.2722808869
   2.6828510106    5.2980325864   19.0535834209
   2.0877163308    7.0262971971   18.7412060511
  11.0051763435    9.8657830106   17.8805802446
  12.1224560102   10.6961171580    6.8300400462
   0.9048118556    2.1209055570    6.2364571444
  16.8476807147    3.3621930918    6.5706416402
  10.3883229427   14.0285829426    6.7819870783
   4.7096342858    3.3550853489   17.0496881098
   4.8741679400   19.7693472152    9.1693991960
  10.9834642604   15.1279372344   15.7060715869
  12.3502638847   10.9448046290   14.2753875822
   1.3613559578   16.0902521579   18.3117748306
   2.6000856168   17.2958040067   17.6819004186
  11.3053345064   16.3358739032   14.2598462273
   7.1407209950   17.7151871600    9.0389854656
   0.3231085345    3.2130340331   16.9022398850
   2.7742881658   16.7058232550    2.1817883609
   0.6906973469    8.2881596034    6.4811043905
  13.1414707834   11.7637460783   16.8605711429
   1.9804080686    3.5102229569    5.8865289887
   6.3257018860   16.2736440234    9.9214812432
   8.7808426377   11.4054585638    6.5380828279
   3.8591750014   10.5005995916    0.8386866896
   6.8507209813   12.5961843279    7.3121940412
   4.1485559228   11.1094977286   19.1540866947
   3.8213988700    6.4838208579   18.4679757623
  11.9000128923   13.1274227679   11.8848473733
   2.4679661198    1.7593991515   19.2047072245
   3.4177369085    3.5105449892   15.8008999665
   0.9423917650    4.9340494869   17.2006144844
   1.9003939166    1.8955478062   16.0768073590
  16.6746528636    1.7009279906    3.8776544583
  15.6038434755    2.7056415584    2.7441925380
  12.4353202416    9.8145078133   16.6123584729
   3.2085278625    7.6279138476    1.9082506039
   3.3011496658    7.9634682941    0.1127797488
   2.0031261096    7.3776498103    7.3707925656
   0.7862325161    4.9264417514    7.4115374035
   1.5782903149   17.2586319474    1.0220996420
  12.3172914787   11.5967812566    5.1891132313
   4.1757917513   19.8428176851   11.5618534782
  12.1847767546   12.4931611114    6.7155290991
  10.7646378407    9.3197966542   16.1318296625
   9.1584442140   13.9540058438    5.4655758676
  13.7629300528   11.6810617691   14.6028546431
   3.8541379195   18.2306871404    8.9934702030
   7.2507384385   14.8074751968    3.3606001226
  -0.9200508279    5.4159404234    7.3575801933
   0.3644008598    7.1617733938    7.9159624857
   5.4821172233   14.4440386554    1.3421537865
   6.3365400914    2.8701363040   10.9607748682
   0.8809891473   14.6710975110    0.7007615051
  12.9850914659   17.8732283745   17.4462785692
  14.0093510041   16.6352416614   16.6769663951
   4.4252763954   15.2638296894   18.7320222778
  13.9964392359   15.5377431212   12.5533027175
   8.4989274463   13.4886985884    3.2319907262
   4.5781403327    2.9037683074   10.2577242065
   2.8508930195   18.5943083790   11.1094330144
   5.4294549621   12.4947667676   16.8667498979
  15.0238970485   14.1815194103   12.0852683061
  14.0697474875    0.6151322148    2.6229472347
  13.9725244133    1.8697675944    3.9726672747
   4.6736037839   16.8973375216    4.3326752613
   6.0717134962    1.0327245181    7.3802656554
   4.3326938601   19.1316171204    1.6794594134
   0.6164825790   15.4567124357    2.3470396954
   6.2014877603    1.9386165136    3.7925527333
   2.8558100922    1.7736791274    2.3043291920
  -2.1088926036   17.6359239938   11.2861139837
   1.1884257761   12.4801781410    2.2783097287
   2.2625520050   12.8117987454    0.6969544290
   6.6768518174   13.0833314147    3.5949700872
  12.3960009081   14.8247432846   17.7055095514
   4.8337549430    2.2431234979   11.9049023126
  13.3400767627   15.7226701818   18.8872030232
   6.3182304361   14.2085699771   16.7457521941
  11.8847419964   14.1125557050    8.3185031570
  13.0812107638   16.6295749027   10.5908355919
   5.4550854552   12.7351066567    1.4287281303
   2.8675726501   15.6476986528   11.0497214465
   5.7830127853   18.3074785295    4.6177447574
   4.3572427150   15.0057226058   11.9509081010
  13.2131849222   15.0640942949    9.0742672949
   4.0686477037    3.0736979397    1.5988980696
  -2.0754660045   15.7601930976   12.8224919691
   6.1833266046   15.4975175988   18.6332143822
   2.9459413874   12.2422244892    2.1782698739
   7.8136987699    1.2003428300    7.1207987077
   6.7831277791    0.5834783460    5.6835471525
   4.4526765939   13.9994828335   16.6747596190
   7.3690031470    4.2875262170   17.1249917926
  11.7450344610   19.7008622949   11.6351491410
   3.1858235767   14.8889614098   14.9434884793
   4.6138934847   15.2183496959   14.0278140377
   9.7732787870   14.3222016893    9.3725394776
   4.0128811617   16.7895436154   11.7143746977
   5.5649619236   17.4996889049    3.0166537595
   8.2746276932    0.8495485787    2.7304306148
  -2.1351162321   17.2631877423    9.5784609853
  13.9577339149   18.8672479761    4.5318900259
   6.6240300154    2.4341531309    1.9706288577
  12.9367239127   17.8762587515    3.4412633420
  12.8725545466   17.6304212684    5.2405089148
   3.9620407990    2.8613194148    3.2046116256
  11.7823459057   15.9867169326    8.2336372701
  13.4970326409   17.9860220445    9.4967740094
   9.8000143605   14.8076232238   12.3373374227
  -0.0966315386   18.8699087001    9.5546482822
   1.7710518745   11.9288263605   10.6596056744
  11.9155754106   13.8911870948    2.2811975895
  11.0924708598   12.9628848447    3.5539978054
  11.1516027598   18.1047518586   11.0587344923
  12.8596771923   16.5060928840    0.2727009967
  11.1216509970   16.2554339498    0.4321946548
   2.0306258943   13.3317073076   11.8139777420
  11.7453254690   18.3220881412   12.7518427718
   0.3983883396   12.9937988279   11.2628134452
  12.8915552608   12.7502413902    3.1574968372
   4.5718191593    2.6559295046    5.9092074562
   9.5016489491   15.8169663948    9.9122531821
  -1.9193560571   13.8722710581    7.7904536175
   9.0378225240   11.5891268698   10.1309261266
   5.1358635369    3.1224353091    7.5433691235
  12.2136084627   15.0926184022    1.1781986206
   5.8553971917    4.8690608409    5.1232136206
   6.0869015386    5.2287895041    6.8627656353
  14.4536820952   11.9103137870    7.8007089114
   5.3245565417   19.5938266075   14.7671959489
   0.0372228862   19.3045902643    7.7197737466
   1.2639693164   18.1740511576    8.5144482629
   8.2772486448   14.9047550131   11.4194183559
   3.9757920886   16.6862985997   16.1144966354
   2.4960811863   17.1533499851   15.3000551757
  -0.4389295888   13.1375804543    8.4152044865
  -0.8186478561   11.2322393508    7.7922559256
  10.7220590383    2.4857571267   14.5575592073
  13.9771419362   15.5946469714    3.6464515046
   4.6477270333   18.9910746341   16.1576005841
   8.2044542881   13.1646329675   10.1032077161
  15.0130246693   10.9509124676    5.5312365429
   3.4719212655   19.7310771339   15.0753356300
  -0.9117231312   18.7368349389    6.0372999313
  -2.4952024514   18.0297467725    6.2776496147
   7.5984410392   12.0862481316   11.3046752441
   2.7280866081   12.6036820743    8.8266967973
  -1.2231197219   14.4346169509    9.2847433509
  13.2391544837   15.9015380645    5.1783855678
   3.8355956083   13.7620236525    9.6290587756
   0.4225128258   16.5579929619    6.4820086943
  10.6056018897    3.0748123771   18.9735921426
  14.3626982035   11.0719885861    9.3610304240
  -1.2664986587   15.9319811603    6.9157447098
  15.6313658372    9.3863860338    5.0248691453
   4.2062922072    6.3227748867    4.4179858015
   7.1243863185    8.4501780820    3.7405569248
   3.7597985395    7.2365658883    5.8822023003
  -1.4321620611    9.8241321787    8.9385696763
  13.9870563426   13.1967268894    5.5872349543
   0.3477312204    7.0969320191    4.3893029837
  -0.9178042644   10.6228767706    5.6252543035
  -0.8518389739   17.6737284355    2.6493059397
   0.4270209517   17.5091541977    3.9871350396
   1.7881249653   15.1468911656    8.0119905103
   0.6069129078    7.0503113006    2.6025334580
  15.3539954310   14.3324443913    5.3508195852
   3.5759267774   15.3180248222    7.7866216279
  11.4415569444    6.6508584096    3.5606681125
   6.6143061520    7.3597608785   17.3131317576
   2.5881032864    5.9925282511    5.2963639350
   1.0634548505    8.5718112351    3.4268778800
   6.7877116334    6.7349928259    3.4067311168
   8.0911534782   16.8210694024   17.2556466338
  11.1424947379    4.9014391253    3.1861285763
   7.3215370613    7.2166619441    5.0266651528
   0.8611992655    4.7139522366   12.0682510008
   8.1338905024   18.3357560711   11.1018659515
  11.2135669797   10.0687563084    4.0834897693
   8.3911727030   15.6231842455   15.9498417212
  13.5664566684    6.7190634293    7.0713059631
  11.3475623832    8.3951196203    3.4268842020
   9.2151838184   17.1133367231   11.2479078676
  -0.4449695275   18.9598821949    3.9100910924
  12.2628200867   10.5436256345    1.4425108130
  12.7024751431    6.6888351477    1.6042675564
   8.7943052236    5.1627937888    3.1935569993
  -1.1677704443   12.7473038748    5.1059726190
  12.3520782989    8.8087683237    1.3552574078
  12.2841842313    5.3092278152    0.7488074738
   9.7133214364   16.1000632846   17.1825853846
   9.3484743798    5.7104933048    4.8722459899
   7.6898806332   16.8344054952   11.8885457059
   1.9535801198   14.9135578018    5.1614512300
  -0.8768760310   14.1345598790    4.1762571076
   9.0454575724    9.4815111382   10.6102824939
  14.7561471021    7.8222933713    6.3563872692
  -0.7336872725   12.4495157277    3.4268984352
  14.8964912661    7.3937486151    3.5231106923
   3.7839243824   14.9272141720    5.4616228744
  14.7466648608    6.1680663379    5.6780547770
   7.1489800342   19.0597838397   13.4065757128
  16.0840376957    6.6791174220    4.3916205785
  11.7141951044    8.3332400951    5.8841915143
  13.7549840459    9.6771970232    1.1691238935
   2.9248498142   13.4428725361    4.8530781437
  13.2428308360    9.4105275122    5.6724508888
  11.7965809807    6.9709212539    0.1373738280
   9.0783642692   13.2461071070   17.1193032216
  -0.9304756543    8.2915900367   13.9905288911
   9.1810672880   11.6912854044   18.9044219888
   7.3366196947   17.6282066424   14.3566292195
   9.9331106204   14.1549262270   18.4753383471
  14.9508230039    5.4403266956    2.5904380728
   9.3255885728   18.8360223681   15.7306182439
  15.3265909045    6.5046462479    1.2818101709
   7.5417158952   12.5181636405   19.0652096464
   1.8787983983    9.7374635286   16.5384690814
   0.7517625994   14.6003946877   15.5098713472
  10.0074880701   17.8106176684    6.0868296963
  10.1365872556    1.7011596881    6.9097067903
   5.0242675401   10.9197922583    8.3156974634
   3.8817843337   11.3524822773    4.5228714940
  11.4770142669    1.3589060799    8.1489883191
  16.0254821587    9.6561956342    0.3678558129
  -2.0948025127   11.2805108546   18.2121362993
  14.5610232193    5.1908588452   12.2386111689
  15.7839988735   13.1101631855    0.5767236512
  14.6782569932   11.7650689133    0.0769319408
   0.1067573430    1.0800282048   11.9813574136
   2.6588805399    1.5712549688   13.7600561178
   0.0980934716   17.4694591113   13.1629487838
   0.7008646975    1.2546491346    9.8806691120
   7.9344639025   19.8139096607   15.4613902687
   4.2391293877   11.7890935710    6.9796552698
  -2.4349044682   13.5777494712   15.1122242238
   9.8126082942   17.9251933681    3.7945630046
   2.9123884348   10.3667687979    9.2855832613
   2.5607019604    9.4834772934   14.8845658902
   8.0345858319   18.7345263725    5.0507023996
  -0.2230288157    7.2037099796    0.0382953673
   1.4663266038   13.7053954233   14.1403651864
   9.0811688159   11.6844262897    2.8580817189
   1.9192444433   11.1091476005    7.9580108029
  11.3607761351   19.6955358273   14.3512991536
   4.9983357609   11.5581992327    3.3354429715
   2.3746383121   12.9240093065   16.3040475802
   1.5411605495   18.3893189115   13.3546376610
   2.4385452223    1.8393154426    9.7835004937
   8.8365273529   16.5416678832    6.9065999458
  -1.5211000651   12.2055976942   15.9772458460
  15.7179787407    4.0251062881    0.7931717955
   3.3525288170   10.6858804734   16.1385248779
  15.3034844239   12.0000469379    1.8770393646
  11.9329468279    1.3344561040    6.5831265536
   4.9382432689    9.8796900874    3.9373525237
   9.7955868276   10.2043091864    2.3201797845
  15.6410591662    6.8435923175   19.2729239352
   6.5388159268   10.3007229520    7.0731873645
  13.8198399576    2.3581583817   14.1177100004
  -0.2837096822    7.9684896215   18.1706949205
  10.5959072806   16.2582785607    3.6899645685
  -1.6710805079    8.9894686575   17.8077471971
  -1.1997855241   19.2202471790   13.9294688105
   0.4752083954    2.2352766814   13.3029924178
   1.0386474294   17.8017154861   11.6839256017
   1.0301087839    3.0183830645    9.5676368683
   0.5778652875    9.1012279275    0.8764186852
  -0.1922159986    4.1989147237    0.5546810884
   0.3069388240   11.8178669844   19.2739233841
   0.5912057390   12.3782815250   16.7792182171
  13.6288262392    1.6727769987   15.6542837862
   9.0665334373   16.4089638233    2.9386219644
   1.6741869473    9.4699283545    8.3510787491
   7.1346752458   17.4261977426    5.9630023612
   5.4058105605    9.2991671797    6.1575137460
   8.0069964469   10.5887153281    1.8472055161
  -0.9838455614   13.7450846763   16.4148320315
   4.8690952310    8.7713418092    1.4551524311
   8.3628918701   14.1548951426    7.2711375314
  12.2715159470   12.8516967083   13.7854970173
   3.7941221183    1.5060228966   16.6339658998
   1.7741573680    3.4230142914   18.2888007625
   0.4900134215    6.3492093112    6.0663091958
   3.9772386978    5.3273308302    1.0002157886
   0.2473128502    3.4805921832    4.7550808408
  10.5385383978   11.5288705731    5.7258002931
   5.4777258748   18.0858358025   10.2462966856
  16.3648682448    1.0725910582    1.9349588784
  11.1031001610   11.3158458282   16.4558117615
   3.1027167588   16.0543748523    0.1632302673
  12.0239824281   16.9479884782   16.0117148270
   5.5765923492    1.1366546180   10.2314864253
   2.3802225015   14.2596513867    2.1984632447
   7.3550849956   13.7099064744    1.5997940862
  11.8664721580   19.2707782826    4.6443760968
   5.4516359579   13.5656401635   18.5261503067
  -2.5985173773   15.6760732134   10.8271102513
   4.0385684294   18.7683149643    3.7655428163
   4.9296232165    1.1701493441    2.2770964020
  11.3631699345   16.0587015867   18.8378496195
   6.6613790989    2.6648518665    6.1307401859
  13.3330005125   18.5600710414   11.3943203446
  11.4932654304   14.9935250757   10.2229561336
   2.8396945495   15.5806207574   13.0375946499
   4.2332584661   17.9952078020   14.4130421050
   9.4291510238    3.8988770109   15.5274780581
   9.2003685845    3.8287578492   17.9292362111
  -0.6820603201   17.2474651168    8.1996372961
   9.4394585362   13.0294546669   11.6289201877
  12.1827134138   14.4951507193    4.2552441030
   1.6947593142   13.9184846157    9.8690110249
  15.5708607719   12.6278347137    9.5394104708
  15.7223157371    9.6871538190    7.0673092659
  11.2056574982    3.0249610854   17.0146263776
   4.0833472533    5.2081375305    6.2037661962
  -1.4338851477   17.2406268142    4.6261582148
   8.8594235913    7.2461453031    3.7279521733
   7.9535869865    6.8869893823   15.6784510193
  15.0324134936   13.1308966349    3.7691820504
   2.7293575687   13.7682611159    6.7721597984
   8.6187564969    7.7718361748   11.7137348863
  13.3257732103    7.3760117377    5.0296861725
  -1.0689972925    8.2472457445    3.2389757350
   0.1479618550    6.6506577436   12.3845598624
   8.0831753065   14.8957934033   17.9874571242
  10.5964910223    6.1966268578    1.6246318860
  13.0475435525    9.6969429704    3.0722123641
   8.9747190893   18.0302869522   13.0412649182
  16.3254081759    5.2883058579   11.2430898974
  15.5332812587    7.1617890056   12.6575961735
  16.9014401809    5.4926359850    1.8310965112
   1.5978562065   11.3678170288   15.1532007565
  12.2222198005    1.1513172274   14.3216284056
   5.9050665017   11.1288149223    5.2251096398
   7.7572072120   18.9677675300    7.1339092360
   9.5781027522   11.8046979903    0.9406540583
   0.0513209162   10.0124038397   18.4123826611
  -0.0108065102   19.4458116768   12.2410473288
   1.4324049156    2.5477963659   11.5042265606
  -1.1089425772   11.5014058955    0.2403296348
   9.0391029330   16.2819932390    4.9078579532
  -0.4616340650   13.1839072247   14.4716745722
   3.4869778370    9.8082265128    7.3900828181
