B2 C140 Ca1 F48 H298 O66 
1.0
1.7765589775535638e+01 -5.5953334075489278e-16 -9.6479503712701308e-18 
-2.9424957740761126e+00 1.9212577315784220e+01 7.8826394958481313e-17 
-6.7239779332756766e-01 1.4385586807922224e+00 1.9477040363878967e+01 
B C Ca F H O 
2 140 1 48 298 66 
Cartesian
   9.9459820662    3.6032622889   16.7988456336
  -1.0942014977    6.3797089401   12.1658108639
  -0.0731240891    1.5255290917    1.4898992929
   7.0241986512   13.6668438240    7.0299156111
   4.7206544934    6.5782685521    1.0853205248
  12.5015007803   12.5374746992   12.4639899504
   4.2919928061    2.9286743356   16.2700417974
   1.8673369676    2.0270504124   18.2585020979
   1.3191037401    2.7767754298    5.4322004771
   2.5113032853    1.5026262228   16.9808702691
  -0.5921582911    4.1520450353    5.8180224907
   2.9102456836    6.4727406918   19.0541288248
   1.8113280119   17.2056252880   18.3207407209
   0.6617259235    3.9437989360   17.5867862059
  11.6994092504   15.8705274788   15.1644993712
   4.8396078249    9.9674060293    0.7109944338
   6.1209837175   17.1697662266    9.4192214359
  12.2682920969   12.0451319803   16.1887773324
   9.5673549470   12.0974087019    6.6955396979
   9.3642505274   13.5834719192    6.4651528338
  12.6233014215   11.8861922909   14.6733414049
   3.9519386851    7.7906545478    1.0840864144
  11.3875049020    9.9617634464   16.7857721798
  11.7742532165   11.6224683053    6.1585925972
  -0.0569370315    5.2119078701    6.6928900619
   0.9437261934    7.4431227638    7.0075310532
   4.3558216181   18.9715389823    9.6830099423
   2.1603798161   16.3710614382    1.2385362559
  15.8753453966    1.6832914801    3.0166662860
   3.5330472649   19.4929730539   10.7423575167
   1.2852391742   15.1598630563    1.5297995709
  12.9233159599   16.9279502557   16.9994080179
   5.3165773652    2.4271262956   10.8879488863
   7.3830674479   13.7799474875    3.0504574579
  14.5908040561    1.0135499156    3.4939285560
   6.0000875286   13.5701796991    1.1512927786
   5.3569057961   14.9353863508   19.0235160615
  14.8765878594   15.3037253394   12.1258673628
   2.1059946288   12.8755122301    1.8294638339
  12.5442713561   15.8628190746   18.0851759247
   5.4265686428   13.6346999551   17.0972327592
   5.0077490973   17.8184846969    3.9708936964
   7.2112282042    0.4640818192    2.6783509558
   6.2312763875    1.6697889225    2.6839728877
   3.9648102097    2.3054943166    2.2972711201
  -2.7085899717   17.0745062994   10.4758967659
   6.9086473822    1.2781889271    6.5890318676
  12.0702084998   15.1240982570    8.8783077864
  13.5789118532   17.6142252836   10.3823431806
   3.5490836584   15.9014874601   11.7918570480
  12.8733966042   18.3886781175    4.4098049174
   7.1483079014    2.6496785577   18.2648381714
   7.4952531236    5.0499121542   19.1459166758
   7.7667004312    4.0625919218   17.9950523481
   3.6361397798   15.7184319342   14.2749598008
  11.8802475319   18.7678301649   11.6983944678
  10.0240490474   14.9435536976   10.2092950528
   9.2861947847    3.4545937828   13.2958832607
  11.9806542329   15.7426183861    0.2850860970
  11.9944505117   13.4677737972    3.2672855625
   9.3335890780   14.4639261628   11.4607036046
   5.3918525715    3.2043985234    6.4947316821
   1.4070473364   12.9787476113   11.0012658116
   3.5518440243   16.9499777442   15.0544067800
   0.0958359211   18.5150032226    8.5056448594
  10.3072873237    3.5854893810   14.4298917543
  11.3652411398    4.6330669456   14.0630035970
   5.3896231362    4.6798668314    6.1019896408
   4.3588237904   19.2024182407   15.0899479197
   8.5219360617   12.4627551221   10.7576269253
  -1.4743072049   13.5720341073    8.7486587901
  14.9248007801   11.5223525493    8.7280853327
  -0.6654520548   16.8994592563    6.8436019250
  -1.6837361007   10.6181764962    8.1372387744
   5.6535093331    6.8021735626   15.5414224211
  13.4390744928   15.0359100148    4.5436153670
  -1.4988034752   17.8023245401    5.9233198486
   2.7874722930   13.6554401301    9.1587260536
  15.8039141968   10.2143953854    5.7436899860
   3.5679113735    6.2754207394    5.3710736469
  11.5683736154    2.8121822088   18.3452187656
   2.0091606082    5.5990895130   13.3760802895
   8.8574778914   20.4337332152   18.6155555531
  14.3880570531   13.9324755669    4.8887489906
   6.8049364026    7.5481101141   16.2096088290
   2.6852953599   14.6168416295    7.9002850969
   7.4368956113    7.3981539041    3.9524077778
  -0.6393436440   17.8525190489    3.7570836536
   6.7201880428    9.0816923439   15.9886775700
   9.4224743556    7.7254006028    9.5252175370
   0.2708568322    7.7150454012    3.3939007701
  12.7447258352    3.6746765909   18.6496996289
   2.1032421726    6.0178732853   10.7735120005
   1.2486266044    5.7737802034   12.0721294816
  10.6547598266    5.9600726212    3.0557885421
   9.3278048797    5.9308424572    3.7127845955
   8.6008671587   15.9040799252   16.9788034122
   8.5534201438    8.4166489378   10.5031726599
  11.9458429963    9.2641075499    3.8649120947
   8.4137842639   17.6743057587   11.8423748376
  -1.4011051767   13.0868261101    4.0944947129
  14.0375686536    7.0419620771    6.0834950880
   7.1087153312    8.7067715347    9.9075355085
  12.6957374635    9.7235679573    1.6817518723
  11.8491424625    6.3133757306    1.0700099636
   2.7450765733   14.3742324845    5.4929305686
  12.5596253097    8.6530376053    5.0990164622
  15.8352548709    7.1560878083    3.3306756442
   7.8781245381   18.5377111801   13.9211185302
   9.0439990792   13.8058364779   18.0464637382
  14.7712956488    8.2311294235   14.6216367697
  15.7816563286    8.3090321608   13.5154286266
  15.6513598697    6.1637010398    2.2352901500
  14.9477459065    3.3550743567   11.0252152597
   8.6336623256   12.7643233168   19.0406233420
  14.9539893397    4.9601542752   11.2140767779
   8.5768383410   19.3324219200   14.9719025383
  14.2564768666    5.6510186918   10.0604735406
  15.6811675613    9.6615740895   12.7153176799
  10.9781182340    1.1156250846    7.1538509208
   2.3637667490   10.3747650697   15.6661037610
  -1.8391274174   11.6190994850   19.2249563938
   0.8421478186   13.6757593065   14.8927371985
  15.4667673188   12.0989871482    0.7548871058
   4.4900118133   10.8303902215    7.3527713273
   4.8431849657   10.9313762710    4.1965416651
   9.1231166617   17.2052668658    6.0490013264
   7.9057581547   18.1971760786    5.9838591723
   1.3565646561   12.6620452015   15.8750404759
  -0.8753005982   20.0672155147   13.1201738896
   0.9124125648    1.6978605090   12.4287689234
   0.6594358340   18.2602789698   12.6197142567
   1.4673842890    2.1657407378   10.0904487762
   8.9812615862   11.0180929599    2.0510976714
   2.4514728741   10.2155729227    8.2393400691
   5.5845087169   10.3511424566    6.3873784633
  13.6061650024    1.4955203743   14.6011602698
  -0.8076367606    8.9614741700   18.4666616148
  16.6260410967    4.7535347329    0.6201955640
  -1.4280321959   13.2879215964   15.5463962095
  -0.3295065083   11.0489939433   19.3290024350
   9.6152415373   16.7640689366    3.7226600756
   8.2509124667    6.9338372764   13.6284663577
   7.0845784530    2.0262487380   17.0220592038
   8.1357613785    6.1860084588   18.9023363556
   9.1185835145    4.6173624642   12.5630654223
   8.0213406791    1.9320298503   18.9777651848
   8.6103463721    3.1680872229    0.8460176189
   5.9125921328    2.7363009488   18.7889456759
   6.2081063350    5.4235542026   19.3685285311
   8.0767915804    3.0482314650   13.7960379709
  12.0114758848    4.4546614205   12.9296146887
   9.6860501105    2.5545764644   12.4345980938
  12.2256312534    4.8135932242   15.0059170595
   4.3489068296    7.1727112596   15.8847915259
   5.7339089588    5.4781062160   15.5887264310
  10.6735125088    5.9875727615   13.8154618063
   5.7437194201    7.0322743449   14.0912618427
   2.8524240407    4.5635401095   13.4007190486
   7.8434081642   19.7352440007   17.9835722853
   2.7373151465    6.6915122440   13.5378111386
  10.6973010804    7.9497310360   10.0194326136
   1.2565703167    5.6586191620    9.6877652505
   6.7378325624    9.3778914099   14.6129103234
   8.0022449562    9.4389987150   16.5007314021
   1.2045451976    5.3809201954   14.5171187036
   9.5047262905    8.0687081075    8.2355200784
   9.3228910626   18.7345560276    0.4721439344
  13.6604906034    3.3509129382   17.6456430581
  10.0048395086   20.0373615842   18.1186199546
   3.1139141716    5.1098677371   10.7633066591
   9.0913870306    6.4135547869    9.5301230316
   6.3588334223    9.2314973419   10.9873064160
  14.0053420109    1.8142161258    0.3527949442
  12.4105716412    4.9406644544   18.6971833083
   5.8207127012    9.8052722000   16.5641949979
   2.6729557003    7.2918634225   10.5295032813
   6.4957487210    7.5863849134    9.4655598797
  15.0008301278    9.1434084531   15.6469480367
   7.2132517110    9.5593880185    8.9171117714
  13.7730392548    2.7509411822   11.1349515944
  13.4912561253    8.5544080207   14.1954751720
  14.4885703186    5.1068911296    8.7654327086
  15.4075048669    3.0100802417    9.7397204080
  14.6619103106    6.9093557249   10.0685882829
  14.6000009153    7.0307946069   15.2187500401
  -1.3983684022    9.4448726544   11.5454515503
  15.7905264295    2.8867053026   11.9529610413
  -1.3734145548   10.6073619741   13.4135112879
  12.8996347638    5.5845407287   10.1569094364
  14.3950759983   10.0046149501   12.3497434064
   0.8024421195    1.6792785562   18.4577107442
  12.0116070940   13.1049045552   16.1780345764
   1.8264419419    2.0886395884    4.7185241268
   5.2303395419    6.4903400953    2.0762879778
   5.7629515072   16.8157426464    8.4676566997
   9.9051246119   11.9526590372    7.7679941837
   5.5057156230    6.5149858670    0.3101282135
   5.0436601989    2.8389654688   15.4743480238
  16.2523223874    4.3626271721    5.2222421864
   0.0909245880    2.5374159832    1.8633589842
   0.9500410878   17.8037054950   18.0646807606
  -0.1232533910    1.4297841405    0.4016839346
   6.2464591317   14.2087591145    7.6784063279
  -0.1208611957    4.1872064729   18.4545498973
   0.7018478510    0.8251223243    2.0766356084
  12.3085102419   11.4511364542   12.1781147917
  -0.7642955331   19.6698411624   17.0485472936
   6.7512898209   13.7695192556    5.9549117457
  12.6776622259   15.4146532088   14.8520353464
   5.6992336879   10.5046579047    1.0738429776
  13.5565862890   12.6876056402   12.1020148345
   2.6392584217    5.4462206983   18.9790033577
   2.0887288710    7.1661651556   18.7387022018
  11.1395920411    9.8951798840   17.8564542008
  12.0756088488   10.8567717592    6.7987755772
   0.9402423000    2.0624906787    6.2170821076
  16.9226788137    3.4163574363    6.5829977332
  10.3034040742   14.1205058155    6.7683866992
   4.8258817105    3.4401886993   17.0886240328
   4.8251365036   19.8221341436    9.1297220725
  11.0640874539   15.0185652836   15.6086750036
  12.3491858975   10.8467395669   14.2594099039
   1.4334251999   16.1606707359   18.2707064951
   2.6562721598   17.4674856953   17.6598815992
  11.2075214837   16.2224927037   14.2494181986
   6.9511322360   17.7242838263    9.1013736202
   0.3362518459    3.1576681941   16.8316207865
   2.7629197708   16.6938388915    2.0555192347
   0.7994086210    8.3530216283    6.4666544661
  13.0241354788   11.8474634153   17.0050053504
   2.1006973230    3.4428903899    5.8952893005
   6.3679793387   16.1899514038    9.9999396289
   8.6357036200   11.4189937170    6.5699291372
   3.8502574889   10.4970212475    0.9509082550
   6.8911757686   12.6489451107    7.2663730354
   4.1825703553   11.2538244031   19.0787898238
   3.7594590538    6.5032101413   18.3907420750
  11.8433139453   13.1660884885   11.8422513088
   2.5498319872    2.0625009498   19.1502148932
   3.5515808807    3.4805858539   15.7732034017
   0.8916591932    4.7954803338   17.1296696704
   1.8993741878    1.8614451050   16.1328960564
  16.5290063597    1.6356426473    3.8901239329
  15.5995404255    2.7875770883    2.6797100234
  12.3536038958    9.6733536956   16.6836677265
   3.1886441188    7.6732792337    1.8641830268
   3.4402164052    7.9748664670    0.2431270408
   2.0027004551    7.2108956799    7.3822131486
   0.6455397098    4.7305634883    7.3653290863
   1.4672755384   17.1756323409    0.9723288345
  12.5218483678   11.7100702355    5.2791189171
   4.1487880535   19.8662209860   11.5312664923
  11.9782414410   12.6710424713    6.6152609859
  10.8951536743    9.3445646177   16.0028169660
   8.9979211460   13.9317201469    5.4194535970
  13.7871879982   11.7221459418   14.7203907584
   3.8782245495   18.3392773581    8.9288063247
   7.2055367944   14.8652357546    3.2950543543
  -0.9498618624    5.3399501957    7.3665478998
   0.2138146119    7.2398273376    7.8196472153
   5.3179296812   14.4332944820    1.2295915902
   6.1764697325    3.0369678242   10.8771773481
   0.8698362851   14.6942381828    0.5784670919
  12.9318175223   17.9401856132   17.4627270933
  13.8794378956   16.6840726936   16.6191321170
   4.4428301251   15.3943172634   18.6208282913
  13.8703724503   15.5697969064   12.6436505551
   8.4399983314   13.6088050958    3.0407914512
   4.6149172104    2.8355574533   10.2023619825
   2.9313222073   18.6473445666   11.1887402029
   5.4437342390   12.5920330966   16.7564723674
  15.0017482986   14.1767106648   12.1279559709
  14.1049060020    0.3919884457    2.7664801032
  13.9837814009    1.9075784119    3.7571484768
   4.5285525621   16.8409249568    4.3860311794
   6.0485353863    1.0850156492    7.2334683782
   4.1447149227   19.0167216371    1.7469853981
   0.6150261584   15.5359809295    2.2817975736
   6.2072937292    2.0100129310    3.7236503414
   3.0088798806    1.8936869621    2.1848223765
  -2.0939826321   17.5597502457   11.2307796355
   1.1590456833   12.3514333016    2.0560602202
   1.9556629453   12.7579594026    0.7230257931
   6.7063871302   13.1378704543    3.5859713808
  12.4098608672   14.9023755734   17.6770644400
   4.8591267074    2.2253002084   11.8547433566
  13.4101478173   15.7123901602   18.7921511615
   6.2681018903   14.1934655102   16.7465353267
  11.8605710356   14.1887580811    8.3808644583
  12.9684941055   16.6755929409   10.6406613063
   5.4104393051   12.7419162099    1.5007722253
   2.8742876853   15.6819244373   10.9170183990
   5.7347901759   18.1802284891    4.6504877091
   4.3873808941   15.2368655048   11.8791864418
  13.0988840920   15.0183467695    9.1766744815
   4.2447059646    2.9939916295    1.4265988666
  -2.1604989326   15.7750467476   12.7604604548
   6.1578154990   15.5921655011   18.6283685741
   2.8878693484   12.2412179998    2.3060063793
   7.8240736854    1.1054093745    7.1097112936
   6.8199591657    0.4894656273    5.8123836824
   4.4627287662   14.0601597716   16.7195493443
   7.4058231122    4.4361421918   16.9952498810
  11.6057438780   19.8821937209   11.5401320376
   3.1329298360   14.9215798984   14.8618863413
   4.5803963380   15.2877160179   13.9916202973
   9.6482517502   14.1935361025    9.4137761739
   3.9217242150   16.9666868866   11.8421607737
   5.3142365247   17.4956627677    2.9347474095
   8.1956104145    1.0024583886    2.7523140244
  -2.1833452329   17.3154104561    9.6115771388
  13.8085930518   18.9136839947    4.4331825777
   6.7532241847    2.3631998723    1.9770992300
  12.8251943776   18.0075169090    3.3683815119
  12.8603171540   17.6860332282    5.2429653188
   3.9062013678    2.9620775939    3.2483252912
  11.8181759447   15.9334524419    8.2529771977
  13.4158486439   18.0872735419    9.3079158591
   9.8825675269   14.8470913874   12.4159152988
  -0.0723209994   18.9323694358    9.4729332935
   1.7743650623   11.9490378329   10.8237195182
  11.8205792617   13.9270142027    2.2683023127
  11.0103725953   13.0989984236    3.3930081447
  11.2163145836   18.3162731738   11.0623475111
  12.8574613402   16.4595049103    0.1632892937
  10.9933612143   16.2668821768    0.3748882303
   2.0576809991   13.3623373092   11.8251898829
  11.8015694864   18.3625850598   12.7174594451
   0.3367064911   12.9449834680   11.2814291265
  12.7669421163   12.7028265626    3.1947976101
   4.5872216769    2.7442491747    5.8495358018
   9.4269987001   15.9117647105    9.8145311984
  -2.1033769008   13.8511198219    7.8386090647
   8.9682787337   11.5810396107   10.2577893416
   5.0551292923    3.0385892519    7.5755057471
  12.2040323980   15.1894745938    1.2299565426
   5.8233471630    4.7522957711    5.0820586156
   6.0380646057    5.2752171965    6.7025408332
  14.3784329156   12.0208017116    7.8630416534
   5.1436008472   19.8421756664   14.5757246009
  -0.0205653586   19.3196112356    7.8260611014
   1.1260170311   18.1848159117    8.4386870540
   8.4015471235   14.8981324611   11.3935674195
   3.9138451239   16.7950255460   16.1141440340
   2.5129392200   17.1432826888   15.2381171081
  -0.5294113273   13.0866110896    8.4547736706
  -0.8641287278   11.2600443227    7.7403265044
  10.6668197055    2.5006106691   14.6426897133
  13.8063397676   15.6256225801    3.7340334215
   4.5616047210   19.0249017663   16.2350801302
   8.0558344606   13.2322275963    9.9859023216
  15.1199443640   11.0432415844    5.4970645999
   3.3176222212   19.7740738193   14.8850518285
  -1.0534121707   18.8124870553    5.8923796770
  -2.5335095011   17.9581305708    6.3379287163
   7.6816690212   12.0991156459   11.3056663430
   2.8384208577   12.5578642400    8.8844801706
  -1.3129319886   14.5245581416    9.2941754811
  13.2489412910   15.8813261310    5.2293556752
   3.6982754273   13.7518194862    9.6908099991
   0.2582433261   16.6068385095    6.4856322718
  10.7320021849    3.0748800496   18.9959038865
  14.1750247645   11.0825044789    9.4021051147
  -1.1794303653   15.8928053077    6.7767805441
  15.6716953060    9.4549220689    4.9805855325
   4.1859305457    6.4203478571    4.4912804147
   7.1714425302    8.4451525757    3.7898616598
   3.7049162464    7.2329130945    5.8978942219
  -1.3310008432    9.9402223834    8.9019422830
  13.8376812040   13.2732403663    5.5690507642
   0.2592062373    7.1522999897    4.2826153619
  -0.9581264162   10.6950074736    5.7269089431
  -0.8815638180   17.6946001892    2.7371815946
   0.3820277612   17.5895200333    4.0644947018
   1.6212616512   15.1201327500    8.0001338307
   0.5199327067    6.9473360816    2.6253744292
  15.3184955145   14.4353028348    5.3563245839
   3.5542143300   15.2451170242    7.7905398338
  11.4521146311    6.5985622451    3.4336715447
   6.7547293217    7.2618526698   17.3026086805
   2.5227106237    6.0299073654    5.1217187753
   0.9522901135    8.5277956384    3.4417956334
   6.7135618098    6.7075152725    3.4521961243
   8.0913104586   16.8931506712   17.1560561570
  11.1111718742    4.9317040527    3.2812017045
   7.3143309871    7.1711225032    5.0772733790
   0.8754464686    4.7364228506   11.9045196636
   8.0787393214   18.5763098602   11.1717677748
  11.3699865503   10.0691709829    4.2229972752
   8.2138931088   15.6532929444   15.9368140401
  13.5280564548    6.6680564738    6.9392084807
  11.3210400786    8.4289486934    3.4734090836
   9.2324186945   17.0538246305   11.3908562606
  -0.6588852569   18.9089404545    3.9878158850
  11.9205270770   10.5166728746    1.4257370847
  12.6779824186    6.7173682522    1.7716896142
   8.6880328974    5.1711498753    3.2676938610
  -1.3528679083   12.7980552362    5.1568154483
  12.1354240513    8.7112022893    1.3164395266
  12.2040262184    5.2160394345    0.8372114394
   9.6622997986   16.0074264269   17.1495223541
   9.2689368604    5.8561200678    4.7784539128
   7.5757350690   16.9380469530   11.9018652806
   1.8594253741   14.9152587108    5.0922239489
  -0.9344140326   14.0919080629    4.2444897966
   8.9462402450    9.4128247986   10.5497696399
  14.8236861995    7.8257690977    6.2390787536
  -0.8827620605   12.5109876488    3.2953074723
  14.8026608026    7.6406246587    3.6258125826
   3.6392269298   14.9804089722    5.4281188837
  14.7257638630    6.2627493456    5.7229140547
   7.1927006868   19.1930962938   13.4294821870
  16.0026311862    6.5292046261    4.2721562659
  11.7417550837    8.4395131524    5.7707548840
  13.6803157259    9.6645748355    1.1988855815
   3.0862262447   13.6208950368    4.7238023665
  13.1963076086    9.3625855552    5.5904354886
  11.7511292369    6.8179166421    0.1377226386
   9.1486469312   13.3643142350   16.9743917815
  -0.9866410233    8.3935460037   13.9665484080
   9.2965732907   11.9336846661   18.8517960270
   7.3841069785   17.6481480690   14.3174259063
  10.0389797641   14.1318549762   18.4616526524
  15.0367111872    5.3735675320    2.7554468667
   9.3081018393   18.8098348644   15.6375657390
  15.1213128106    6.5996541705    1.3057353465
   7.4997358721   12.6592704832   18.9604851663
   1.7679069241    9.8751320688   16.4572379197
   0.8027590404   14.5397468728   15.5628455525
  10.0357993180   17.9525928169    6.1495634923
  10.1683859479    1.7709108687    6.8064516276
   4.9761040028   11.0677633064    8.3271952209
   3.8489038614   11.1956756157    4.6704910007
  11.4183907214    1.3996503285    8.0981442924
  15.9383173301    9.4573433207    0.3746895525
  -2.1446720608   11.3110948610   18.1864625124
  14.3628089289    5.1713790095   12.0879457974
  15.6138730254   13.2235405427    0.5424523136
  14.6302438230   11.8829683946    0.0694792082
   0.1129079977    1.0701903456   11.9770713707
   2.5946234515    1.5813003538   13.7064670811
   0.0843797731   17.4604217438   13.2046433072
   0.7426004182    1.3350807580    9.8851802750
   7.8001926490   19.8845221871   15.6590890933
   4.0571813251   11.8387671206    7.0978035170
  -2.3586939506   13.6866100240   15.1213987072
   9.7114349119   17.8241906888    3.6381396176
   2.8977559283   10.3286177766    9.2938514605
   2.4889996973    9.6926099206   14.8934243807
   7.9579570229   18.7930374414    5.0396684929
  -0.3037389303    7.2160606882    0.0074635633
   1.5759981253   13.7228240821   14.0249533792
   9.0046742433   11.7737185520    2.8894604050
   1.9538775788   11.1679101875    7.9954056466
  11.2224128955   19.7853070769   14.3555150530
   4.9837685397   11.6382572072    3.3780953022
   2.2808994809   12.9028986527   16.3731923584
   1.5177556347   18.5637391621   13.2618018726
   2.4836487720    1.9797119848    9.8479794770
   9.0196994982   16.6113761842    6.9093272513
  -1.5737657749   12.2553900184   15.8829344455
  15.8839835328    3.9917245319    0.8256024402
   3.3082986011   10.6917667709   16.0681671753
  15.2429900129   11.9331834730    1.7826617813
  11.8504737694    1.5194087851    6.5405846962
   4.7011041566    9.8268986617    3.7705301245
   9.6190680023   10.1956852035    2.2416953972
  15.6514627835    6.8124837592   19.2938766403
   6.4551484264   10.2661618012    6.9896032139
  13.8586340439    2.3885229644   14.0065325451
  -0.3004050722    8.0347069727   18.0835415906
  10.6979110619   16.4325986867    3.6789998023
  -1.7797139464    9.0146058538   17.9900966807
  -1.2231218714   19.3081484287   13.8171394726
   0.3430879785    2.2013477127   13.2271253588
   1.1168367011   17.8700865526   11.7623915104
   1.2739526456    3.1697304466    9.6491751476
   0.4360801078    9.1905112963    0.8867382624
  -0.3633179961    4.0768592851    0.3162970122
   0.3258759872   11.8930762544   19.2091195790
   0.7759233589   12.5604005382   16.7749701776
  13.6768362066    1.6966637271   15.7206870920
   8.9833720012   16.4584602291    2.8348498088
   1.7402091204    9.4237714789    8.4708305745
   7.0540926256   17.4568554225    5.9465901263
   5.3623501189    9.2354154918    5.9882485915
   7.9710996153   10.7262600801    1.8302826186
  -0.9366966985   13.8300085503   16.3747760506
   4.8633726295    8.7868039322    1.4904698461
   8.3537174220   14.2306978888    7.3037798353
  12.2404899281   12.9291888908   13.7744767631
   3.8246112437    1.5241976463   16.5765339926
   1.7982183180    3.4557233054   18.2495625885
   0.4599261095    6.3287896398    6.0571930488
   3.9702078138    5.3577776114    1.0095847605
   0.3012357497    3.5348237786    4.8358413877
  10.4505143414   11.4967478569    5.7481323405
   5.4397044961   18.1366657546   10.2074581484
  16.3730633916    1.1070937671    1.9444027457
  11.0801167978   11.3398733375   16.4155817247
   3.0148387259   16.0774481206    0.1573155488
  11.9710346672   17.0045952165   15.9616875490
   5.5810806196    1.2054484163   10.1892832805
   2.2888644544   14.2462345688    2.1467296437
   7.2950108724   13.7359618561    1.6394694072
  11.8055313684   19.3244450892    4.6457351505
   5.5110373814   13.6060755925   18.5154163348
  15.0954602790   15.7228465163   10.7823417688
   3.9326559100   18.8301546110    3.7675750317
   4.8739485551    1.2074882905    2.2623673637
  11.3690608166   16.1499569589   18.7875940571
   6.6553051223    2.6166628087    6.1617299788
  13.2492804965   18.6004579614   11.3776912523
  11.4769617931   15.0509458019   10.1459623764
   2.7760771366   15.6394796034   13.0998122426
   4.2104293826   17.9944486596   14.4395255638
   9.4246767895    4.0178394762   15.5177426337
   9.2079779840    3.9216000288   17.8794412127
  -0.7745945289   17.2539950292    8.2059025250
   9.3794191567   13.1363198718   11.5828963086
  12.1370469630   14.5097903853    4.2741839136
   1.6357703194   13.9616910614    9.9154556816
  15.5200207483   12.6252424629    9.4602279344
  15.6644976121    9.6776438057    7.0712561075
  11.2097426758    3.1040401260   16.9741495855
   4.0458296604    5.1886414684    6.1544318403
  -1.5181555958   17.1892481304    4.6565061857
   8.8352200001    7.2433718750    3.6543003335
   7.9226777405    6.9481608422   15.6565447835
  14.9400311885   13.1648423502    3.7980438464
   2.7137191215   13.7476786420    6.8120376489
   8.6249384425    7.8089431929   11.6825098086
  13.2529920652    7.4570609722    5.0020451895
  -1.0292043821    8.2301321186    3.1811761525
   0.1880594065    6.6920481027   12.4352095086
   8.0668993308   14.9746347380   17.9207565401
  10.5683483809    6.2213187686    1.6228950340
  13.0270384237    9.7047167677    3.0422884631
   8.9239876323   18.0633509479   13.0508068936
  16.3504163334    5.3719318184   11.2737499800
  15.5286374311    7.1822381410   12.5857871900
  16.8420454383    5.4640858791    1.8151926222
   1.6019510632   11.3754867590   15.1001311295
  12.2654459491    1.2083425627   14.3108788613
   5.8135646788   11.1499186791    5.2180610917
   7.7104258928   19.0275011179    7.1326829434
   9.5409261272   11.7455562259    0.9219385219
   0.0651610452   10.0978456227   18.3973199661
  -0.0231925315   19.5217372747   12.1986414091
   1.4139307268    2.5767032818   11.4979712392
  -1.1809956190   11.4786441022    0.2370980910
   9.0198328216   16.2889141525    4.9724144590
  -0.4494261693   13.2256622060   14.4852625290
   3.4652826837    9.8548063468    7.3805012793
