B2 C140 Ca1 F48 H298 O66 
1.0
1.7878475992278691e+01 -5.4458587663314425e-17 -2.0265492526804488e-17 
-3.0248946508720636e+00 1.9254566429787758e+01 -1.7341875793339623e-17 
-7.9912611673780928e-02 1.2853658083863213e+00 1.9372004847767371e+01 
B C Ca F H O 
2 140 1 48 298 66 
Cartesian
  10.6150635300    3.6484077997   16.6746030118
  -0.7875252384    6.3302693024   11.9778303422
   0.2894210718    1.6118061715    1.4883387619
   7.2168451781   13.7014109902    7.4967266479
   4.6884358175    6.5422349249    0.9485847383
  12.8845824967   12.5879126135   12.4352022021
   4.5075719997    2.8973278840   16.5063792956
   2.5431461207    1.7865925087   18.0435059523
   1.6650184542    2.5319560927    5.6146799720
   2.8557914307    1.2051467499   16.7006702002
  -0.1301044009    3.8948873142    5.9570214644
   3.2188845814    6.4740452089   19.0448773254
   2.4368893847   17.5235885004   18.1566809177
   1.0581025713    3.5877488318   17.1830817327
  12.2594511390   15.8911182507   14.8300530968
   5.4066636549    9.9684306348    0.8739333259
   6.0776821290   17.1267981780    9.4669975182
  12.3153384552   11.7694754465   16.0026815815
   9.6969082161   11.8801320691    6.8434748194
   9.5173838224   13.3488695804    6.5723400952
  13.0388510146   11.7402848678   14.6803597968
   4.0045623217    7.9508266404    0.8586050546
  12.2749314655    9.4647821180   16.7820854469
  12.0597114965   11.8056587282    6.4114192469
   0.1017218854    5.0044097111    6.9845822934
   0.7529175366    7.3438588906    6.8287949547
   4.9104164226   19.0271057394    9.6671327979
   2.1665554947   16.3332612811    1.1348341295
  15.9915645602    1.7394501125    2.7578552975
   4.0345898691   19.9379661107   10.5465206315
   1.3431555456   15.0861410879    1.5120821530
  13.4033667325   16.7940850183   16.7470823297
   5.4531655024    2.4496467696   10.5537197674
   7.1872120247   13.9841743137    2.9436460702
  14.7993418688    0.8049029172    3.1644257250
   5.9275437658   13.7621922071    1.0549878935
   5.7780657739   14.9154335745   18.8349617594
  15.0707139962   15.2093847552   12.0442533393
   1.8881790649   12.9059718039    1.9429538701
  13.0963661516   15.7749513240   17.7904289858
   6.1515881484   13.2381093590   17.1939932169
   4.9867582160   17.7971925787    3.7771014290
   7.2142190999    0.4024319864    2.5401757179
   6.4276833259    1.6192447607    2.5531670968
   4.4031097232    2.5721449097    2.1143700511
  15.0821622659   16.9287817987   10.3421078320
   6.9424302723    1.4311557521    6.8393887178
  12.4783974520   15.0583680608    8.7505570007
  13.7347546269   17.6030966957   10.2317352999
   3.7356541817   16.1629605170   11.9182478331
  13.1134715908   18.3563509971    4.4069794729
   7.9703594201    2.4888228559   18.1886127925
   8.2515345842    5.0608305305   19.1066307932
   8.5538056093    3.9922985871   17.9179095980
   4.0005914099   15.3419256498   14.1847373347
  12.1240625781   18.8123535079   11.5613945800
  10.3108567515   14.9672194245    9.8269906209
   9.8305096904    3.4198187972   13.1455950072
  12.1399616481   15.8228683336    0.0104698717
  11.9368949775   13.3596688349    3.3460381266
   9.7846562061   14.6404714877   11.1827633474
   5.5160166692    2.9756960461    6.2060954891
   1.5860742737   12.7909698509   11.0817221635
   4.0020908600   16.6476147489   14.9908550660
   0.2870511549   18.4863410512    8.5788574128
  10.8231847255    3.8194377671   14.2523816075
  11.8538417475    4.8440082836   13.8660707390
   5.4136527337    4.3840206593    5.7723799520
   4.6923736724   18.8392102837   15.0049214495
   8.7425893278   12.5228490008   10.7339941392
  -1.6975911707   13.3926363342    8.6804038056
  15.3750687259   11.2269061217    8.8839779299
  -0.5217888787   16.9620182709    6.9734108671
  -1.3601014773   10.4875915304    8.1194576370
   6.1559433562    6.6155131125   15.4755892054
  13.3807573101   14.8313170646    4.4309693927
  -1.5833503503   17.6588859758    5.9240436548
   2.9872970212   13.6177493090    9.3940852904
  16.0985948583   10.1641876037    5.7369927219
   3.9889534697    6.0897716129    5.2776859975
  12.0862705954    2.6325075253   18.2145485838
   2.3389893018    5.5728300288   13.3073943594
   9.2415632646   20.3532741950   18.5206601366
  14.5168239185   14.0775435378    4.9949116149
   7.4144092242    7.4303768941   16.2044860000
   2.9231024900   14.4135174265    8.0557691492
   7.5462969844    7.4061461483    4.1392295132
  -0.5445583885   17.7452485014    3.6931181364
   7.2829025079    8.9865851958   16.1069001045
   9.8370325122    7.5389888726    9.4672883951
   0.6634664509    7.6458397209    2.8768498482
  13.3772698809    3.4189040832   18.5723065494
   2.3507893438    6.1567568863   10.8370027105
   1.5189462143    5.6376499666   11.9249727959
  10.8528454054    5.9246691163    3.1116182574
   9.5015435057    5.9943963335    3.6079129500
   9.2265204238   15.6112524397   16.7444845160
   8.7971433558    8.3168769661   10.3775223798
  12.2216479240    9.4229293409    3.7061073580
   8.5920051619   17.8356134084   11.8606611451
  -1.3792187922   13.1477414026    3.9526448383
  13.8341046298    7.0491255767    5.9736877169
   7.3825427001    8.6571516694    9.8865002255
  12.3720295976    9.9547658143    1.5243204433
  12.1590542918    6.2780182407    1.1388460232
   2.9604736820   14.4309105515    5.7410132326
  12.7202146114    8.8734292192    4.9801455205
  16.0595064978    7.1538637952    3.0615895260
   8.1635649697   18.6092357581   14.0496407342
   9.7940527326   13.6935088000   17.9857396971
  15.1539621613    8.0826190700   14.4226961342
  16.1922658592    8.1115098876   13.3084730752
  15.6456854845    6.1889222931    1.9282645873
  15.2638325990    3.3615579542   10.9735522657
   9.3136650573   12.7277289580   19.0414976922
  15.4097877606    4.8771515797   11.0755068271
   9.0015254068   19.4046118413   15.1133442989
  14.6632644815    5.7148990242    9.9552130958
  16.1521975487    9.4463115343   12.5435821730
  11.5447769993    1.0301804299    7.0974976022
   2.6167713284   10.1222250000   15.5860009990
  -1.4506932622   11.5081094764   19.3124030768
   1.3898466321   13.5797221161   14.9345003648
  15.2743524461   12.0329820029    0.7412524154
   4.7194443287   10.8202545276    7.2330450396
   4.5517500632   11.0955243113    4.2712470838
   9.5944611034   17.6080852032    6.0444007331
   8.1092052568   18.2276496924    6.1618774249
   1.9189618761   12.3424382681   15.7036072837
  -0.6095272495   19.9841969058   13.0337825245
   1.0878585148    1.3042665973   12.4312676718
   1.1083872538   18.3577169466   12.5689017427
   2.1242015985    2.2575178282   10.5790533104
   8.8833940147   11.1804081824    1.9988617684
   2.7079157213    9.9653304903    8.3682564675
   5.7107652654   10.3424445641    6.1350006482
  13.9848229335    1.4758886081   14.6374793469
  -0.3810572974    8.7762385676   18.7220105432
  16.5323199059    4.6321683844    0.5085830063
  -0.9657393513   13.2162289491   15.4244289352
  -0.0384764601   11.1229780016   18.9602581239
   9.9014493611   16.7181194941    3.9496313150
   8.8226542163    6.9129156426   13.4946228272
   7.9526228185    2.0259420776   16.8567015618
   8.8995100201    6.1109884416   18.6790899422
   9.1699964153    4.4771460516   12.4630219646
   8.7754092180    1.6348030827   18.9120907611
   8.8435474337    3.3578907477    0.9063558284
   6.7109808598    2.4172485484   18.5866644187
   6.8890340366    5.2949378758   19.2184998176
   8.7046205686    2.7395139177   13.6607052662
  12.4545252486    4.4667907374   12.7542783960
  10.3672794621    2.6388822972   12.2615797137
  12.7557775992    5.0007514877   14.8216605721
   4.8194726982    6.9516821988   15.7246003677
   6.3125434910    5.3593485243   15.8084219472
  11.3426701552    6.0975677027   13.6806356729
   6.2367904914    6.6628689487   14.0589566444
   3.1292140100    4.4623687492   13.2476741825
   8.1662128522   19.7345723525   17.9004594455
   3.2087817300    6.5791072350   13.5862074056
  11.1015758643    7.7758966263    9.9709680813
   1.6007214452    5.6357641716    9.7650169667
   7.1108734958    9.3789397684   14.7616630930
   8.5541798932    9.5096784717   16.4959078669
   1.4105729298    5.3328125540   14.3393763507
   9.7697788812    8.0763537305    8.2262817226
   9.1400317628   18.7952124603    0.4644360268
  14.5477066157    3.3254512678   17.8297457717
  10.3393401678   19.7674493844   18.0816766838
   3.5701005188    5.5299577013   10.7355857193
   9.7423198642    6.1486884119    9.3645880024
   6.5597119120    8.9414617445   11.0995321656
  13.8591263286    1.6277288194    0.4020559822
  13.0379680164    4.7508365796   18.5294241470
   6.3844694219    9.5526048889   16.8385498739
   2.3786961713    7.5489944387   10.8602348515
   6.7346868097    7.6456011521    9.2581098701
  15.2013839765    9.2001574052   15.1669833348
   7.3253260509    9.7674750433    9.1637432531
  14.0173019664    2.9268117475   11.2012555914
  13.8371966181    7.8521640918   13.9998523277
  14.7772137816    5.2282927471    8.6628016522
  15.6752127577    2.9527283017    9.7055395609
  15.3923843860    6.8631099276    9.7971781693
  15.3402023677    7.0026295463   15.1800721550
  -0.8583650968    9.3691353992   11.5410869477
  16.1458767650    2.7771529505   11.8436801411
  -1.1433627572   10.4018569975   13.3109801090
  13.3656367245    5.7857449867   10.2066453419
  14.9389192277    9.7123426152   12.1002991632
   1.6646506067    1.2868217626   18.5359722618
  11.5841253134   12.5684359070   16.0435161513
   2.2451593396    2.1226735725    4.7150933344
   5.0965757606    6.3593270956    1.9901381982
   5.1554376796   16.7462074697    8.9418220287
   9.8005704773   11.5878915403    7.9042457876
   5.6295023447    6.4207491593    0.2803996050
   5.4882701575    3.0884043694   16.1352481812
  16.8270001890    4.2353062179    5.3739663601
   0.1775742756    2.6297092497    1.8391100979
   1.5834120915   18.0363575908   17.9748492856
   0.4393610451    1.5724650657    0.4862734921
   6.6175644277   14.0201528689    8.3932721019
   0.4534763533    4.4604216065   17.4457657976
   0.9693262444    1.0856750445    2.2472215467
  12.2428067199   11.8147709680   11.9556106025
  -0.1829300044   19.3690355065   16.9312596857
   6.9385918613   14.2594570679    6.5386554343
  13.0348052358   15.7489004023   14.0527581456
   6.2891927760   10.3906697748    1.3927139010
  13.9678562025   12.4099208311   12.2944851586
   2.4762169255    5.7152869255   19.1558589177
   2.9338418737    7.3776229447   18.3981577902
  11.8262948848    9.0824581654   17.7244463410
  12.2798872785   11.5967160302    7.5022211550
   0.9834234805    1.7129684368    5.8902830409
  17.2973793411    2.9962015142    6.3221264297
  10.4395183767   13.8868667082    6.7407181078
   4.4043962259    3.3199272893   17.5302913297
   5.7926347695   19.5253219242    9.1499803617
  12.2654321322   14.9968009592   15.4128100236
  13.1233223484   10.7764851173   14.2786817179
   2.1543418804   16.4670324535   18.0008846977
   3.2327738017   17.9273306535   17.5177095282
  11.2336639082   15.9723169238   14.2760348581
   6.6216549086   17.4927281697    8.6395474963
   0.3081315905    2.7742520070   17.1494587714
   2.7285328576   16.6153148253    1.9706045241
   1.0773552054    7.7932515608    5.8763002057
  12.9965914597   11.9400845585   16.8324579649
   2.3756165467    2.7107248552    6.4951285323
   6.4726761983   16.1525035450    9.9469341375
   8.7296451324   11.2543004423    6.5477757656
   4.6619988830   10.7430043886    0.4883879681
   6.9779565083   12.7193489707    7.3795031665
   5.7027381007   10.7398431693   19.3157279687
   3.9956516627    5.9596216914   18.5877053485
  12.7107970834   13.5005476738   11.8580341509
   3.5001745559    1.6184937263   18.7516940037
   3.7947757879    3.4338880693   15.7710625709
   1.5404186721    3.7206524471   16.3278844607
   2.0804435328    1.4208540739   15.8758511301
  16.7207024662    1.9735262929    3.5110482307
  15.4245072007    2.5717241177    2.2464336656
  13.2578824409    9.7032267547   17.0950643120
   3.0301992290    7.8968831936    1.4130069234
   3.7393471147    9.6878475866   19.2534974215
   1.4855115062    6.9430134298    7.5849339572
   0.9345508269    4.9206718949    7.6574160966
   1.4065940937   17.0795567363    1.0788137650
  12.6793453309   11.1833745070    5.7026272889
   7.6744991624    1.4757951924   10.9379937071
  12.3396414426   12.8914263306    6.1200558622
  12.3438533584    8.7461185665   15.9790800634
   9.0916171015   13.5523615908    5.5567685193
  14.1394375994   11.8110962785   14.8024807518
   4.3122216090   18.6903941045    8.7878862446
   6.5237208240   14.8913838166    3.1483536259
  17.0911348652    4.9224141679    7.6069212295
   0.0295009338    8.0316503361    7.3259266126
   5.4259162000   14.7243332767    1.4034314923
   6.3263968642    3.0395904510   10.8751043339
   0.9059091037   14.7444936001    0.5893089894
  13.6225458439   17.7505247203   17.3260680502
  14.3465979846   16.6003880411   16.1916752838
   4.7992777953   15.1662936557   18.4640377036
  14.0047354335   15.2694365833   12.3652469104
   8.1414960900   14.3466089787    3.2668205642
   4.7696925530    3.1018850207   10.0273153324
   3.6603610460   19.3278506159   11.4395401909
   5.8111842886   12.2166533704   17.0772610742
  15.4355300697   14.1468809242   12.3182721537
  14.4952640579    0.2636762392    2.2768715185
  13.9146909507    1.3472861683    3.5387601051
   4.6958215874   17.4422087945    4.7852262001
   6.3835203331    1.3789836679    7.7258747592
   4.0282352867   18.9354090109    1.6111994306
   0.6805032888   15.5422651111    2.2090818039
   6.6738177718    2.0619687214    3.5134945156
   3.3750310025    2.3177857856    2.1260441082
  -2.2549374754   17.6158004204   11.0132407414
   0.8717981224   12.6779773548    2.2547516056
   1.9813006568   12.5321845776    0.8697302054
   6.8237319405   13.1277510390    3.4819555776
  13.0848025256   14.8076499690   17.3255983530
   4.9394323424    1.9531296627   11.3645131676
  13.8390220533   15.6781180096   18.5611241634
   7.1254251035   13.4595374192   16.7750390882
  12.2448673821   14.1433214258    8.1261116343
  13.0538378171   16.7912256710   10.3280451087
   5.2479708866   12.9720133955    1.3978501166
   2.9028862662   16.1415999308   11.1778636029
   6.0273878303   18.1261064810    3.6913399135
   4.7091692310   15.7668590905   11.5596191430
  13.5609316489   15.0814623319    9.0866340268
   4.7359820312    2.9695107054    1.1406677799
  -2.2224304487   15.9416256007   12.5787923624
   6.5442906942   15.4734243274   18.2729456642
   2.6322870404   12.2913651379    2.5672921603
   7.9721591270    1.1582567704    6.9808762174
   6.4671986299    0.7377904502    6.1466615590
   5.4390558068   13.9069100544   16.6231748239
   7.9517041796    4.3039284807   17.0465805764
  11.9687858666   19.9145040638   11.5074581390
   3.7654431082   14.4360596873   14.6991357833
   5.0372913079   15.2083915238   13.8272077185
  10.0397155983   14.3654171614    8.9548664102
   3.9130391359   17.2515221716   12.1336234693
   4.7104743749   16.9483193778    3.0859220537
   8.3305422113    0.8052934450    2.4449491749
  -2.1959941338   17.0218700190    9.5111866100
  14.0968464398   18.7218625080    4.0029683864
   6.7147439024    2.2186416753    1.7093467368
  12.7812625177   17.4470731523    3.8426083230
  13.2672646421   18.1341780061    5.4559318910
   4.5915488758    3.4100667927    2.8990488206
  12.2373989790   15.9639756460    8.0081736693
  13.6911594422   18.2633004352    9.2953042115
  10.3443115471   15.4061242554   11.9136963145
   0.2865378298   18.3075326036    9.6303994233
   2.0279752253   11.8109319106   10.7976794403
  12.6089299421   13.5450106058    2.5285430916
  10.9434707824   13.2554008388    2.8252953136
  11.5875922200   18.3465318615   10.7879529261
  12.1780957115   17.9932789162   18.7102796108
  11.2384100937   15.8503028067    0.6496104016
   1.9608854559   13.1241020020   12.0416038328
  11.8587381655   18.3590449322   12.5794863749
   0.5090580901   12.7609176964   11.0528050159
  12.2736741846   12.4009059657    3.7571953542
   4.9634138201    2.2910655820    5.4110462067
   9.6709615980   15.8250255929    9.4856935085
  15.3936390207   13.6317299141    7.9097759476
   9.2985689823   11.6552437073   10.3942045221
   4.9366232056    2.7923203317    7.1991483431
  13.1629099182   15.8234576091    0.5465621247
   5.8958678117    4.3191047323    4.7950199599
   6.0372681169    5.0612096364    6.3449842633
  14.6801830146   11.4810792581    8.0873454774
   5.5189100310   19.4533201382   14.5664703531
  -0.0452819390   19.4706787580    8.4861065744
   1.3263116730   18.4008285507    8.1541811472
   8.8569055954   15.1455613331   11.2655071333
   4.2168493948   16.3997739236   16.1767594110
   3.0383789216   17.1297827255   15.0507380374
  -0.6949130067   13.1532414989    8.2251975916
  -0.7780529120   11.2798593870    7.6003575287
  11.4542737842    2.8683413157   14.3546523584
  13.7125280650   15.4876886876    3.5999592338
   4.9280474822   18.8250947139   16.1111324440
   8.4888761805   13.1130812395    9.7706915092
  15.6068955621   11.1394313537    5.6404596609
   3.6612142486   19.2426830058   14.8539524686
  -1.3086918017   18.6937909181    6.0503759333
  -2.5634995292   17.6183812058    6.3755453562
   7.9128329165   12.1054039330   11.1917542032
   3.2323973232   12.5239025010    9.2217733888
  -1.5793319149   14.2749271714    9.3377257355
  13.2455100376   15.5764291052    5.1542852233
   3.7427166100   14.0085287642   10.0752932239
   0.5351990994   16.8282135641    6.7637182811
  11.2894878715    3.0088774758   18.9051121329
  14.8715538683   10.6191546695    9.6082170892
  -0.7664089764   15.8150844080    7.0267148150
  15.5465545787    9.4235081582    5.1054366018
   4.7211224880    6.4139650774    4.5603463126
   7.2344306948    8.4588774868    4.2686943045
   4.3072342268    6.7586003735    6.1079645457
  -0.7667950574    9.8366605956    8.8114891796
  14.0672531680   13.4911024229    5.7459409538
   0.9094198311    7.0764372576    3.6661081609
  -0.6590260766   10.2470233511    5.3540394765
  -0.5538056907   17.0497400332    2.9452294006
   0.4193565960   17.7892689287    4.2136778092
   1.9261934928   14.9076061625    8.0490896554
   1.1197785732    7.0836669265    2.0281076957
  15.3152924357   14.7227040768    5.4985040983
   3.8344620961   14.9747056986    7.9340484899
  11.5571537480    6.4974933998    3.7898067796
   7.1596497704    7.1631466974   17.2699762485
   2.9943924806    6.1785218351    4.9469380834
   1.0675165557    8.6037577793    2.9619508619
   6.7013270730    6.8724607705    3.6056092131
   8.2959227100   16.2175769961   16.7096553275
  11.2031998232    4.8381567601    3.1217257840
   7.7195652152    6.9692356126    5.1195477504
   1.0906298361    4.7037646850   11.6241857511
   8.4858526530   18.9200839827   11.5406213274
  11.8534724777   10.4085454550    3.8529821242
   9.1975481610   15.0700054803   15.7305857349
  13.1339583048    7.0023841657    6.6657747169
  11.4249187400    8.7032046008    3.2919255257
   9.4161443825   17.4421194438   11.2419321171
  -0.6982803133   18.7644414395    3.3710197292
  11.5512182389   10.6423669267    1.7301823007
  12.9903375051    6.7763013833    1.6170517636
   8.8284611199    5.3314921025    3.0610560072
  -0.8757796130   12.9087441893    4.9151298399
  12.1256291418    9.0832189733    0.7997015416
  12.5775868102    5.2465819212    0.9863396803
  10.1561657607   16.1683138381   16.9945512006
   9.5381858925    5.7038160573    4.6270765017
   7.7092754007   17.2609750824   11.6071236147
   1.9037212878   14.5103822386    5.3754469378
  -0.7946637777   14.1203224154    3.6729245404
   9.1091846169    9.4083700595   10.2710092382
  14.6539619876    7.6869079332    6.2401043387
  -1.2231407903   12.3979690611    3.1416902633
  15.2330443689    7.7201939711    3.5193417220
   3.4073222008   15.4339446682    6.0399845192
  14.3967846320    6.1807752966    5.6473045286
   7.6615619839   19.4099702848   13.3759275155
  16.2517153837    6.6039466326    3.9957657664
  11.9339560624    9.0571984649    5.8163243448
  13.0460165142   10.4723622210    0.8501920950
   3.4858425122   14.0538672222    4.8182757454
  13.5292877487    9.4194713561    5.4633890263
  12.0993464477    6.6735015660    0.1204440426
   9.8663571803   13.0296465045   17.0824993214
  -0.6790709427    8.1698955055   13.7531333088
   9.7025215296   11.7277740804   18.6269979165
   7.3215346387   18.1032434022   14.6428910176
  10.7788957881   14.0445483523   18.3892212695
  14.7469913445    5.7211926491    2.3466533031
   9.8489424261   18.9508325989   15.6130857212
  15.4299645027    6.5751572233    0.8833242901
   8.2315790452   12.6898974593   19.1161428072
   2.2338744785    9.9061438393   16.6186451298
   1.4263693564   14.4577185883   15.6543278396
  10.2056547359   18.5082790072    5.6314991890
  10.8772181182    1.6274954701    6.4404671918
   5.2261233750   10.9442237204    8.2775937195
   3.6474637235   11.1879571746    4.8197033703
  11.5871916151    1.5772457411    7.9767499488
  16.0889836457    9.5242772671    0.7300410558
  15.7616992323   11.4592574317   18.3962670591
  14.8828115705    5.0654979100   11.9464263641
  15.2079953605   12.9195070796    1.5048381650
  14.4203391361   13.6057550656   19.2449550251
  -2.2719604402   19.7217563661   11.7178966344
   3.1372168739    1.3713285864   13.5941743902
   0.5930860564   17.6010044854   13.1322500786
   1.2424672612    1.8533380775    9.9184981177
   8.1949604775   19.7121948143   15.8892796957
   4.4197882790   11.8410134343    6.9928927661
  -1.8297833258   13.8136006333   14.9615636734
   9.5291852883   17.6191774947    3.5433491507
   3.1360182864   10.1976453153    9.3777113419
   2.6747503880    9.1948486258   15.0705217998
   7.8157559646   18.7376137602    5.2594795807
   0.2151642329    6.8343829597    0.0796768342
   2.0002028035   13.8765399622   14.0864838941
   9.3297380097   11.0973502753    2.9675313312
   1.9281156943   10.7414194492    8.2199687320
  11.3969316784   19.7894895069   14.4813108747
   4.5635458569   12.0167211461    3.7194419228
   2.9443931725   12.4562821283   16.1801204495
   1.8422824151   18.8206736491   13.3108964255
   3.0015760288    1.6265020634   10.7682781780
   9.6798127231   17.5432106119    7.1015254088
  -1.2572514914   12.1557288002   15.4634259670
  15.7822442317    3.7762508914    0.5252889476
   3.6521249132   10.3917532980   15.7431945303
  14.7985037753   11.2583563643    1.3807367817
  12.5637982141    1.0359843922    6.7014353928
   4.8276333542   10.2306377907    3.6123918338
   8.6111106069   10.1525609831    1.6895790584
  16.1837511247    6.6325945992   19.0299218820
   6.6875441395   10.2080571060    6.5671701892
  14.2807908742    2.3654702846   14.0530651384
  -0.5321487155    8.1440977267   17.8634689648
  10.9598648122   16.5685689770    3.5915201753
  16.5052380733    9.0016940607   19.1142432598
  -0.9350657612   19.2112594533   13.8240258557
   0.3397531104    1.3591700101   13.2145687118
   1.6550393237   17.8991171147   11.7454700741
   2.4843723419    3.2727947795   10.3788678953
   0.5050060004    9.7122904965    0.6224517620
  -0.4080619845    3.9755469580    0.2281494923
   0.4009665283   11.9742518292   18.4222528776
   1.3672126106   12.0364776356   16.6330696717
  14.1336985698    1.8520156436   15.7675293409
   9.3584654180   15.8699609179    3.4862385670
   2.2349666360    9.0127066126    8.3874209997
   7.4500399819   17.3451569841    6.1372559646
   5.1341665049    9.3420697627    5.9528765929
   8.0492431923   11.8752287697    1.9110739908
  -0.6184229041   13.4257286593   16.4103399206
   4.7712320883    8.9227462278    1.6688487748
   8.7142991947   13.7632442743    7.6169012539
  12.4447573508   12.6753610028   13.7697315600
   4.2251196762    1.4606994473   16.4709915782
   2.0564589266    3.2731787898   18.2584959179
   0.1268606800    6.1339602367    6.2055674502
   3.7893030749    5.4659472218    0.9848599883
   0.9804316512    3.6414926222    5.1460424856
  10.7509107682   11.3943376880    6.0125052718
   5.4663116401   17.9614095393   10.3437161035
  16.8021717862    1.1055630100    1.7638193296
  11.5347624879   10.5733965185   16.4676097695
   3.0720442471   16.4282065750    0.0829785830
  12.3924596488   17.0031654288   15.7970666755
   6.0479071613    1.3385739387    9.8197003213
   2.2452473795   14.2343398009    2.1839189387
   7.3037025526   13.6887489331    1.5179142081
  12.0756134723   19.3421509366    4.3759136938
   6.0180286234   13.5248278613   18.5854758322
  15.1484900686   15.5904872245   10.7226916405
   4.1418367766   18.9937023248    3.7936244404
   5.0392274559    1.3793475374    2.4894042076
  11.8981593319   15.9585731990   18.5073693362
   6.8653410849    2.7077699922    6.2300804344
  13.5487454686   18.6006065288   11.3463338434
  11.7214112374   15.1537561563    9.9565220863
   3.2583105110   15.3223838882   13.0074027625
   4.9546551771   17.4838417776   14.5073581008
  10.1363230277    4.0820086515   15.5096498920
   9.8739575890    3.9322153430   17.7920240261
  -0.6532362656   17.4881985301    8.1831982907
   9.7384527201   13.2390404282   11.5112692555
  12.0757509638   14.3971121037    4.2903048694
   1.7385798402   13.6781034613    9.9249589382
  15.7149301578   12.3924842170    9.6083645026
  15.9004673509    9.7217906348    7.0676471097
  11.7533293293    2.9607516404   16.8726811369
   4.0580646432    4.7506784175    5.6672138348
  -1.5029333031   17.3288816363    4.5268955870
   8.7790776945    7.2264168584    3.3448932973
   8.5893942264    6.9881887324   15.5987835977
  15.0918067439   13.3032424544    4.0496794783
   3.0357849443   13.5429245589    6.8688268402
   8.8491284416    7.7985416278   11.6571013003
  13.2014216481    7.5579011953    4.8782170034
  -0.6944135907    7.9879931130    2.6966212990
   0.5408681144    6.6762828230   12.0889949202
   8.9179022974   14.7126467272   17.7664979030
  10.9172848141    6.4524236143    1.7779458076
  13.1866446905    9.6547796603    2.6402119518
   8.8977716648   17.7079583404   13.2708571171
  16.7673992537    5.1813317815   11.2592010138
  16.0514392494    6.9317530156   12.4955294130
  16.7448470639    5.3868024509    1.6564649919
   2.0305083247   11.1515044150   14.8385576234
  12.5560291223    1.4318770020   14.4486462375
   5.8229808158   11.1160591707    4.9334785970
   7.9462299414   19.0303084418    7.3784756591
   9.7995867504   11.7394039289    1.0276451572
   0.2622357269    9.9366438803   18.2742368634
   0.0689748603   19.2701428697   11.9813516866
   1.3078015557    2.5181537504   11.8786497379
  -1.2999080772   11.6165911722    0.4046575836
   9.6442853572   16.4595999229    5.3279439611
   0.0426271584   13.4997974946   14.4934952581
   3.6553745974    9.8533770932    7.3391315849
