B2 C140 Ca1 F48 H298 O66 
1.0
1.7838702551271030e+01 4.8376479124651868e-16 -1.2657164833688287e-17 
-3.0843136502776334e+00 1.9270202624172157e+01 -1.7767135234808170e-16 
-2.4790584925792317e-01 1.5222616745472961e+00 1.9380200017800103e+01 
B C Ca F H O 
2 140 1 48 298 66 
Cartesian
  10.3059560215    3.9072714258   16.8072482740
  -0.9696150862    6.4235358484   12.0026938252
   0.1003288837    1.5915108960    1.4862486878
   7.1936732193   13.7431374129    7.2339548817
   4.6993901817    6.5695603250    1.0089991686
  12.7713468046   12.7061578152   12.4223453687
   4.4705823201    3.0636748897   16.3939398790
   2.3555568972    1.9916150786   18.1309167382
   1.5532126638    2.6438654248    5.4832331738
   2.8479103752    1.4485947005   16.8212455925
  -0.4575953599    4.0473544225    5.8628763118
   3.1488368621    6.5912671883   18.9614483261
   2.2102223537   17.4820712532   18.1599267727
   0.9265023714    3.8945697464   17.2670609073
  12.0694226992   16.0231498379   15.0488633201
   5.0968276825   10.0348739214    0.7955713532
   6.0403432332   17.1191778121    9.4471707101
  12.3688951240   12.0631528494   15.9575826133
   9.6717891187   12.0913683640    6.7831866607
   9.4511671204   13.5994469808    6.5327219228
  12.9137918872   11.9469716327   14.5441731356
   3.9919847415    7.9024318621    1.0168500573
  11.9440144039    9.7813881116   16.7466632386
  11.8085501329   11.8386371810    6.2607957025
  -0.0489200862    5.1648474376    6.9105801501
   0.8469414238    7.3680244890    6.8997714483
   4.6323748831   19.1256568509    9.6773358417
   2.0451661097   16.4852427048    1.1308832333
  15.9472555549    1.6873759766    2.8556387438
   3.7108414651   19.8684922678   10.6474286418
   1.1308542423   15.1762194955    1.5212709982
  13.1612188780   16.9999513232   16.7883843982
   5.3953004959    2.5963107542   10.7622464594
   7.3969668343   13.9544926964    3.0300085760
  14.7093069494    0.8718335268    3.3259020336
   5.8494199910   13.6433373632    1.1570556083
   5.6461740547   14.9650603968   18.9490983744
  14.9648353820   15.4100851159   12.0461731087
   1.9703968576   12.8538502257    1.8739286350
  12.8543628370   15.9698083481   17.8848772525
   5.8524313386   13.5585504493   17.0417564125
   4.9042805580   17.8906241222    3.8785397243
   7.2549749507    0.4945341336    2.6612465697
   6.3589076840    1.7186669985    2.6519017683
   4.2623578409    2.4670852289    2.0846992662
  15.0496364881   17.1174617738   10.4015540234
   7.0074752575    1.3039459307    6.6525131230
  12.2985433863   15.2569777799    8.8187104799
  13.6470174081   17.7856291374   10.2666261183
   3.6238384236   16.2174288850   11.8463450347
  12.9318442833   18.4885165627    4.3549189317
   7.6374272355    2.7689981012   18.1367875776
   7.9058853484    5.2749307976   19.0905930936
   8.1600718209    4.2011955000   17.9666451513
   3.8687377400   15.6588487228   14.1466844561
  12.0203555705   18.9138804545   11.5753267838
  10.2133269151   15.1169021656    9.9136598852
   9.6188315239    3.4888970235   13.1223915559
  11.9821762448   15.8804485571    0.0384461289
  11.9397456202   13.4775288663    3.2905927370
   9.5914150242   14.7477797292   11.2661444303
   5.5397987659    3.1367946477    6.3252352096
   1.4952706548   12.9362008401   11.1824797308
   3.7362803079   16.9168974641   14.9532024847
   0.0791915858   18.5446713673    8.5265003357
  10.6768055887    3.8244943151   14.2897040327
  11.7551050606    4.8990324146   13.9107635316
   5.4146308243    4.5757094381    5.8746424100
   4.4721422057   19.1413704821   15.0484904808
   8.6747812482   12.5559337654   10.7256635434
  -1.5704993753   13.5770009931    8.7138721513
  15.1147216989   11.4198953853    8.7973056390
  -0.6131111362   17.0899059076    6.8652243986
  -1.6288205846   10.7028171880    8.1019175345
   6.0079906138    6.8264735109   15.4455188187
  13.2769753731   15.0547338451    4.5257423961
  -1.6074968449   17.8555220044    5.9287455920
   2.8350829887   13.7674234084    9.3219358666
  15.9927943881   10.3214499754    5.8764145053
   3.7650756508    6.2379240402    5.3197384854
  11.9524400419    2.8566340258   18.2199903594
   2.2789847635    5.7274327098   13.3113872599
   9.0025076079   20.5881473616   18.4462754973
  14.4056515360   14.0600629597    4.9468040820
   7.0790198830    7.6493427929   16.0976006675
   2.7930851363   14.5102613236    7.9326678055
   7.5126759367    7.3722547254    4.0981477732
  -0.6699826462   17.8447458522    3.7240153516
   7.0648179124    9.1625440126   16.0069105336
   9.6898244256    7.6771916519    9.5382885995
   0.4780400535    7.6775168941    3.1271341033
  13.2574160326    3.5752776639   18.5762839597
   2.2412447881    6.1285578121   10.7767095324
   1.4135554829    5.7993477238   12.0520819705
  10.6992007705    6.0176102502    3.0273337946
   9.3941583149    5.9815243277    3.6901572162
   8.9577463612   15.8645604788   16.7211932773
   8.7619644756    8.4126333570   10.4418098403
  12.1659074452    9.4433181330    3.7306209647
   8.5007428487   17.8783141716   11.8687962829
  -1.3860895246   13.1393400136    4.0024735032
  13.9989393262    7.1724807265    5.9849354712
   7.2672843669    8.7532246762    9.9179011914
  12.4067795052    9.8786203569    1.5557237857
  11.9220916818    6.3398585474    1.1324232427
   2.8141790593   14.5347211686    5.6072626330
  12.6457956828    8.8110879344    5.0373620868
  15.9002782490    7.2081560646    3.2145052901
   7.9918168544   18.7969116135   13.8989893921
   9.4520569885   13.8868676585   17.9443441837
  14.9463930900    8.2312738774   14.4992982439
  16.0690352900    8.2550234928   13.4102916983
  15.6245765627    6.1267061034    2.1263473911
  15.2207995099    3.4773001115   10.9589239063
   9.1024893675   12.8862052780   19.0202491975
  15.2420630877    4.9965924127   11.0411641000
   8.8252686618   19.5196172540   14.9285041318
  14.5810499808    5.8010858939    9.8875177260
  16.0206459477    9.6415192624   12.5951232983
  11.2372842019    1.1644789365    7.1292518312
   2.5056475899   10.4555285114   15.5524521474
  -1.6728504201   11.7720147056   19.1430263665
   1.2078068427   13.7532481328   14.8746361271
  15.3465171211   12.0422334496    0.7810978825
   4.6042133863   10.9626501345    7.2624367693
   4.7114827306   11.1208878970    4.0833350969
   9.3234473410   17.5516914876    5.9981689875
   7.9973669657   18.3214951461    6.0944978143
   1.7230093254   12.6387531450   15.7153901007
  -0.7642439028   20.0805464758   13.0823855152
   1.1627181717    1.5289555145   12.4063002895
   0.8925714811   18.5215512821   12.5209215252
   1.8752485551    2.3402290485   10.2742239251
   8.8145668930   11.1719487329    1.9801685591
   2.5582768886   10.1616930584    8.2762280888
   5.6258786559   10.4558092715    6.2875674310
  13.8139972738    1.5404520793   14.6446160029
  -0.5441633721    9.0060179875   18.5390418593
  16.5724161912    4.7216291546    0.5481267205
  -1.1165812613   13.4004742050   15.5156994698
  -0.1544949188   11.2810405563   19.1108492324
   9.7032804584   16.7244447040    3.8433642979
   8.6029867253    7.1442605736   13.4332740305
   7.6966159674    2.1560976841   16.8495753485
   8.5897910963    6.3723184272   18.7841328472
   9.2302835663    4.7101371696   12.4511788303
   8.4690351836    2.0328262812   18.8357165802
   8.6653657534    3.1925669357    0.7981238573
   6.4435137084    2.7124194830   18.6452260467
   6.6272837049    5.5622390978   19.2501960057
   8.4055778465    3.0328028449   13.6692063125
  12.2746787952    4.4924517582   12.7776025969
  10.0740318356    2.6160894949   12.2610418621
  12.6271559372    5.1273858644   14.9204556200
   4.6729067561    7.1430005993   15.7179191837
   6.1545466817    5.5206228888   15.6224329115
  11.1225387798    6.2093750216   13.7434607026
   6.0807779794    7.0074416331   14.0002421474
   3.0392046611    4.5723339832   13.3187381814
   7.9595862290   19.8194732976   17.8408054996
   2.9802340303    6.7912561228   13.5999014093
  10.9330521267    7.9052552859   10.0591858730
   1.5477507312    5.9020522531    9.6068146936
   7.0418999309    9.5573014988   14.7196318015
   8.3342965247    9.5700590144   16.3789724708
   1.4692576615    5.5493472556   14.3983820191
   9.6372753999    8.0954712641    8.2560661907
   9.1126653183   18.9784274290    0.3990013900
  14.3401306075    3.5324555957   17.7043650169
  10.2183092397   20.1975085641   18.0173236416
   3.3939945346    5.4405462086   10.6592596378
   9.5259488527    6.3276420593    9.5147541221
   6.4587854755    9.2120727924   10.9743235454
  13.9229245269    1.7466122918    0.4461034165
  12.9202057299    4.8521896450   18.5914600553
   6.1506399505    9.7535318456   16.7265875150
   2.5769109955    7.3960701372   10.5420443087
   6.4797833357    7.6631807502    9.4531347785
  15.2092524265    9.3053369037   15.3036061735
   7.2532564001    9.7030053581    9.0147282473
  13.9986103635    3.0684697220   11.2448116219
  13.6235440671    8.3805807944   14.0212226447
  14.6745107339    5.2017662157    8.6111332708
  15.6532959253    2.9955488049    9.7024197150
  15.0636254372    7.0683552779    9.8625858359
  15.1239739532    7.0622646236   15.2204987277
  -1.0509371311    9.4939242870   11.4124260013
  16.1089819252    2.8609260723   11.8568613935
  -1.4329028128   10.5523323788   13.4842019544
  13.2752816064    5.8525802227   10.1595928666
  14.8156991607   10.1075048760   12.1642038891
   1.4662386663    1.4917707514   18.7710919896
  11.7810896250   12.9886052947   15.9817909168
   2.0301735358    1.9696140001    4.7243068791
   5.1923747993    6.4594725799    1.9768255332
   5.4305593752   16.8150458474    8.6012825856
   9.9906262542   11.9186385991    7.8386635013
   5.4479168257    6.5945036414    0.1734775678
   5.3118280280    3.1283534523   15.7717817723
  16.6094918237    4.4452092271    5.0969595859
  -0.0674615405    2.6382734886    1.8389996831
   1.2842594680   17.9794991918   17.9736940477
   0.2492150341    1.5361972202    0.4127649527
   6.4832306563   14.0943565186    7.9964385072
   0.1958974838    4.5125383442   17.9863549079
   0.8246448546    1.1545243569    2.2263532209
  12.4234576144   11.7429519928   11.9444418281
  -0.4179439791   19.6165046843   16.8691904839
   6.9356239034   14.0865366832    6.1913102413
  12.8894856280   15.8205181491   14.3505353542
   6.0284634663   10.5411181537    1.1362659943
  13.8801906244   12.7676126843   12.2359854243
   2.5687832760    5.6950549564   19.1222116663
   2.4567094959    7.4273990004   18.6048901027
  11.6415775941    9.5842660674   17.8059097607
  12.1524653963   11.3727679645    7.2062984532
   0.9284635587    1.9444723220    6.0938133861
  16.8999127113    3.1695204675    6.2710392448
  10.3333976121   14.1790214199    6.3891586143
   4.7799928930    3.5089927005   17.3528993812
   5.2631416213   19.8539173063    9.0467991607
  11.9959804107   15.0987245880   15.6461916471
  12.6743827017   10.9281146400   14.0143667550
   1.9698277864   16.4225207716   18.1572755436
   2.9043496106   17.9047815367   17.3742034155
  11.0986826531   16.0785432827   14.4272285442
   6.8808314167   17.4760567447    8.9049155697
   0.3453264837    3.0443663098   16.8137420663
   2.6005094650   16.7114366740    1.9950472878
   1.2273842881    7.9750882721    6.0492290642
  13.1725736988   12.1457148920   16.7577077948
   2.4319202672    3.0582665945    6.0924805863
   6.2946412732   16.1077968335   10.0057847753
   8.6684819670   11.5184136526    6.7366486105
   4.2014672946   10.6902290640    0.8056117906
   7.0395916692   12.6720351535    7.2196119159
   4.9827620866   11.2955335165   19.1002181098
   3.9547668562    6.3544739956   18.2831681657
  12.2989798642   13.5715872750   11.9330470441
   3.2716747206    2.1610084052   18.8420162313
   3.6876941297    3.6494420289   15.8018855994
   1.2457293293    4.5392060697   16.5474486672
   2.1969354842    1.7857696616   15.9214281123
  16.6451688258    1.6353842123    3.7089183200
  15.6799440770    2.7858127927    2.5790210570
  13.0098212488    9.7400040613   16.7871115990
   3.0464933898    7.9007071784    1.5743257580
   3.8152002069    8.2034326983    0.0082988930
   1.5206182347    7.0616380927    7.6955899016
   0.7148200576    4.8568745359    7.6111109422
   1.3903723198   17.3666588466    0.9987426095
  12.5635246527   11.6532421200    5.4067874904
   7.3635896483    1.1320541717   11.3434274481
  11.8946203248   12.9736584362    6.2960725673
  11.7011951884    9.0448615463   15.9698083659
   8.8104279071   13.8081417493    5.6262439313
  14.0772110647   11.7966787026   14.5703988974
   4.0675024000   18.6344732935    8.9031223808
   7.0092546039   14.9472449566    3.4005402946
  -0.8601419473    5.3687330954    7.6174997446
  -0.0500407545    7.8279112226    7.3435834373
   5.2608064719   14.5938018402    1.1575303729
   6.3270738408    3.1049567660   10.6631687710
   0.6088092211   14.7453193166    0.6241761926
  13.3549233251   17.9809223201   17.1706795329
  14.0059927007   16.6638024928   16.2344309069
   4.6254528411   15.2843961907   18.5964373817
  13.9096553630   15.4337700618   12.3927659226
   8.4716891793   14.0399329518    2.9905585006
   4.6516174122    2.9957647030   10.0936992859
   3.2019317190   19.1017746778   11.2431706896
   5.8011323443   12.4955537921   16.8346418452
  15.2959282613   14.3135166048   12.1150731483
  11.5757982160   19.4265339641    2.5331693837
  13.7698738291    1.3914105769    3.5101910443
   4.6129511210   17.0718023463    4.5619823712
   6.2398294803    1.0512801532    7.3918483808
   3.7324544826   19.0692266284    1.7901009733
   0.4300935932   15.5131834554    2.2962737116
   6.3966232423    2.2393938251    3.5756513062
   3.2306731732    2.3280598831    1.9492526088
  -2.1244543618   17.6019916900   11.1341608562
   0.9905603814   12.3126323315    2.1890647692
   1.8742390293   12.4693730658    0.7854263185
   7.0367679261   13.1258197967    3.6251159763
  12.9252277436   14.9373036381   17.5504416584
   4.9216991561    2.4091400878   11.6858436813
  13.7039957107   15.9628292845   18.5685725069
   6.7383818309   14.0123867081   16.6630647506
  12.0087658723   14.2935113505    8.3401663305
  12.9612838063   16.9621783844   10.3456871888
   5.2238960371   12.8737551933    1.5745632191
   2.9340034419   16.0097973782   11.0634587515
   5.8597368080   18.3721462234    4.2473825594
   4.5056081044   15.5880163174   11.7893720842
  13.3360581138   15.2216996659    9.1427437545
   4.7083888505    2.9575196181    1.1825626607
  -2.3060045617   16.0925401023   12.6966298696
   6.3859459404   15.6558743492   18.5169589974
   2.7707316551   12.3129784152    2.4991747023
   8.0362432401    1.2126340628    7.0348159383
   6.9096701107    0.5522505034    5.8564345117
   4.8964527963   14.0046255576   16.5995149983
   7.6714360657    4.6148283956   17.0548031897
  11.8368271602   20.0060796534   11.4173497697
   3.7282079157   14.7077875190   14.6243858844
   4.8639225201   15.6852726140   13.8083391056
  10.0899051689   14.2289830584    9.3206208181
   3.9007746833   17.3014202489   11.8711984817
   4.9438210464   17.3596588026    2.8766607398
   8.3962267607    0.7682033150    2.4749136390
  -2.2040372946   17.3130831628    9.5816444693
  13.8245534965   18.9799183624    4.0186056455
   6.7096739003    2.4450153189    1.8539166654
  12.6193330843   17.8908894257    3.4573090226
  13.0435572702   17.9026348396    5.2601808979
   4.3679323213    3.2309118578    2.9316674658
  12.0067572463   16.0494485171    8.1887140219
  13.6158581770   18.4459875202    9.3061457930
  10.4366436527   15.1152969833   11.9581467538
   0.1097544223   18.8113998309    9.5695025109
   2.0090106358   11.9801969709   10.9884138184
  12.2254885902   13.8234107708    2.3389646715
  10.8555101717   13.3638757427    3.1108096118
  11.4835147490   18.4766816969   10.7948440128
  12.4073507386   18.2321154181   19.0315632416
  10.9443788258   16.1726325659    0.3438373426
   2.0067155767   13.2963303621   12.0417414540
  11.7987552815   18.4885632321   12.5628255732
   0.4072077774   12.7048449114   11.2866387928
  12.4820269129   12.5373914103    3.5103827752
   4.7937851999    2.5073249049    5.7347688290
   9.6143220393   15.8841967940    9.1755665551
  15.5110551090   13.7968276180    7.9060273136
   9.1954555611   11.6967852887   10.2336633085
   5.1868104042    3.1463199920    7.4155044731
  12.6363417019   15.4243885289    0.8860283299
   5.8458574330    4.7846953840    4.8790498144
   5.9997709827    5.1609282636    6.6271529773
  14.3574379522   11.7377855575    8.0385972981
   5.2293596512   19.8449546538   14.4570415606
  -0.2063174678   19.4606650523    8.0793784723
   1.1080471468   18.2982946541    8.2205767250
   8.7604838944   15.3016468522   11.5071608769
   3.8978860609   16.7355296992   16.0108977509
   2.7454615788   17.2228254291   14.8879684995
  -0.5662604997   13.3327045434    8.3550751191
  -0.8630454375   11.3911157766    7.6747924911
  11.2045082840    2.7979976709   14.5277877284
  13.6493609408   15.5855986401    3.6699671363
   4.7776945276   19.0827223940   16.1402196156
   8.3342748267   13.2898281889    9.8911678244
  15.3927782694   11.1904924166    5.6353780244
   3.3980841085   19.6543765570   14.9171325204
  -1.1327607410   18.8441567985    5.8461891313
  -2.6027965281   17.9638411641    6.3964066988
   7.8545709270   12.1487315819   11.2693219732
   3.0972480682   12.7174524240    9.2388794889
  -1.4011122086   14.4958613780    9.3169362443
  13.0922123935   15.9130436879    5.1696203038
   3.6966957205   14.1845646407    9.8250462388
   0.3976222253   16.9619197472    6.5291647798
  11.3119605844    3.2543325802   18.9380969220
  14.6483505833   10.8065863058    9.5802683331
  -0.8237813394   15.9967872434    6.7910451414
  15.7221951559    9.5538593528    5.1013132321
   4.5418621042    6.6569165606    4.6595559131
   7.1466562790    8.4062511188    4.1536738995
   3.8816956723    7.0332839299    6.0727824661
  -1.1217523003   10.0497647861    8.8205219893
  13.8878390487   13.3889862944    5.6131865877
   0.5649301848    7.0713305928    3.9397975445
  -0.7984821889   10.7560785911    5.7959273920
  -0.7201442343   17.3612268720    2.7961708399
   0.2927819678   17.7677887862    4.2682629547
   1.7915301367   14.9897942767    8.0703131104
   0.8572399012    7.0023118527    2.2902000313
  15.2581686271   14.6623948734    5.4635310112
   3.7590511172   15.0005466239    7.8285578992
  11.4205209103    6.6038815060    3.6655582471
   6.7634900430    7.4095759707   17.1948691421
   2.8628077696    6.1368728779    4.8069093130
   1.1009028181    8.5402406449    3.2499023810
   6.6529748769    6.7823247715    3.6441859847
   8.3264233141   16.7546302468   16.8037309607
  11.2439218370    5.0379414468    3.0563289102
   7.5722604451    6.9521407314    5.1169934445
   1.1798776397    4.7329924918   12.0178396337
   8.2024037337   18.8819948048   11.3312098400
  11.7023420645   10.4019591564    3.7827729163
   8.6072801363   15.5558098500   15.6514780205
  13.3473816311    6.9100770928    6.8161330062
  11.5554676537    8.6114702534    3.3469813405
   9.2840715094   17.3967755812   11.2732321120
  -0.8257422727   18.9492182923    3.7526796722
  11.4886318681   10.5077534572    1.8197473076
  12.7445921650    6.8005713010    1.8403688185
   8.7361459921    5.2336919341    3.2901610374
  -1.2399684794   12.8216479024    5.0390188162
  11.9786630617    8.9146019659    0.9735522397
  12.3800793531    5.2487264314    0.8825510287
  10.0389969457   16.0874561052   16.9570714796
   9.3666228341    6.0856092279    4.7472579346
   7.5459439859   17.2440974335   11.8383543095
   1.7689651414   14.7685259733    5.2204186415
  -0.8585268681   14.0909783758    4.0326327090
   9.1587873828    9.4194431726   10.5045145971
  14.6765397081    8.0037535335    6.2043790197
  -0.9769965498   12.5655380258    3.1488281120
  14.8720802693    7.7843617649    3.1656436004
   3.4356166076   15.3827556912    5.6786710292
  14.6921399860    6.3897143369    5.8164741861
   7.5052567239   19.5097320857   13.2890490978
  15.9528451853    6.8427932039    4.2621953886
  11.9065029436    8.6827264401    5.8582429025
  13.0498505204   10.2569687197    0.7502907972
   3.3759319137   14.0703088475    4.7550833095
  13.3681598906    9.3991541292    5.6081768551
  11.9053967840    6.7811781028    0.1504703589
   9.5250688606   13.3349719201   16.9296705268
  -0.8399801327    8.2709032834   14.0213807933
   9.5445031384   11.9184261816   18.7144786146
   7.2676580520   18.1369265001   14.4731415485
  10.4104954355   14.3265553721   18.3453520404
  14.7451537432    5.4829289363    2.4750199966
   9.5177636013   18.9006919098   15.4175875174
  15.3009977811    6.6842823054    1.2053706270
   8.0151712273   12.9667835719   19.0097821320
   2.0309193706   10.1047782451   16.4556589706
   1.2763688283   14.6729549743   15.4971897062
  10.0676668845   18.4124240441    5.8127693941
  10.4720725737    1.7721708728    6.6316940706
   5.0474054271   11.1320932745    8.2692438780
   3.6412822873   11.0135636055    4.4158199004
  11.6274115327    1.5637748311    8.0476763333
  15.7599355809    9.6317080615    0.4940683473
  15.7920455582   11.5588037891   18.1303909431
  14.5926189083    5.3142460881   11.8639236742
  15.5893316168   13.1602072799    0.9542528123
  14.3820686645   13.5992136826   19.2856091653
  -2.4822882197   20.0330577601   11.7329534227
   2.9446979745    1.5384786768   13.6557452118
   0.3077700526   17.7799404595   13.1161383405
   1.1635440174    1.5343837145    9.8098726649
   8.1080401555   19.9039853145   15.7446648471
   4.2875365929   11.9718613016    6.9236700740
  -2.0441691790   13.8688565478   15.1225581739
   9.5739882908   17.7642447941    3.5323393470
   2.8810036272   10.4163154583    9.3714081100
   2.6144042471    9.6962917413   14.8768476685
   7.8715036342   18.9366559657    5.1666617202
  -0.0407516880    6.9074036732    0.0563904010
   1.8746258927   13.7241349926   14.0115383339
   9.0082019468   11.7567433036    2.8327153934
   1.9230301279   10.9828622630    7.9612879073
  11.1237806451   19.8572361217   14.4998268439
   4.6880860763   12.0637324483    3.4435960473
   2.6786940560   12.7951778098   16.1499479967
   1.7990826610   18.9096215901   13.1638513272
   2.8253214953    1.9137742161   10.4883448082
   9.3825222715   17.1630183740    6.9898908635
  -1.3258714288   12.3247177694   15.6410973574
  16.0553438202    3.7729133026    0.7007986755
   3.4439004853   10.7828515924   15.9095523449
  14.9147455231   11.5955344829    1.6724378168
  12.1654894882    1.3328954345    6.4984326331
   4.9885777840   10.1487195751    3.4535941926
   8.9407463120   10.0826641958    2.0348204279
  15.9213063422    6.7602221316   19.1134249515
   6.5909297592   10.4123530994    6.7286459231
  14.1912335708    2.3242258511   13.9702315852
  -0.3618922656    8.2920032252   17.7822881650
  10.8218030855   16.5452391403    3.6934061402
  16.1907146417    9.1401757771   18.5557931281
  -1.0978856104   19.3128182233   13.7908869915
   0.5007350731    1.7426669499   13.2236716400
   1.3405425490   18.1658411908   11.5856982442
   2.1275080138    3.2432312840    9.7045503408
   0.4717505926    9.6182250283    0.7864800153
  -0.2574992288    4.1968829588    0.3162786322
   0.3588287839   12.0931218920   18.5705361957
   1.2483303962   12.4855413712   16.7174719696
  14.0383812881    1.8919978697   15.7330617200
   9.1292674768   16.0565381588    3.1415999782
   2.0792451940    9.2149224903    8.4288024928
   7.2035256417   17.4940939597    6.0508027897
   5.3075939983    9.2655473048    6.1899684201
   7.7774227497   11.3482781398    1.6178350245
  -0.7495583610   13.8151035140   16.4373087940
   4.9080868340    8.8457961846    1.6065550502
   8.6245533436   14.1585686048    7.5409299440
  12.4631224687   12.9252354169   13.7429836065
   4.1099407041    1.6416116427   16.4785550123
   1.9966592565    3.4388250221   18.1005183731
   0.3741094542    6.2095401530    6.1231836042
   3.9323022396    5.3794485949    0.9527157414
   0.6994761594    3.7168824285    5.0327601779
  10.5216817547   11.4826896542    5.8945125162
   5.5431428333   18.2018179799   10.2593500406
  16.5610871348    1.0353043844    1.7929336509
  11.4335661386   11.0339009901   16.4246881565
   3.0477081229   16.3065749395    0.0958947127
  12.1183845263   17.1523609331   15.8687848904
   5.7792235519    1.3635553420   10.0817015352
   2.1224852955   14.2512622046    2.1030431233
   7.2050644092   13.8126588380    1.6319408297
  11.9094698223   19.4973306879    4.5746649547
   5.9183187994   13.6463506611   18.4901768071
  15.0766675273   15.7922868521   10.7025983123
   3.9438057991   19.0029331346    3.8745563100
   4.9333036276    1.2474336454    2.3885607971
  11.6940058393   16.2132867087   18.5908016545
   6.8164451247    2.6103130862    6.2151004694
  13.4012916914   18.7866887802   11.3056246957
  11.6617218865   15.2162406302   10.0916015813
   2.9568772836   15.6738474044   13.0852873816
   4.6183736097   17.8839048068   14.4124497268
   9.9370707436    4.3276653478   15.5083038854
   9.5685113639    4.1090310909   17.9106747610
  -0.8436896571   17.4601865397    8.2007504976
   9.5141689961   13.3253578717   11.5480832335
  11.9878777943   14.5601601515    4.2529698891
   1.6165010016   13.9575594183   10.0448279863
  15.7003824017   12.5187435136    9.5023562410
  15.7918018658    9.8070653072    7.1305503841
  11.4539418417    3.1058764420   16.9371751725
   4.0339784657    4.9720875111    5.8971718895
  -1.5679194766   17.2321935337    4.6091978929
   8.8316397064    7.2922093398    3.4701948159
   8.2689412019    7.0627893949   15.6146185711
  14.9986986387   13.3065356204    3.8738756928
   2.8554131855   13.6916695839    6.7769154980
   8.7770327010    7.8584101481   11.6543490407
  13.2340792028    7.5090172427    4.8768995463
  -0.8738732792    8.1973806356    2.9004858233
   0.3708669682    6.7938690710   12.2148685630
   8.4848364480   15.0382291835   17.7973261505
  10.6535012031    6.3832003719    1.6709605976
  13.2312891565    9.7038746176    2.7098674720
   9.0098864194   18.0542124071   13.1851244471
  16.5832769245    5.2993915788   11.3031229700
  15.8736174518    7.1781172786   12.4928798944
  16.7140203382    5.4729249170    1.6881691902
   1.8513436171   11.4442880948   14.8271433286
  12.4630986922    1.4592316531   14.3998081432
   5.7003528506   11.2481396540    5.0815669070
   7.7805357819   19.1256581715    7.2581446370
   9.6709928721   11.7508395134    0.9528644624
   0.2118476595   10.1645180065   18.2900069602
  -0.0214097533   19.5615743142   12.0800740802
   1.3523337484    2.7260779600   11.6176381989
  -1.3274504678   11.5263335621    0.2912324929
   9.2681496947   16.4303180503    5.1666865040
  -0.1488033313   13.4724629536   14.4912144308
   3.6035895241    9.9600202998    7.3921017077
