B2 C140 Ca1 F48 H298 O66 
1.0
1.7859559487388196e+01 2.6781774756550690e-16 -4.3100675130902323e-17 
-3.0481796376565491e+00 1.9283542709289403e+01 4.8311199999905959e-16 
-3.5565995198780198e-01 1.5802129596204244e+00 1.9387242496469511e+01 
B C Ca F H O 
2 140 1 48 298 66 
Cartesian
  10.2480487228    3.8990235387   16.8064804551
  -0.9389753425    6.4906180578   11.9767261750
   0.0923779601    1.5971388733    1.4949917843
   7.2147908093   13.8011482023    7.1936047005
   4.7170346081    6.5377620051    1.0191632019
  12.7314512426   12.7594565893   12.4356076055
   4.4228242218    3.0551115586   16.3283641328
   2.2844713498    2.0858852239   18.2274407912
   1.5084151074    2.6730176475    5.5220622068
   2.7223362589    1.4673623571   16.7872548676
  -0.5472757705    4.0497375446    5.8116829859
   3.0623836182    6.6706706984   18.9900410345
   2.1445302510   17.5063855297   18.1791062071
   0.7769721287    4.0142604143   17.3155034612
  12.0081188776   16.0404374928   15.0198489463
   5.0740637079   10.0937767678    0.7765810528
   6.1305920134   17.2250900716    9.4617494765
  12.3221688031   12.1695258115   15.9772686248
   9.6692260197   12.1583952114    6.7941406572
   9.4707601246   13.6501655082    6.4989787865
  12.9476270264   11.9878294465   14.5292939353
   4.0057901874    7.8716550152    1.0302639127
  11.8347777936    9.8836075789   16.7371400911
  11.8331407187   11.8571042568    6.2463604613
  -0.0677048765    5.1779042358    6.8157710427
   0.8588725439    7.4277787725    6.9371858598
   4.6011731523   19.1623296579    9.6355710325
   2.0748292690   16.4662609019    1.1137070987
  15.9879916932    1.6972604796    2.9309984759
   3.6553317278   19.7945714668   10.7286008536
   1.1935697084   15.2109719343    1.5360936581
  13.0894775534   17.0426930460   16.8155239090
   5.3676691743    2.6040059153   10.7271715634
   7.4722531750   13.9887824712    3.0655086665
  14.6682402717    0.9027911747    3.3403736070
   5.8659163027   13.6454954608    1.1209849567
   5.5611822088   15.0314158504   18.9721397032
  14.9830724358   15.4325554833   12.0225741353
   1.9787207362   12.8634074563    1.8208967554
  12.8517441313   16.0683159496   17.9139149662
   5.7659828432   13.6556827111   17.0362864761
   4.9123498099   17.9509155315    3.8926279795
   7.2292978765    0.5063740067    2.7021627830
   6.2935285719    1.7479978729    2.6139185119
   4.2462860328    2.4475453050    2.0957424301
  15.0722282886   17.2118334974   10.4483769506
   6.9952283154    1.2229457301    6.6560074575
  12.2889432824   15.2326748129    8.8407100516
  13.6997689411   17.8148752007   10.2545515945
   3.5832191846   16.2172560254   11.9032377853
  12.9377656682   18.5807811897    4.3230069417
   7.5756712545    2.8636597200   18.1315334911
   7.8426695102    5.2980542604   19.0504013425
   8.0060114846    4.3065448098   17.9526213509
   3.7879008001   15.7216947358   14.2269391501
  12.0293391918   18.9901210512   11.6000861762
  10.2009695489   15.1276594819    9.9629050303
   9.5167948137    3.5170868712   13.1704209691
  12.0685576825   15.8593443958    0.1025923042
  11.9465674712   13.5592682356    3.2867104452
   9.6289379267   14.7759276515   11.3281769443
   5.5180301315    3.1612567362    6.3762117512
   1.5089926061   12.9973172137   11.1579296688
   3.7155078735   16.9743401105   14.9217319568
   0.1003524480   18.5429268896    8.4946497011
  10.5699756961    3.8867707684   14.3534944933
  11.6151001961    4.9670142057   13.9806135390
   5.4575126172    4.6388532729    5.9565307118
   4.4104288385   19.3081258687   15.0377674227
   8.5851921726   12.5609942501   10.6866061255
  -1.5478497187   13.5981098136    8.6898281888
  15.1022866009   11.4978305338    8.7283038518
  -0.6384981061   17.1346559762    6.8785783668
  -1.6936406129   10.7060517295    8.1169410451
   5.9091314202    6.9005964304   15.3854330220
  13.3979936854   15.0151231730    4.4753094948
  -1.5650332021   17.8671527390    5.8947975143
   2.8070841847   13.8079825691    9.3108615571
  16.0452537005   10.3897398465    5.8450468169
   3.7406390232    6.2842552090    5.3123799262
  11.8769213384    2.8844965958   18.2091732717
   2.1822281303    5.6937883353   13.3355260043
   8.9877466481   20.6288103709   18.4146386255
  14.4500262388   14.1094866361    4.8947284783
   7.0003547041    7.6491361331   16.1427814281
   2.7721115846   14.5618049386    7.9516239710
   7.4986394475    7.3969103478    4.0761539708
  -0.7035495545   17.8922287550    3.7977691948
   6.9916890848    9.1774094014   15.9404868379
   9.6405754721    7.7121232158    9.5321006932
   0.4416372902    7.6702782839    3.1905032315
  13.1939414355    3.6407198852   18.5486346014
   2.2005537681    6.1678185574   10.7434787110
   1.3267504518    5.8214643711   12.0173195928
  10.7239035588    5.9905448698    3.0552937694
   9.4128434719    6.0309887345    3.7019358191
   8.8819926465   15.9537163302   16.7296392001
   8.6912185043    8.4637631524   10.4732307690
  12.1784784285    9.4251035976    3.7588262915
   8.5205886770   17.9038561849   11.8722882438
  -1.4325756216   13.1897211083    4.0518845352
  14.0702469232    7.1862829112    5.9850174093
   7.2160645943    8.7332285879    9.9188408786
  12.4733029809    9.8369555626    1.5735263714
  11.9610913077    6.2980694588    1.1418092175
   2.8330386792   14.5535402937    5.5361930278
  12.6636022293    8.8099071735    5.1221676239
  15.8954472344    7.2295435038    3.2366989037
   8.0075058380   18.8185550957   13.9061433581
   9.3840615534   14.0012062305   17.9462741238
  14.9639057922    8.2880049100   14.5337375248
  16.0084437850    8.3161087081   13.4360794423
  15.6296704615    6.1353367169    2.1767569871
  15.2630924088    3.4634679063   10.9862732122
   8.9956459213   12.9678171824   18.9400405012
  15.1909646342    5.0056541664   10.9917497210
   8.7330531371   19.5375548995   14.9227060442
  14.5444952033    5.8196632784    9.8608572652
  15.9270493391    9.6511771100   12.6258877734
  11.1847501717    1.1972144225    7.1094619707
   2.4366968286   10.5264421295   15.5621267333
  -1.7081510330   11.7500603337   19.1739146920
   1.1171014118   13.7970343561   14.8767496961
  15.4034032961   12.1037092927    0.7070976330
   4.5554724613   10.9858897617    7.3038505663
   4.7313490113   11.0770779855    4.1161216870
   9.3005265081   17.5248694074    6.0193992430
   7.9830056036   18.3373399343    6.0457919721
   1.6831167840   12.7159108351   15.7742272945
  -0.7836119577   20.1997941076   13.1003812835
   1.0600798219    1.5757489780   12.3608349033
   0.8982217113   18.5742316171   12.5268925457
   1.8243388435    2.3386976894   10.1926685740
   8.8695493500   11.1509506975    1.9740864381
   2.5570629436   10.2296943129    8.2915780809
   5.6229125025   10.4835130437    6.2958205639
  13.8403952925    1.5735820528   14.6381590296
  -0.6121290543    9.0597088578   18.5235168711
  16.6290229298    4.7044940419    0.5594514707
  -1.1918360233   13.4498420199   15.5098579119
  -0.2250886084   11.3218822485   19.1254977099
   9.7177132709   16.7938240956    3.8177010447
   8.5285004329    7.1658930866   13.4557603787
   7.5549934963    2.1866113939   16.8749158339
   8.5206284259    6.4461798910   18.7625997633
   9.2389961910    4.7538003836   12.4749659812
   8.3633593285    2.0831041249   18.8660843098
   8.6804350460    3.1630532553    0.8057991274
   6.3649274690    2.7689748951   18.6397145533
   6.4482356773    5.6240658046   19.2751191359
   8.3500441757    3.1018462958   13.6685183827
  12.2448975845    4.5323507161   12.7569742665
   9.9856958832    2.6093661601   12.2674275560
  12.5909421438    5.1305631303   14.9251483170
   4.6388229747    7.2165340412   15.7309376067
   6.1144313576    5.5488014139   15.5833427042
  11.0484578797    6.1608415952   13.7417868717
   6.0263362539    7.0684447244   14.0390979225
   3.0146378337    4.6200768148   13.3151750306
   7.9754160380   19.9076744661   17.8848466611
   2.9506384795    6.8758820025   13.5901321205
  10.9102028641    7.9948443193   10.0400908941
   1.4966462544    5.8960724091    9.6241868375
   6.9638375220    9.6242594461   14.6877028209
   8.2833429805    9.6261664848   16.3966836387
   1.4029395590    5.5996837165   14.4762235437
   9.6486255813    8.1525759179    8.2622533895
   9.1529991729   18.9689181115    0.4067130132
  14.2355553417    3.5614989830   17.6632274078
  10.1989501585   20.2596920746   18.0158079763
   3.3283415008    5.4078146205   10.6692396924
   9.3966175256    6.3472927256    9.5347883496
   6.4599283505    9.3002098558   10.9550021081
  13.9506812026    1.8012352200    0.4415452698
  12.8388363808    4.9177400993   18.6400142288
   6.0923516824    9.8186982927   16.6672603724
   2.6239407143    7.4108720991   10.5048233302
   6.4862250475    7.6848091850    9.4532798029
  15.1954557412    9.3266448787   15.3345474642
   7.2593374745    9.7063953843    8.9913564911
  13.9537002352    3.0519693505   11.2110801699
  13.6030023719    8.5048194617   14.0317648369
  14.6408159270    5.2150985755    8.6192832545
  15.6256766442    3.0486584809    9.7334148308
  14.9691993096    7.0918692681    9.9313313174
  15.0475478940    7.1187602222   15.2289420501
  -1.1114303633    9.5309102415   11.4584767652
  16.0792450302    2.9264727698   11.8575860501
  -1.4431204435   10.6217660787   13.4739658942
  13.2531764574    5.8613014400   10.1319995194
  14.7857059603   10.1525478788   12.2032312694
   1.4795640286    1.5206961271   18.5440526501
  11.8640039348   13.1801648220   16.0806426059
   1.8707456313    2.1645796547    4.6138306578
   5.3403534347    6.3935758888    1.9398964874
   5.3516093897   16.9740339029    8.6785715313
  10.0061688500   11.8830243486    7.8060405860
   5.5175937721    6.7368441389    0.2159494312
   5.3551484559    3.0799191526   15.6201444446
  16.5501663342    4.3872805157    5.1730031622
  -0.0300520211    2.6348558132    1.7781382006
   1.1544857371   18.0575826360   17.9880827134
   0.2504079045    1.5867751461    0.3823496275
   6.4334887191   14.1564009827    7.8838525203
   0.0774178507    4.4652339897   17.9225017993
   0.8204800755    1.1934210177    2.1717741216
  12.4205291528   11.7632332137   12.1103423830
  -0.4059445566   19.6488300662   16.8457309275
   6.9227205849   14.0453666962    6.1858197384
  12.9203420728   15.7677314042   14.4405248091
   5.9655912583   10.6125677535    1.0787196335
  13.7541059894   12.8938616983   12.1995966842
   2.7097161794    5.6095983219   19.1408127427
   2.4472787966    7.4691744986   18.6139519647
  11.4613472738    9.6732003039   17.7394635208
  12.1734041902   11.3594320342    7.1986003677
   0.9740565507    1.9660642767    6.1514106341
  16.7860877544    3.1202916295    6.2206946119
  10.3565753846   14.3645640939    6.4714501703
   4.6629640486    3.5404139663   17.3031800165
   5.1903079226   19.9055773217    9.1322334825
  11.9109856824   15.2098862365   15.8142828279
  12.6291210694   11.0280970851   14.2028018312
   1.9438494428   16.4148053502   18.1857741206
   2.7925861146   17.8716379295   17.4308681758
  11.1748437835   16.1773215778   14.4214094443
   7.0737392912   17.4682982895    8.8871620354
   0.2380589523    3.2117528431   16.7986806430
   2.6934120311   16.7680553713    2.0134261192
   1.1711761844    8.0100688126    6.0598226566
  13.2388953313   12.2187688897   16.5429016740
   2.3961273612    3.1239552740    5.9581374314
   6.2266663681   16.3250226111   10.0204233724
   8.7551102702   11.6101195798    6.7338135592
   4.1031209811   10.6678706750    0.8929140782
   7.1990955966   12.6837970096    7.2279637901
   4.8395363124   11.2850386520   19.1408117232
   3.9611206452    6.4518861937   18.3535721779
  12.2430385285   13.5073767206   11.8168608160
   3.0886400853    1.8409209249   19.0137994242
   3.6457749634    3.6976898136   15.9394449896
   1.2581000275    4.7798184487   16.5261763220
   2.0618384941    1.9884940626   16.0852238424
  16.7500051975    1.5658982565    3.7156632569
  15.7285303502    2.7133502926    2.7071863382
  12.9763408404    9.9456909968   16.7075339076
   3.0380415835    7.9537297464    1.6294358904
   3.3290349642    9.8362456033   19.3829363890
   1.6299456458    7.0732931988    7.7140724274
   0.8026448735    4.8326663720    7.4885499296
   1.4468973817   17.3733999358    1.0116811599
  12.3729807186   11.6967589231    5.3644716973
   7.3702057247    1.1873947561   11.4312492086
  11.9058019104   12.9351291711    6.4221466576
  11.4462156770    9.0949207003   16.0640608079
   8.8355440147   13.7830602268    5.6420466544
  13.9923011905   11.7647797319   14.4769374127
   3.9659886090   18.5762339236    8.8834432662
   7.1040867534   14.9143895742    3.4826941625
  -0.8424905215    5.4956359583    7.5415690615
   0.0680093930    7.9433646789    7.5274587494
   5.3222647638   14.6259976945    1.3082151196
   6.2981453057    3.2652641394   10.7801652920
   0.7583067155   14.8287067847    0.6169146318
  13.3530169298   18.0768046402   17.3234797231
  14.0767958599   16.7735080400   16.2671942218
   4.6468341859   15.3220380357   18.4671852857
  13.8948782421   15.5586557857   12.3460610884
   8.5955175166   13.9286124419    3.1696724129
   4.5608837557    3.2095454109   10.2296000448
   3.1504568912   18.9970226703   11.3436773366
   5.6913360901   12.5515140102   16.8406686544
  15.2589798403   14.4119747498   12.1920731356
  11.5572679689   19.4263296800    2.4748935692
  13.6544075263    1.3242822865    3.5270418851
   4.5132703268   17.1516040305    4.5297382192
   6.3057719715    0.9034110850    7.4476659625
   3.8892743162   19.1944704776    1.7822401562
   0.4155838105   15.4375857215    2.3225648659
   6.4037365635    2.1569468036    3.7236292054
   3.1355448443    2.1515663739    2.0335515089
  -2.1490048504   17.7993891091   11.1621032259
   1.1352850625   12.5274737456    2.3825036113
   2.1545241498   12.5347551508    0.8101060923
   7.0522915013   13.0946469529    3.6174736083
  12.8030589435   15.0263065473   17.5147762764
   4.9393010482    2.4644055009   11.7921468988
  13.6524571376   15.9839889926   18.6878294687
   6.6130357740   14.2491440099   16.5431257345
  12.0603681253   14.3190301744    8.1967663831
  12.9894727836   16.9151488229   10.3156988879
   5.2124261245   12.8302529391    1.6087196055
   2.8645444776   15.9826441010   10.9930858313
   5.8476031469   18.2949889571    4.2948548356
   4.5440457381   15.6174086014   11.8949668268
  13.3805119788   15.2442885742    9.0132511253
   4.6495015037    3.0711715417    1.3000572664
  -2.3015163963   16.1696188692   12.6204361639
   6.3474799362   15.6890234337   18.5575909296
   2.8412611857   12.4588998111    2.3226031173
   8.0068592407    1.2809015666    7.0901111420
   7.0027242353    0.5826103376    5.7331415931
   4.8356656504   14.1424786407   16.6804536607
   7.6208781344    4.7212191960   17.0221582587
  11.8445244006   20.0630685405   11.5269535605
   3.6958015259   14.6966858154   14.6744453727
   4.8252235417   15.7632947070   13.6964922226
  10.0884764795   14.1858195464    9.3255164183
   3.8661070482   17.2573244991   11.8251688661
   5.1452571199   17.4729515113    2.9225102923
   8.2730411053    0.6380017663    2.5503352517
  -2.0832786918   17.2563771540    9.5105569182
  13.9761961161   19.0393794506    4.1021043223
   6.6378205914    2.4344692134    1.8308252782
  12.6135902774   18.0085381485    3.4571748952
  13.0137937298   17.8870405424    5.1961472785
   4.3015176280    3.1437222512    2.9340858635
  11.9867837816   16.1989110250    8.1362780360
  13.6606831186   18.3535782828    9.3624035290
  10.2819100691   15.2517285598   12.1027765969
  -0.1075703633   18.7778342682    9.5557723457
   1.9827067751   12.0701316861   10.8009308970
  12.2798579819   13.9326627916    2.2491321772
  10.8931122337   13.2558787879    3.2846675336
  11.3384864119   18.4133064033   10.8471540711
  12.2753085357   18.2838200883   19.1522923457
  11.0349061363   16.1861277483    0.2118120035
   1.8677773149   13.4042352510   12.1327613589
  11.6884173387   18.5562569565   12.5669911961
   0.4459921808   12.9515518952   11.2569175323
  12.5649689559   12.6783800455    3.4841813059
   4.7736534990    2.6243040285    5.7424872491
   9.7226117010   15.8114308807    9.3579102765
  -2.1797624256   13.9557621053    7.8710128747
   9.2116240835   11.7551095727   10.2626039662
   5.2084347798    3.0943694621    7.3990660586
  12.4270910397   15.5865289677    1.0969886019
   5.7997443547    4.8136576466    4.9068242600
   6.0263170366    5.3782630487    6.5655451718
  14.3500176368   11.7920547690    8.0024730290
   5.1700026382   19.8009415354   14.5833368404
  -0.2763934810   19.4608438189    7.9078974417
   1.1454861037   18.3309652025    8.2578204892
   8.6275712647   15.3808977035   11.5501225407
   3.8857347846   16.8480256615   16.0331224194
   2.6120745113   17.3504705797   14.9791177748
  -0.5052787138   13.4170649217    8.3425273714
  -1.0231393639   11.4452209835    7.5819623995
  11.1421555187    2.9908346257   14.4885960894
  13.7593350687   15.7315984489    3.6042354221
   4.7672586536   19.2396204117   16.0513641838
   8.2721967082   13.1546529497    9.8642090219
  15.2378440786   11.1812914300    5.6467641682
   3.4780640693   19.7549812366   15.0338832635
  -1.1357903706   18.9114907531    5.8418345345
  -2.5306189730   18.0851960836    6.3688004246
   7.6971575494   12.0992295484   11.2625680997
   2.9721841779   12.7081531488    9.1948605938
  -1.4847452001   14.4331916661    9.4218338228
  13.2204722128   15.7393332390    5.2911126417
   3.6766979007   14.2230318631    9.8877598615
   0.4925163346   17.1370287090    6.6472188725
  11.1348300776    3.3357113102   18.9732096054
  14.6384211851   10.8985713314    9.5167258255
  -0.9679580869   16.0500587114    6.8199380937
  15.8137270629    9.5951095652    5.1702250583
   4.5029793905    6.6620176896    4.6059501941
   7.1080860181    8.4311070521    4.0647018482
   3.6832068392    7.0938225999    6.0722511406
  -1.1676702026   10.1326718853    8.9029782354
  13.8640875352   13.3777601198    5.5360677772
   0.4860770421    7.0380644415    4.2034740566
  -0.7750020346   10.8054693215    5.7696001557
  -0.7864419480   17.4945910314    2.7295431454
   0.3499484660   17.7502857752    4.1794630662
   1.8423535578   15.1062919812    8.0185531994
   0.7568198987    7.0354865460    2.4170005853
  15.2158711395   14.5810945163    5.4223446815
   3.6913178994   15.2213879677    7.8364639312
  11.2864756436    6.7711342739    3.6080240715
   6.6266426679    7.5910547164   17.1460904820
   2.6743369377    6.1569860406    4.9212559665
   1.1398702311    8.5702800229    3.2725000179
   6.8042628559    6.7814816272    3.5047942657
   8.3300359670   16.8871681160   16.9834603968
  11.2730037773    5.0773757474    3.0451990829
   7.6270117138    6.9932763443    5.1094634371
   0.9281235383    4.7626773210   11.8804267394
   8.2796100300   18.7583879816   11.3033482874
  11.5792046814   10.3821636283    3.9570518699
   8.5596532108   15.6304780372   15.7320478824
  13.2842352258    6.9691372408    6.7514165205
  11.4141304780    8.6995201639    3.2562033647
   9.2283964026   17.4254112834   11.2017013741
  -0.8076781952   18.9868210268    3.8219915405
  11.7341623925   10.6340212118    1.6659933397
  12.6420809724    6.8445601653    1.7253860906
   8.6702158001    5.2644765043    3.3099284487
  -1.1465818560   12.7678096338    5.0346747258
  12.1239976392    8.9750473355    1.1539422544
  12.3624929133    5.3643426781    0.9231099447
   9.9277449523   16.1360121267   16.8512221380
   9.6096731663    5.7968537442    4.8481713060
   7.6692415414   17.2771912727   11.9085611852
   1.8192693501   14.7857074753    5.2772933256
  -0.9214687098   14.2005827880    4.0949105151
   9.1289438038    9.5319631189   10.5178033066
  14.6662055788    8.0585214175    6.2233422995
  -1.0320222560   12.5451655318    3.2898554841
  14.9529790853    7.7021196537    3.4003224386
   3.4787591288   15.5435771263    5.7239539232
  14.7604499313    6.3220396710    5.7433442633
   7.3573477568   19.4891429154   13.1582425457
  16.0566348925    6.9304169104    4.2627243879
  11.8381355200    8.7617718012    5.8520207176
  13.0678450373   10.2449238772    0.7376862963
   3.2255822979   13.9455834333    4.7106141841
  13.4627887250    9.4781758498    5.5224174050
  11.9361809070    6.9182423903    0.1937989720
   9.4433983418   13.4262108908   17.0538243430
  -0.8546076402    8.2652225169   13.9582059222
   9.4683110620   11.9981622252   18.6807312923
   7.2004715974   18.2160809279   14.3399517012
  10.2745752113   14.5363028930   18.2364783077
  14.7891301775    5.4998498611    2.4435142661
   9.5578667666   18.8774503154   15.4262900610
  15.2513986806    6.5560111362    1.1880598003
   7.8695135356   12.8784753663   19.0354011296
   1.9303054004   10.0506060768   16.4328118489
   1.1395303560   14.7749087606   15.3588156571
  10.0614415155   18.2181793711    5.7433072211
  10.3254108306    1.8622150789    6.7926374994
   5.0289979055   11.1413924816    8.2882743575
   3.6649028130   11.1947605831    4.3567924228
  11.5537276420    1.6132142339    8.0943873765
  15.8883748092    9.5060376408    0.3528894029
  15.7584926516   11.6681494790   18.0719760910
  14.6701496377    5.2568442752   11.9431487618
  15.6580092185   13.1219201988    0.9381402558
  14.5020500075   12.0804966793    0.0119416186
  -2.5864663801   20.1045377247   11.8954765678
   2.8485900660    1.5701105940   13.7512867503
   0.2653973913   17.8556036554   13.0189625391
   1.1223692517    1.6111674017    9.8386400422
   8.1307816432   19.9864952184   15.6760059352
   4.3175446150   11.9864201420    6.9095138639
  -2.0497466520   13.9654280777   15.0367531586
   9.5651103345   17.8868972599    3.6169093837
   2.8609221630   10.4798282480    9.2830783011
   2.6891475322    9.6221924109   14.8557971742
   7.9237267008   18.9342010912    5.1582568820
  -0.1155577961    7.0072041831    0.1240688003
   1.7160325085   13.8527467575   13.9209252363
   9.0349631912   11.8150075639    2.8876141329
   1.8855262487   11.0448357627    7.9676470545
  11.2543784172   19.7795601038   14.4551290836
   4.7721209826   11.9528179907    3.4874023341
   2.7904698425   12.8935873507   16.0583659512
   1.7751794979   18.7276560662   13.1879176367
   2.8675126259    1.9263522388   10.3010180988
   9.3334000541   17.1431678520    7.0938341845
  -1.4136396678   12.4168401662   15.7774876793
  15.9104025568    3.7333369750    0.6195850165
   3.4426311576   11.0415353868   15.8967599904
  15.0130990360   11.7783529118    1.7731305074
  12.0777470588    1.3846874341    6.5286833033
   5.1552774556   10.2617237004    3.6338242632
   9.2020147930   10.1107421108    2.2401589574
  15.7949872816    6.8734051901   19.0064100811
   6.6842063803   10.5237770319    6.6945262759
  14.0934245142    2.4269307715   13.9602881096
  -0.3387889490    8.2829361714   17.7233792008
  10.7166560675   16.4677819297    3.6448657542
  16.1875116405    9.3064247305   18.3531060242
  -1.2744294298   19.4136922210   13.8244734688
   0.4910415180    1.9711906874   13.2916741550
   1.2626986466   18.0297244038   11.6411781311
   1.9268807695    3.3222340795    9.6043931262
   0.4776219556    9.5417522950    0.7975527885
  -0.2416340480    4.4242190790    0.3727801330
   0.3542846524   12.2157741542   18.8041173763
   0.9720737738   12.4022778914   16.5640654810
  13.9982988953    1.9508419803   15.6195099508
   9.2207162048   16.0556459153    3.2183327749
   1.9591055865    9.2750667655    8.2938239235
   7.2220106188   17.6093350501    5.9077026383
   5.2184078546    9.5362776517    6.2180547678
   7.8270466979   11.2360096365    1.6444848348
  -0.7623209658   13.8543280588   16.4731601590
   4.9452858627    8.8358152481    1.5762007840
   8.5252909096   14.2477421646    7.4946129400
  12.4635204202   12.9671349426   13.7400597056
   4.0861571237    1.7157176176   16.4885275948
   1.9641679086    3.5196763076   18.0980063041
   0.4534818858    6.2700957647    6.1312794395
   3.9370232953    5.3546714954    0.9284750751
   0.6177320276    3.7146381020    4.9933281040
  10.5220005136   11.4624628365    5.7971963019
   5.5419779185   18.2056783754   10.1712439067
  16.5223706216    1.0198722140    1.8100064960
  11.3863434827   11.1595910206   16.4012242292
   3.0486068468   16.2702530038    0.1036128784
  12.0837004831   17.2115848961   15.9012745577
   5.7589249113    1.3837556011   10.1296042716
   2.1457773622   14.2253982108    2.1167804974
   7.2091250531   13.8264401920    1.5868006752
  11.9493681939   19.5280460922    4.6186125085
   5.8644442487   13.6940681596   18.4831720327
  15.0864151173   15.8241693584   10.7013173506
   3.9850222465   18.9729399509    3.8948791647
   4.9602885335    1.2616117235    2.3747413411
  11.6418606113   16.2877433343   18.5922387390
   6.8122143175    2.6257835548    6.1926777415
  13.4344313050   18.8267923868   11.3054365370
  11.6240221047   15.2521123121   10.1351798139
   2.9386584409   15.7697645458   13.0125933265
   4.5661141625   17.9658323110   14.3758129889
   9.8592607046    4.3193819030   15.4926879994
   9.4737674333    4.1243651510   17.8876358263
  -0.8216563986   17.4570924104    8.1683982099
   9.5285329129   13.3724967234   11.5674958131
  12.0546228848   14.5704144131    4.2452635811
   1.6080680366   14.0057221507   10.0452101006
  15.6958459798   12.5903011953    9.5255570750
  15.7746314903    9.8217676612    7.1200596359
  11.3681646902    3.1949572537   16.9554526173
   4.0141244577    5.0462107312    5.9611219894
  -1.5658867691   17.2398804939    4.6192033294
   8.8368985509    7.3034656555    3.4647364376
   8.1368506022    7.1061990111   15.6120956533
  14.9862207938   13.3326059766    3.8665230926
   2.8254465621   13.7295047885    6.7108747730
   8.7698452106    7.8936302294   11.6641920222
  13.2957940107    7.4863146697    4.8892951023
  -0.9321212391    8.2418455921    2.9498380069
   0.3566131663    6.8059350157   12.3157166401
   8.4127124700   15.0690112159   17.8045220534
  10.5999898805    6.3708240252    1.6627957503
  13.2406683061    9.7345311103    2.7578661443
   9.0211199556   18.1808895050   13.1683764877
  16.5322054060    5.3712609747   11.3375034652
  15.8379783515    7.2673424879   12.5141180924
  16.7996226153    5.5036754493    1.6937349295
   1.7693050990   11.5194714019   14.8863510036
  12.4304679167    1.4300064439   14.3530958509
   5.7330060813   11.2408606683    5.0950187149
   7.7766094080   19.1584092097    7.2411877683
   9.6590757156   11.7508456521    0.9665957718
   0.1361400108   10.2634140978   18.3238622443
  -0.0069477386   19.6072592097   12.0704826670
   1.3546741570    2.7310780668   11.6026567107
  -1.2689905349   11.5209556109    0.2585403817
   9.2355706479   16.4155357369    5.0941649729
  -0.1868535177   13.5070341998   14.4619266459
   3.5805766568    9.9563128342    7.3843649554
