B2 C140 Ca1 F48 H298 O66 
1.0
1.7760351878394850e+01 -1.6590872434104496e-16 2.9915426630116829e-17 
-2.9560275545180201e+00 1.9216185329711056e+01 -1.9989446307585046e-16 
-6.5934473346873324e-01 1.4595134602959303e+00 1.9471570901854083e+01 
B C Ca F H O 
2 140 1 48 298 66 
Cartesian
   9.9389880701    3.6261680627   16.8142093161
  -1.0851267479    6.3984609734   12.1593913813
  -0.0848668000    1.5310613343    1.5009812162
   7.0257555657   13.6724955439    7.0420664735
   4.7253916607    6.5752167703    1.0676413370
  12.4944163467   12.5633819473   12.4491048353
   4.3075173346    2.9459927262   16.2819190070
   1.8967068487    2.0089539494   18.2458389852
   1.3239826695    2.7787501749    5.4225176031
   2.5190969171    1.5176117319   16.9937948360
  -0.5904527878    4.1527326866    5.8156907270
   2.9203388857    6.4828008311   19.0434050148
   1.8173627922   17.2474720335   18.3195632633
   0.6590994207    3.9527661507   17.5625724810
  11.6984357147   15.8742436970   15.1762661081
   4.8437420844    9.9580206649    0.7147091309
   6.1107728681   17.1634193151    9.4039510177
  12.2753550284   12.0583928549   16.1598349079
   9.5695143952   12.0964043574    6.6836068528
   9.3352908757   13.6133196625    6.4890079427
  12.6180226708   11.8935051078   14.6694411331
   3.9356576596    7.8100365285    1.1040862782
  11.4124888986    9.9644881392   16.7734427780
  11.7592024371   11.6471334003    6.1623322976
  -0.0681050478    5.1977388174    6.6905471967
   0.9355841017    7.4462880127    7.0005777432
   4.3594129760   18.9778522618    9.6742708029
   2.1451745510   16.3732719571    1.2366204197
  15.8590032021    1.6806754600    3.0108388651
   3.5415554384   19.5102314277   10.7649897725
   1.2902758570   15.1541936301    1.5298058971
  12.9317760002   16.9621127800   16.9977710019
   5.3053952654    2.4517104473   10.8898634017
   7.3756830903   13.7937070765    3.0473166769
  14.5964278411    0.9989419995    3.4875620402
   5.9626062029   13.5814936323    1.1542102106
   5.3463403556   14.9480390055   18.9995038838
  14.8414663869   15.3213863483   12.1306075116
   2.0941397590   12.8755778475    1.8305080591
  12.5477241252   15.8681441191   18.0909628108
   5.4312641542   13.6482615758   17.0977981686
   4.9950305469   17.8161919579    3.9761453001
   7.2074775833    0.4492251455    2.6658706682
   6.2302095770    1.6605644502    2.7067457098
   3.9844420177    2.3235649980    2.2911281985
  -2.7051316361   17.0964918436   10.4649828519
   6.9183234966    1.2812426438    6.5918501113
  12.0649143943   15.1379586903    8.8788636988
  13.5707222439   17.6355182990   10.3707351231
   3.5437898583   15.9315101098   11.7748681841
  12.8677989119   18.4075780344    4.4026316467
   7.1641534844    2.6661965975   18.2560804510
   7.4802529788    5.0944936681   19.1465317734
   7.7930594348    4.1047636248   17.9714001508
   3.6396444195   15.7161704261   14.2467487981
  11.8639840676   18.8040381069   11.6987526436
  10.0297649810   14.9322971464   10.1931083117
   9.3011875521    3.4631593860   13.2785230224
  11.9634134844   15.7435474593    0.2827284916
  11.9755340627   13.4784537114    3.2636409232
   9.3486978383   14.5050062171   11.4717672434
   5.4008765469    3.2119269635    6.4883916185
   1.4024302442   12.9948255197   11.0130193789
   3.5421577554   16.9585427616   15.0626246085
   0.0671385155   18.5060499347    8.4976408651
  10.3099386333    3.6243093835   14.4288591925
  11.3891932962    4.6519328563   14.0413402120
   5.3771678179    4.6889688671    6.0886956037
   4.3525875945   19.2089964702   15.0829156673
   8.5069631932   12.4895596142   10.7509160669
  -1.4846158178   13.5833746871    8.7554929653
  14.9119834217   11.5224224503    8.7539806901
  -0.6870393224   16.9059150995    6.8388425368
  -1.7002585226   10.6344409750    8.1371511951
   5.6635366476    6.8168624538   15.5396950498
  13.4138000441   15.0410340635    4.5158529441
  -1.4881474701   17.8221348686    5.9217050307
   2.7709549381   13.6581236785    9.1772250676
  15.8002292332   10.2407448815    5.7483079665
   3.5473023747    6.2789769017    5.3673539987
  11.5701802876    2.8302218396   18.3338031073
   2.0108310756    5.6285686594   13.3756207309
   8.8382195294   20.4570211380   18.6200383601
  14.3697678510   13.9393631092    4.8831701694
   6.7864605544    7.5730343808   16.1981484727
   2.6773903986   14.5995514709    7.8953149487
   7.4447748879    7.3888743716    3.9651129221
  -0.6461218717   17.8528187636    3.7637770509
   6.7426369006    9.0984643737   15.9906456615
   9.4191371966    7.7271704930    9.5266888448
   0.2546694507    7.7137660447    3.3831623604
  12.7491367058    3.6734691801   18.6472314758
   2.1107083239    6.0295597966   10.7646587124
   1.2446983425    5.7782182469   12.0778984836
  10.6428907197    5.9709837472    3.0529047023
   9.3236154638    5.9257697864    3.7037900431
   8.5785533202   15.9149196381   16.9729845838
   8.5413389736    8.4279158234   10.4985372824
  11.9575857512    9.2617320243    3.8644024337
   8.4185610208   17.6905485527   11.8411980181
  -1.4271654527   13.0938166152    4.0980291730
  14.0234323301    7.0657879467    6.0773435989
   7.1011838139    8.7186626403    9.9175899238
  12.6653070935    9.7470756747    1.6425820934
  11.8356948536    6.3288145441    1.0738074924
   2.7513681902   14.3940343790    5.4916450160
  12.5620956777    8.6536119379    5.0662571196
  15.8177351593    7.1755563528    3.3344464220
   7.8525013928   18.5689221330   13.9142836487
   9.0559793427   13.8369301734   18.0344830022
  14.7565167467    8.2427730326   14.5947031934
  15.7668844418    8.3140448140   13.4924973330
  15.6180919004    6.1775945992    2.2177723454
  14.9366301446    3.3829839321   11.0184308649
   8.6184923273   12.7908902322   19.0567824385
  14.9690286878    4.9552697441   11.2147089947
   8.5530523448   19.3613792446   14.9912607282
  14.2609379736    5.6465638629   10.0581175791
  15.6849716727    9.6807576645   12.7095893730
  10.9709483422    1.1460692660    7.1634395540
   2.3496236532   10.4082178682   15.6491575323
  -1.8484286108   11.6280756081   19.2202722018
   0.8554872043   13.6951800718   14.8784208293
  15.4343229703   12.1184435337    0.7572508409
   4.4943094654   10.8593527235    7.3528238111
   4.8356475661   10.9315315683    4.1951241278
   9.1205001604   17.2250322161    6.0523608041
   7.8969994056   18.2194902989    5.9979672355
   1.3681158028   12.6653309086   15.8507771311
  -0.9042790020   20.0902371798   13.1189755165
   0.9038032709    1.6922646915   12.4487686264
   0.6633179192   18.2753034653   12.6170119281
   1.4998143292    2.1981609748   10.1032566521
   8.9719963359   11.0310459793    2.0583420850
   2.4414602876   10.2231541547    8.2376085416
   5.5794876052   10.3677040896    6.3754149782
  13.6061367084    1.5121904782   14.6000888467
  -0.7995957059    8.9724948982   18.4681691300
  16.6119822184    4.7439139239    0.6044560454
  -1.4066757953   13.3057141667   15.5377710728
  -0.3192703613   11.0897816040   19.3304315458
   9.6120951845   16.7483777013    3.7204109832
   8.2534585868    6.9590970834   13.6178261771
   7.1101592600    2.0571916068   17.0118859952
   8.1401201386    6.2119522578   18.8879622656
   9.1259375025    4.6288448755   12.5593671950
   8.0424121785    1.9475660894   18.9733884318
   8.6112553653    3.1633499532    0.8445802196
   5.9268687118    2.7463120553   18.7679222664
   6.2036856912    5.4502349824   19.3610870629
   8.0779701921    3.0562850743   13.7805866923
  12.0064195862    4.4718755787   12.9300412812
   9.6818050324    2.5707464493   12.4279120806
  12.2299844369    4.8485595287   14.9947350346
   4.3563105599    7.1838246725   15.8738599638
   5.7526861657    5.4902594749   15.5867443711
  10.6836958180    5.9981732748   13.8039127037
   5.7558837648    7.0451281194   14.0850537141
   2.8522630064    4.5810910808   13.3966687954
   7.8354919968   19.7574752850   17.9897960763
   2.7336354388    6.6988875267   13.5355652361
  10.6939560385    7.9692380776   10.0126534870
   1.2537067238    5.6727139232    9.6754085974
   6.7264089622    9.4089739640   14.6042157636
   8.0040789223    9.4579763506   16.4918365571
   1.2096544445    5.4055639885   14.5356259162
   9.5090800227    8.0749393568    8.2583359651
   9.2820538989   18.7511336561    0.4623643394
  13.6873827856    3.3702166602   17.6327252191
   9.9981881972   20.0534572902   18.1111099327
   3.1238040560    5.1317215038   10.7615702165
   9.0855841254    6.3998507515    9.5381867153
   6.3573560257    9.2454558583   10.9846448979
  13.9789819461    1.8150310537    0.3624320027
  12.4197156210    4.9575480455   18.6928219710
   5.8220399586    9.8122717009   16.5616750079
   2.6674182531    7.3224082435   10.5252600781
   6.4782212871    7.5998028847    9.4513602783
  14.9924267893    9.1558754667   15.6199528334
   7.2087889321    9.5695202557    8.9173126355
  13.7712478552    2.7749235183   11.1476409054
  13.5026989514    8.5597431738   14.1949250742
  14.4792418560    5.1168941138    8.7429471123
  15.4091970040    3.0211309687    9.7374898903
  14.6695754097    6.9298239635   10.0712680307
  14.6054085915    7.0466344258   15.2288640163
  -1.3860636346    9.4528790571   11.5548540063
  15.8036322852    2.8995456113   11.9524786243
  -1.3870562323   10.6091015012   13.4169430113
  12.9110426880    5.6174241381   10.1512917951
  14.4010114727   10.0118059808   12.3417498031
   0.7760730608    1.7097466175   18.4722738847
  11.9594905973   13.1432813240   16.1434345765
   1.7985584068    2.1071563851    4.7151636431
   5.2072793240    6.4673988503    2.0492018776
   5.7474031878   16.7973970715    8.4697171827
   9.9270538363   11.9579705854    7.7538263956
   5.4681265645    6.4720650488    0.3121202793
   5.0257925433    2.8913054457   15.5061237719
  16.2560044409    4.3890746299    5.1711594405
   0.0836994289    2.5854550718    1.8608638690
   0.9396119215   17.8389224605   18.0604252158
  -0.0894108858    1.3948104713    0.4047871320
   6.2918713657   14.2146118892    7.6883562587
  -0.1310751923    4.2548477421   18.4403832771
   0.6735635273    0.8391880151    2.0573748184
  12.3026572760   11.4761547104   12.1630206263
  -0.7888791509   19.6830805897   17.0094694925
   6.7683737674   13.7958199906    5.9685647254
  12.6908780439   15.4918983930   14.8301668969
   5.7014312295   10.5185058892    1.0904986812
  13.6092089092   12.6798288711   12.0664298951
   2.5944695094    5.4830084638   18.9865546115
   2.0865886750    7.1925544884   18.7375369235
  11.1452442824    9.8664324340   17.8827422597
  12.0937274089   10.8717484078    6.8251868946
   0.9371183361    2.0532837508    6.2195592762
  16.9444300660    3.3900088583    6.5849043699
  10.2473287965   14.1277138560    6.7325698243
   4.8188254809    3.4510449224   17.0907975106
   4.8034075856   19.8419091450    9.1152048149
  11.1335909940   15.0559158255   15.5542882224
  12.3118131692   10.8078174440   14.2627334906
   1.4573316479   16.1434162106   18.2420894456
   2.6903753587   17.5017136371   17.6244434271
  11.1621586219   16.2052874478   14.2247352676
   6.9822876416   17.6976830681    9.1037911198
   0.3288348913    3.1789904863   16.8403401143
   2.7718775018   16.6961710915    2.0297578231
   0.8364755318    8.4024865916    6.4520452421
  12.9982347620   11.8564396899   17.0247782344
   2.1254158505    3.4035398528    5.9013516305
   6.3696050386   16.2336130600   10.0150227287
   8.6175607004   11.4745493749    6.5885353696
   3.9035536106   10.5133767618    0.9727910101
   6.9185270100   12.6207797516    7.2578612076
   4.2025497410   11.3014597875   19.1007776675
   3.7569070701    6.5353807040   18.3621267483
  11.8414184594   13.1638968465   11.8218155930
   2.5399388189    2.0820796366   19.1030488835
   3.5221485596    3.4966073249   15.7581887864
   0.8932064888    4.8292210291   17.0625256658
   1.8803276697    1.8536749157   16.1556918605
  16.5120529777    1.6476309479    3.9105143342
  15.6218330313    2.7714709314    2.7226081946
  12.4478674849    9.6182756312   16.7124327743
   3.1816006052    7.6990698322    1.8507609368
   3.4373238004    8.0056538789    0.1735133523
   1.9363155870    7.1935406458    7.3568907472
   0.6466259724    4.6465129663    7.3739064252
   1.4313216368   17.2007948807    0.9440756374
  12.5627027448   11.7109558747    5.3191131869
   4.1501290086   19.8801261439   11.5323277681
  11.9140645017   12.6714175207    6.5774275834
  10.8832178157    9.3264075613   15.9836299605
   9.0187968969   13.8810433095    5.4364144674
  13.7747788281   11.7656251420   14.7351034009
   3.8718522738   18.4047017715    8.9164026057
   7.1980744391   14.8654561272    3.3115281484
  -0.9612248843    5.3564936216    7.3612538658
   0.1761747041    7.3150696361    7.8101162154
   5.2780989966   14.4551765165    1.2435125494
   6.2138081424    3.1330751819   10.8828964569
   0.8643190679   14.7129591490    0.5682465567
  12.9315888849   17.9238686752   17.4361531655
  13.8894652537   16.6886198177   16.5852637617
   4.4194801479   15.4233116886   18.5992525114
  13.8865315729   15.5531806145   12.6059542459
   8.4705635878   13.6227350685    3.0468874814
   4.6003126812    2.8451554033   10.1888070714
   2.9788014833   18.6975149995   11.2178350637
   5.4626088533   12.6450795897   16.7187418575
  15.0030636430   14.2248123230   12.1525733276
  14.1079594001    0.3214250686    2.7637343466
  13.9632551969    1.8864834304    3.7127287747
   4.4983313180   16.8792560051    4.4018481346
   6.0221430821    1.0633064621    7.2241745896
   4.1178752891   19.0421982938    1.8234508908
   0.5763696686   15.5489697897    2.2873712735
   6.2033714033    2.0567167388    3.6608067238
   3.0386933211    1.9097126343    2.1367479212
  -2.0984145378   17.5872688375   11.2672052244
   1.1556320422   12.3381179909    2.0229834355
   1.9035876232   12.7411319089    0.7423086542
   6.7420415788   13.1364513722    3.5801754235
  12.4166520397   14.8914422167   17.6445805176
   4.8717216537    2.2320855662   11.8357078305
  13.4439394478   15.7287908388   18.7585853311
   6.2511965313   14.1857458018   16.7192731538
  11.8479081959   14.1884833530    8.3652210133
  12.9442867741   16.7462650871   10.6119366080
   5.4089308478   12.7409329170    1.5178517502
   2.9103651937   15.7076588319   10.9335224361
   5.7726486003   18.1660584282    4.6793987150
   4.4055514158   15.3034923343   11.8263595206
  13.1241221374   15.0354657259    9.1956726237
   4.2689897485    2.9591927831    1.3988443085
  -2.1504122106   15.7940238902   12.7668697901
   6.1550496913   15.6097344170   18.6508515946
   2.8921798560   12.2522287337    2.3309009191
   7.8813503523    1.0907343416    7.1270130749
   6.8383807451    0.4899139007    5.8563321639
   4.4889754287   14.0770914882   16.7458079906
   7.3987178852    4.4843947886   16.9882934101
  11.5792251889   19.9092184147   11.5545159544
   3.1433106926   14.9631740820   14.8505122241
   4.5906369163   15.3445656141   14.0042169351
   9.6538460638   14.1895799626    9.4564464524
   3.8832556842   16.9827748909   11.8716365941
   5.2702326480   17.5203124816    2.9423870773
   8.1392612644    1.0129204630    2.7718729935
  -2.1940875928   17.3094929212    9.5963843087
  13.7800813358   18.9246788474    4.4108575713
   6.7711103283    2.3945007874    1.9633602938
  12.7827080806   18.0232077059    3.3547573748
  12.8623067394   17.7007619456    5.2286079774
   3.8993140418    2.9615069262    3.2472262868
  11.8217780419   15.9533532490    8.2642367200
  13.3834839245   18.0939675897    9.2962521520
   9.8833450565   14.8596874574   12.3896334776
  -0.0713983989   18.9416341281    9.4847578077
   1.7715143496   11.9741313818   10.8592073585
  11.8264270469   13.9438419424    2.2547070428
  10.9566372815   13.0953599083    3.3768448078
  11.2147472307   18.3346715822   11.0103087890
  12.8271026867   16.4422864846    0.1258497656
  10.9829217248   16.2479335072    0.3256738435
   2.0325373646   13.3569310382   11.8186949947
  11.8055224356   18.3967857358   12.6953871400
   0.3233077198   12.9350261487   11.2879537226
  12.7550206639   12.6763439655    3.2286399040
   4.6219849049    2.7785440761    5.8605179088
   9.4576024920   15.9158660218    9.7959359367
  -2.1048909190   13.8372196231    7.8726555982
   8.9716840852   11.5782704153   10.2825098675
   5.0575216783    3.0159402277    7.5701857929
  12.1937852776   15.2557106534    1.2550386317
   5.8099835918    4.7181456596    5.0575021937
   6.0569005033    5.3076461964    6.7005568015
  14.3491428688   12.0449629239    7.8613560890
   5.0841859358   19.8802346788   14.5509712938
  -0.0446976924   19.3711408187    7.8102275311
   1.1010307412   18.1799867996    8.4251167135
   8.3795182952   14.8995769383   11.3925568784
   3.9104491253   16.8212490767   16.1003223873
   2.4711243167   17.1813770078   15.2090957823
  -0.5626466565   13.0978091755    8.4572875613
  -0.9071498611   11.2498891096    7.7330004875
  10.6669267703    2.5732396575   14.6552476807
  13.7707761014   15.6284161248    3.7266544337
   4.5250201258   19.0427507983   16.1879329969
   8.0307706726   13.2005766664    9.9584829220
  15.1595870851   11.0632528124    5.5001880473
   3.3390027299   19.7644964596   14.8671350541
  -1.0945721336   18.8215729222    5.8390372978
  -2.5369298872   17.9193078953    6.3543175060
   7.7141036646   12.0934266657   11.3126317695
   2.8750809808   12.5768793208    8.8832829871
  -1.3374882819   14.5118273559    9.3096943618
  13.2645873540   15.8588060020    5.2983500613
   3.6953020565   13.7845687337    9.7455767246
   0.2803986421   16.6453301901    6.4605451461
  10.8029319817    3.0508479593   19.0134557646
  14.1247935874   11.0534116497    9.4129191896
  -1.1381542258   15.9247874793    6.7440232415
  15.6895752129    9.4427611778    4.9420225628
   4.2031227024    6.4327402848    4.4537150622
   7.1895115539    8.4480891044    3.8055338189
   3.6734033363    7.2588130350    5.9209451945
  -1.2749064411    9.9736957948    8.9262117258
  13.8329364386   13.3032494593    5.5866508872
   0.2538189059    7.1701808742    4.2916891770
  -0.9886303407   10.6972633280    5.7351803860
  -0.8980308674   17.6762478064    2.7518004035
   0.4212374865   17.5894088135    4.0531799625
   1.5911782216   15.1317946203    7.9972399129
   0.5086564575    6.9016832766    2.5845418970
  15.2721370597   14.4545262018    5.3726760263
   3.5788564460   15.2822987441    7.8146723291
  11.4299872312    6.5897258482    3.3992206898
   6.7871828985    7.2407351426   17.3341400193
   2.5384489274    6.0521740428    5.0617718812
   0.9409690085    8.5561776359    3.4436156228
   6.7128695857    6.7066243013    3.4491829869
   8.1108616146   16.9026632732   17.1239005826
  11.1037112567    4.9646525031    3.2914962535
   7.3065428794    7.1731174851    5.0390400041
   0.8506673493    4.7498950742   11.8207249471
   8.0699383371   18.6185069961   11.2172507673
  11.3878682994   10.1088423165    4.2687339853
   8.2222465004   15.6595148616   15.9588366062
  13.5090145538    6.6503277975    6.9354474404
  11.3311789123    8.4737358108    3.4607403342
   9.2291761340   17.0804183692   11.4386288726
  -0.7242611842   18.9575531719    4.0070106758
  11.8716944782   10.4872974093    1.4285916915
  12.6371640809    6.7210602099    1.7874850280
   8.6421693860    5.1787749945    3.2817155511
  -1.3963878408   12.7725157967    5.1741820144
  12.1011266102    8.7375624239    1.3328944514
  12.1773853031    5.2400837684    0.8642760702
   9.7082285648   15.9949902890   17.1283802061
   9.2849391316    5.8207750386    4.8338815856
   7.5393570753   16.9836020629   11.9322848626
   1.8206598372   14.9234135699    5.0903984622
  -0.9628072278   14.0839932195    4.2217767663
   8.9173115384    9.4245603669   10.5177671099
  14.8561754103    7.8563040559    6.2697900414
  -0.9273238358   12.5505785809    3.2938433306
  14.8062241597    7.6946611997    3.6082322710
   3.5674207688   15.0177093546    5.4213877465
  14.6906948955    6.2710594304    5.7505116965
   7.2136497432   19.2332067874   13.4237783067
  16.0218164664    6.5121295999    4.1929635934
  11.7097213584    8.4896745708    5.7917395635
  13.6459097320    9.6999851699    1.1881238109
   3.0988549150   13.6697446493    4.7118247694
  13.2280689976    9.3826971044    5.5976151451
  11.7514259015    6.7830613009    0.1416825727
   9.1659856557   13.4105593757   16.9948682547
  -0.9925180439    8.3935478746   13.9520591910
   9.3211938744   11.9767676524   18.8246440278
   7.3871734672   17.6541430476   14.3256216528
  10.0819441513   14.1508178982   18.4318057668
  15.0580837453    5.3647238638    2.7730465493
   9.2669453923   18.8104865531   15.5743493318
  15.0894181856    6.6248217478    1.3671383191
   7.5369861143   12.6730348672   18.9143487093
   1.7312942619    9.8906385178   16.4855602335
   0.8296360691   14.5731242175   15.5660166643
  10.0530024901   17.9299367467    6.1422944303
  10.1656270092    1.7873149888    6.7992022473
   4.9447063108   11.0901286657    8.3275543460
   3.8550465405   11.1222933313    4.6853701091
  11.3783143667    1.4156835318    8.1189819370
  15.9394252482    9.4353636978    0.3689767135
  15.5911814741   11.3783891265   18.1717070529
  14.2953486172    5.1648359755   12.0417917751
  15.5742499260   13.2217075516    0.5470776787
  14.6041000612   11.9185679024    0.0871387607
   0.1192925955    1.0461164172   11.9769548951
   2.6062609541    1.6311130244   13.7303544851
   0.0745370886   17.4842684916   13.1923213249
   0.7614748291    1.3667158707    9.8835318874
   7.7855271075   19.8615586391   15.6972088268
   4.0049157298   11.8267219938    7.1285768589
  -2.3240732758   13.7283250288   15.1553932422
   9.6745957174   17.8310073165    3.5983428207
   2.8847685815   10.3234276608    9.2853646529
   2.4955317296    9.7155073888   14.8582981746
   7.9332741261   18.8446031249    5.0189081083
  -0.3239258653    7.2323020527    0.0601998762
   1.5570418904   13.7296310453   14.0248004215
   8.9807067415   11.7780859580    2.8713153005
   1.9674971498   11.1800757560    7.9952619081
  11.1987681540   19.8667172387   14.3670567993
   5.0141598594   11.6747941578    3.3914893680
   2.2803312250   12.9122263772   16.3973178534
   1.4798534258   18.6239233880   13.2307104561
   2.4932089630    1.9751583888    9.8617580922
   9.0808183794   16.6282198097    6.9527861606
  -1.6066572132   12.2614978510   15.8683215532
  15.9313040401    4.0012905250    0.8148695207
   3.3394429646   10.7080507143   16.0837759309
  15.2422102026   11.9008926145    1.7357423942
  11.8359983316    1.5245851134    6.4972245092
   4.6400806500    9.8779781839    3.7478935133
   9.5674499851   10.1556530029    2.2403451884
  15.6552052093    6.8032550497   19.3113433027
   6.4688988485   10.2613918919    6.9497255408
  13.8882865911    2.3787383560   13.9868926700
  -0.2970378790    8.0893913912   18.0504147364
  10.7098058263   16.4712003619    3.6645647438
  15.9232295312    9.0303008169   18.0322449052
  -1.2563434416   19.3494830307   13.7699520909
   0.3217485247    2.1917960719   13.2004382583
   1.1621747548   17.8722786976   11.7253640290
   1.3167613421    3.1559563982    9.6555813387
   0.4022375749    9.2467748336    0.8747588787
  -0.3470699585    4.0317156288    0.2407225155
   0.3054287625   11.9240992272   19.1951016700
   0.7825197334   12.5912260772   16.7952589921
  13.7001796243    1.7162493739   15.7377975274
   8.9761582378   16.4841505956    2.8409885354
   1.7532526551    9.4166444018    8.4748106265
   6.9923285845   17.4846901606    5.9344551036
   5.3643259445    9.2701567032    5.9657761165
   7.8966994982   10.7392084178    1.8194002574
  -0.9606989589   13.8860912072   16.3723140943
   4.8703115213    8.7997281291    1.4987834899
   8.3494668893   14.2486520993    7.3179664369
  12.2351029563   12.9492959326   13.7880404060
   3.8392986282    1.5410934924   16.5617005729
   1.8004701675    3.4693314360   18.2386110315
   0.4578417130    6.3348709607    6.0581403243
   3.9677041628    5.3642632631    1.0022437416
   0.3165118590    3.5480548590    4.8640981536
  10.4328127179   11.4929638927    5.7596612391
   5.4240246817   18.1586850134   10.2080606771
  16.3893862331    1.1035302896    1.9259119043
  11.0740886094   11.3443100583   16.4124996955
   2.9935551385   16.0906355555    0.1552863765
  11.9492338810   17.0285757583   15.9459473023
   5.5743192169    1.2270511517   10.1684579532
   2.2591978505   14.2459255181    2.1319326023
   7.2800622627   13.7460853750    1.6463121712
  11.7980158604   19.3517920325    4.6398004047
   5.5271892544   13.6208065652   18.5120058980
  15.0683002074   15.7306974297   10.7661234565
   3.9129639754   18.8534195750    3.7718854281
   4.8675912302    1.2256485140    2.2638996440
  11.3627810185   16.1812857431   18.7731263067
   6.6587460379    2.6033519051    6.1708664326
  13.2319908090   18.6166396960   11.3766454224
  11.4667318489   15.0753094622   10.1299569020
   2.7599412204   15.6603924657   13.1139249694
   4.2123234963   17.9966595800   14.4439579011
   9.4364664012    4.0491884538   15.5243480047
   9.2027042906    3.9462504147   17.8738560528
  -0.7881212386   17.2778232337    8.2147187098
   9.3642228078   13.1564654875   11.5725415304
  12.1288045523   14.5163271200    4.2804222740
   1.6184746285   13.9680899243    9.9371129076
  15.5084686076   12.6228861398    9.4413352232
  15.6512511939    9.6823436979    7.0724814379
  11.2089162199    3.1226951441   16.9674639397
   4.0378196114    5.1793120406    6.1453554963
  -1.5448195614   17.1803991287    4.6680534882
   8.8202427935    7.2566095686    3.6256403642
   7.9059739629    6.9688953030   15.6612844911
  14.9285501925   13.1843251772    3.8058665596
   2.7065997076   13.7435002817    6.8140821879
   8.6233588257    7.8176540067   11.6843249183
  13.2317483030    7.4710371744    4.9810928115
  -1.0147826317    8.2250375207    3.1657452847
   0.2012974450    6.7037092294   12.4463480872
   8.0737267679   14.9937146368   17.9017008459
  10.5699521658    6.2296063909    1.6308873241
  13.0251025607    9.7044705844    3.0370201440
   8.9156275936   18.0777666045   13.0603794207
  16.3540836199    5.3929724147   11.2862243714
  15.5423840479    7.1897050325   12.5739621338
  16.8333147369    5.4599240528    1.8147600729
   1.5953545966   11.3884675443   15.0892998791
  12.2709013985    1.2220120064   14.3054833526
   5.7919286870   11.1571913505    5.2141083543
   7.6964112650   19.0297878731    7.1362964383
   9.5404509532   11.7348897765    0.9142259418
   0.0587248232   10.1170977215   18.3906686191
  -0.0175073011   19.5306307710   12.1837997133
   1.4066691241    2.5856090498   11.4893441451
  -1.1867618682   11.4747330346    0.2309496004
   9.0224155885   16.2974401849    4.9941439711
  -0.4464148052   13.2465746965   14.4838389007
   3.4600575870    9.8671017677    7.3743774387
