B2 C140 Ca1 F48 H298 O66 
1.0
1.7775211553878361e+01 2.7830855254110680e-16 -2.3133099773004956e-17 
-2.9801647382387562e+00 1.9229597046709969e+01 -2.4150943497248488e-16 
-6.1340494828467418e-01 1.5363586404682730e+00 1.9474404220662596e+01 
B C Ca F H O 
2 140 1 48 298 66 
Cartesian
   9.9383366304    3.7269987979   16.8281210225
  -1.0813015226    6.5062382902   12.1462079601
  -0.1163130646    1.5651684299    1.5355651183
   7.0714742241   13.7147909801    7.0857825706
   4.7490598779    6.5301937002    1.0398447556
  12.5356233643   12.6517209814   12.3885900912
   4.3311006679    3.0059390425   16.3141146289
   1.9683085301    2.0449670872   18.2599814679
   1.3618990848    2.7757595003    5.4473241318
   2.5078715938    1.5379524508   17.0175926949
  -0.5902504894    4.1297569611    5.7862571197
   2.9613127881    6.5609181718   19.0680765844
   1.8751798091   17.3509106197   18.3338831511
   0.6380058529    3.9989736097   17.5488473211
  11.7544637892   15.9335347043   15.1692750342
   4.8785299490    9.9438324520    0.7408757493
   6.1205127487   17.1671172955    9.3900750556
  12.2853083462   12.1411342865   16.0963758122
   9.5756898910   12.0920347593    6.6937221198
   9.2803459790   13.6891547973    6.5483846828
  12.6849857682   11.8770392279   14.6751093791
   3.9184499222    7.8597660794    1.1289005462
  11.5041762591    9.9711080165   16.7741738967
  11.7735549328   11.7243768673    6.1613625332
  -0.0893517956    5.1536385216    6.7201136618
   0.8870380206    7.4352841684    6.9834167521
   4.4382572246   19.0186247204    9.6333470786
   2.0978621443   16.3939794904    1.2049764036
  15.8400534122    1.6907786871    3.0132239854
   3.5541972854   19.5727812859   10.8238820088
   1.3326055214   15.1593675117    1.5430926583
  12.9675808715   17.0256804917   16.9927207597
   5.3215420205    2.5413919063   10.8701607971
   7.4175953107   13.8684591621    3.0373278846
  14.6209508022    0.9470868982    3.4716075930
   5.8862544885   13.6304983067    1.1045465284
   5.3548783951   15.0054304323   18.9835082970
  14.8140481680   15.3832896305   12.1369620776
   2.0730728377   12.8498961617    1.8257195157
  12.6238136603   15.9239512166   18.0960959755
   5.4772564735   13.6918819158   17.1201779677
   4.9613701661   17.8386882357    3.9873765824
   7.1733850391    0.4559651978    2.6772113100
   6.2474904406    1.6217136752    2.6984410772
   4.0612164586    2.3928106024    2.2619541198
  -2.6975252399   17.1870480211   10.4908646815
   6.9259495828    1.2883003458    6.6367764381
  12.1134890898   15.1403140985    8.8976906085
  13.6003424572   17.7269227347   10.3417893912
   3.5499402361   16.0332335000   11.8074851405
  12.8725696143   18.4703292931    4.3774972742
   7.2374946017    2.7505893062   18.2039059146
   7.4919604076    5.2296666162   19.1729041458
   7.8671637098    4.2229256307   17.9179343214
   3.6550333660   15.7193461249   14.1938612240
  11.8688622084   18.9150898133   11.6878076744
  10.0659621049   14.9571949161   10.1284703980
   9.3491553590    3.5071177670   13.2517901224
  11.9829053537   15.7353552582    0.2696951113
  11.9323433865   13.5209952341    3.2545260417
   9.4441804847   14.6446400154   11.5010005431
   5.4166533190    3.2266207904    6.4966166106
   1.4061339290   13.0639821329   11.0485554837
   3.5311269954   17.0074701401   15.1051858277
   0.0111662465   18.4902142367    8.4891040767
  10.3049630511    3.7481184677   14.4275126766
  11.4192553565    4.7509340977   14.0136401057
   5.3722220575    4.7411667951    6.0543494960
   4.3479744429   19.2643321256   15.0868090549
   8.4935642223   12.5521497900   10.7120508976
  -1.5216747056   13.6026697852    8.7613533181
  14.9121454334   11.5654296691    8.7933968700
  -0.7211965100   16.9423401964    6.8434487441
  -1.7413188763   10.6646386614    8.1632062587
   5.6712836010    6.8857121588   15.5147160718
  13.3762976185   15.0597608501    4.4566791160
  -1.4633080594   17.8717059385    5.9289702818
   2.7482673456   13.6957305597    9.2327516605
  15.8341668708   10.2977974421    5.7800369856
   3.5641591983    6.3249539288    5.3598728653
  11.6029454269    2.8546461739   18.3072165105
   2.0317342225    5.6837309641   13.4161334308
   8.8054170646   20.5732612640   18.6189386557
  14.3701718556   13.9878426553    4.8906305164
   6.7632706713    7.6148598592   16.2159576149
   2.6726915284   14.5794386171    7.9211262824
   7.4741088225    7.3706858818    3.9997426589
  -0.6313419464   17.8862756922    3.8107147276
   6.8727841496    9.1394795997   15.9956567147
   9.4495823848    7.7348653937    9.5526122147
   0.2601890235    7.6869337049    3.3348683868
  12.8270244335    3.6739992628   18.6459520091
   2.1378794273    6.0917224632   10.7378622302
   1.2296607945    5.7873841156   12.0856278001
  10.6571756287    5.9670128813    3.0316792035
   9.3157523094    5.9575075286    3.7287975144
   8.5816528619   15.9615682689   16.9680578181
   8.5161309591    8.4861873855   10.4842089852
  12.0376023517    9.2731389604    3.8806422300
   8.4280071393   17.7659810453   11.8396205328
  -1.5105715994   13.1388261539    4.1273341784
  14.0369709828    7.1462995519    6.0692028912
   7.1196653146    8.7264202092    9.9966470601
  12.5853360536    9.7797106725    1.5645005978
  11.8501000789    6.3309295610    1.0962870470
   2.7674877707   14.4346407857    5.4958504868
  12.5922978321    8.6859409694    5.0618185588
  15.7897313418    7.2396332083    3.3403036313
   7.8518230205   18.6614410438   13.9313930808
   9.1249195308   13.9642400730   18.0249671274
  14.7194822529    8.2992771652   14.5733779019
  15.7744177539    8.3317118402   13.4364574911
  15.5839790515    6.1976151284    2.1977068515
  14.9840976971    3.4729595632   10.9878635223
   8.6259558189   12.9001337508   19.0982460346
  15.0389450093    4.9476994245   11.2044757766
   8.5379330066   19.4949253390   15.0491090271
  14.3120494941    5.6619495605   10.0119167826
  15.7458643711    9.7120836507   12.6978424148
  11.0168077360    1.2438806708    7.1612417435
   2.3380379432   10.4797555047   15.6543725936
  -1.8463768516   11.6340903445   19.2302470483
   0.9025496705   13.7406189076   14.8853298943
  15.3951690304   12.1800142843    0.7162599408
   4.5140795626   10.9380019170    7.3401998208
   4.8080433086   10.9513968379    4.1846490287
   9.1508407943   17.3191470842    6.0700770429
   7.8847034301   18.2799130063    6.0180587268
   1.4355626643   12.6554112304   15.8227686315
  -0.9366841017   20.2032400731   13.1300223831
   0.8974909041    1.6522983240   12.4949727274
   0.7006654015   18.3517905056   12.6052161348
   1.5983094218    2.2841988766   10.1818747224
   8.9442055871   11.0783839243    2.0376053741
   2.4353956510   10.2414242482    8.2871451739
   5.5701526944   10.4085423851    6.3558119057
  13.6321493267    1.5778696697   14.6445944175
  -0.7828497594    9.0303647762   18.5074558806
  16.6346171072    4.7003428114    0.5759189022
  -1.3188758896   13.3525094303   15.5459898625
  -0.3274397059   11.2162140255   19.3389574186
   9.6483067994   16.7316831484    3.7285466816
   8.2885455704    7.0412940187   13.5883157799
   7.1944834010    2.1486256835   17.0133026544
   8.1983541980    6.3226499108   18.8633762310
   9.1573875528    4.6761123761   12.5623449684
   8.1125517026    1.9990175509   18.9845907009
   8.6319842560    3.1528695456    0.8371578213
   6.0015049808    2.7861888900   18.7399195134
   6.2004583442    5.5442009448   19.3573874781
   8.1134639651    3.0986159186   13.7645395524
  12.0330669391    4.5247315972   12.9131667931
   9.7055217981    2.6145082410   12.4046409392
  12.2905132705    4.9646664288   14.9915025479
   4.4265850857    7.2205294336   15.8552439043
   5.8284167466    5.5346663572   15.6057575020
  10.7499601366    6.0412389821   13.7980823730
   5.8062035238    7.0858504967   14.0972513826
   2.8639318589    4.6424872231   13.3917746811
   7.8529435250   19.8378892827   18.0096249086
   2.7550378724    6.7661168900   13.5574973232
  10.7130838785    8.0219783249   10.0067474777
   1.2765335201    5.7221997229    9.6697534048
   6.7209528106    9.5062933813   14.6047355623
   8.0287447403    9.5302731854   16.4769541460
   1.2312953549    5.5025498000   14.5839146325
   9.5450234750    8.1153678203    8.2973424570
   9.2117772233   18.8057459782    0.4380901302
  13.7937897926    3.4599829150   17.6346180945
  10.0263669366   20.1290768294   18.1103896596
   3.1596661300    5.2193490522   10.7583400570
   9.1047126046    6.3769407738    9.5656189937
   6.3795524411    9.2953232823   10.9801977953
  13.9313056650    1.8221402383    0.3822404591
  12.4824841877    5.0179803717   18.7095490832
   5.8433750864    9.8579246470   16.5944218634
   2.6576755925    7.3922540551   10.5298372319
   6.4530367030    7.6447605441    9.4405164064
  15.0121732702    9.2134302243   15.5532404923
   7.2095176410    9.6201769072    8.9273633942
  13.7831377857    2.8546771325   11.1910927132
  13.5567089687    8.5805945009   14.1942900978
  14.4787105991    5.1635252798    8.7054894129
  15.4388521281    3.0626024629    9.7513861836
  14.7233061510    7.0067228085   10.0777904253
  14.6711207480    7.1090934168   15.2600924416
  -1.3375267717    9.4901441172   11.5950293214
  15.8799206548    2.9403420008   11.9626650780
  -1.4273235543   10.6285292224   13.4405174436
  12.9766160218    5.7106941246   10.1456424018
  14.4646112287   10.0597039980   12.3312791164
   0.9588703757    1.7234325869   18.4476288664
  11.8957215904   13.1960264130   16.1170598334
   1.7299495694    2.1700353563    4.6047666236
   5.2250601736    6.4205779462    2.0096007252
   5.5904967329   16.7968078796    8.4510902192
  10.0389087144   11.9732281740    7.6847858811
   5.5097881375    6.4486330396    0.2195578698
   5.1282209390    2.9757328210   15.5300831369
  16.3862746969    4.4547396381    5.1500656803
   0.0854503090    2.6444095709    1.7848951302
   0.9208704501   17.9661974155   18.0931618243
   0.0764251063    1.3661408299    0.4660513606
   6.4322764779   14.2497320635    7.7339366195
  -0.0591163681    4.3782627108   18.2198208025
   0.6162168255    0.9257741173    1.9440730598
  12.3070263969   11.6096442004   12.2212707895
  -0.7422102640   19.7008359323   16.8827157306
   6.8383073140   13.9067995854    6.0434808430
  12.7262653108   15.6915789612   14.7709552805
   5.7219815837   10.5697843935    1.0902663945
  13.6110142551   12.7048981551   12.1073819206
   2.4416894525    5.5517509975   19.0510558220
   2.1750656319    7.2143112583   18.7457214760
  11.2060240868    9.7575010469   17.8182142325
  12.1458791959   10.9225593055    6.9470768361
   0.9826621004    2.0741399059    6.2082453628
  16.9648040802    3.2896526125    6.5370653869
  10.2310873010   14.2219642122    6.6345196573
   4.7581560464    3.5153889621   17.1723306379
   4.7814574459   19.9157097157    9.1295122472
  11.2473826743   15.0370905094   15.6064167634
  12.2876234452   10.9130285766   14.3754719211
   1.6340669201   16.2727296638   18.1694193641
   2.6671545519   17.5605331454   17.6423295546
  11.1198554363   16.1577556954   14.2830219132
   7.1426763285   17.6003358026    9.1139703456
   0.2429747777    3.2707604187   16.8359343816
   2.7991506830   16.6971267499    2.0511430276
   0.9939930230    8.4183705793    6.4542259736
  12.9615720719   11.9146970252   16.9481166533
   2.1854520482    3.2827384727    5.9215906178
   6.3512959217   16.4135459518   10.0927264765
   8.6377188932   11.6490947921    6.6460113655
   4.0450005642   10.6042014965    1.0024136587
   7.0583832043   12.5841150204    7.2972006506
   4.3448564618   11.4078766484   19.1095679140
   3.7996302305    6.6771000528   18.3213847742
  11.8646309247   13.2221804970   11.7419076286
   2.6299021685    1.9671779167   19.1344685757
   3.4583440016    3.5680736113   15.8513843325
   0.9259659930    4.9717138666   16.8477537920
   1.8161350568    1.9206663766   16.2513584788
  16.5288658360    1.7278938111    3.9282986000
  15.7498368905    2.7364478715    2.8893399404
  12.6820990584    9.6006291377   16.7779892967
   3.0962748469    7.7689605785    1.8910998455
   3.4675371379    8.0900079585    0.0206226663
   1.8726131687    7.1715672370    7.3489008454
   0.6499182589    4.5383021563    7.3574330985
   1.4241890391   17.2343543361    0.8717571673
  12.5529048342   11.6615296122    5.4705838105
   4.2632178660   20.0429453980   11.6478126351
  11.7681658898   12.7070722579    6.5868826155
  10.9598297846    9.3255759824   16.0957590895
   9.1157329147   13.7139321700    5.4889587893
  13.7125182804   11.9277199376   14.6952267418
   3.7857656017   18.5430871485    8.8194389760
   7.1743365713   14.8591065495    3.4099776126
  -0.9603500601    5.4742087005    7.3493259664
   0.1459217234    7.6217085785    7.8040171470
   5.2398315337   14.5314528221    1.3479898757
   6.2029510631    3.3016042896   10.9511255176
   0.8576674855   14.8082237377    0.6438625310
  12.9763448424   18.0436005303   17.4562023196
  14.0003350851   16.7341333625   16.5051620484
   4.3941654354   15.4370622512   18.5730737302
  13.8116038426   15.5840264378   12.5235882856
   8.5267611636   13.6626958082    3.2245354942
   4.5304420144    2.9566590793   10.1805440596
   3.0454898486   18.7684636621   11.3587213980
   5.5579361665   12.6803443735   16.6525068449
  15.0659522867   14.3556395859   12.2282673230
  11.2020949114   19.4206459767    2.7155127723
  13.8847141082    1.7470162524    3.6361303197
   4.4660504210   17.0260182443    4.4450959576
   6.0563610783    1.0006838685    7.2583138251
   4.0628545584   19.0408143463    1.7838423606
   0.5111048903   15.4733812098    2.2415824437
   6.1939554353    2.2605053848    3.6879375682
   3.0302723047    1.9489374702    1.9790949148
  -2.1774549457   17.7129154444   11.3188910758
   1.0905724348   12.3642324250    2.1423872347
   1.9389360611   12.7183490059    0.7460960088
   6.8560277552   13.0783954348    3.6338491381
  12.4247181113   14.9198411532   17.5689367771
   4.8905812275    2.2794806414   11.8845034731
  13.5384844859   15.8558064638   18.7073029788
   6.3342170648   14.2704438234   16.6024461079
  11.8389665881   14.2012226345    8.2979426612
  12.8991303714   16.9133742351   10.4818258734
   5.4185342224   12.7064002265    1.6070720492
   2.9394226126   15.7765222676   10.9274857019
   5.8078382391   18.1456651738    4.6351667328
   4.5109150593   15.4523428575   11.7019793904
  13.2021266149   15.1232287982    9.1889758084
   4.2984940474    2.9216206295    1.3639698640
  -2.1581437792   15.8484102701   12.8002783583
   6.2124058976   15.6552065919   18.7564894563
   2.8803912071   12.3638842624    2.3135823663
   7.9452993088    1.1471111451    7.1534213272
   6.9069192019    0.5241525943    5.8348295138
   4.5275943050   14.1589527769   16.8318526315
   7.4279585240    4.6317237499   17.0245490783
  11.5887072968   19.9473071954   11.6733424942
   3.2416477518   14.9964648394   14.9093690728
   4.7644388989   15.4473941446   13.9991588085
   9.7218412903   14.1661600991    9.5105544651
   3.8153076342   17.0525394678   11.9284119688
   5.2494059540   17.6193776660    2.9630001212
   8.1233179200    0.9810190224    2.8088438344
  -2.1807996293   17.2605907135    9.4484603210
  13.8711872287   19.0319855485    4.3738249717
   6.6711279021    2.3948724998    2.0287471682
  12.7224964238   18.0286351360    3.3732842757
  12.8802253127   17.7287274949    5.1847904552
   3.9881518635    2.9442802310    3.1761717525
  11.8528826432   16.1262309860    8.2390970547
  13.3808899781   18.0412057039    9.3628738041
   9.9381952057   14.9949128791   12.3700395094
  -0.1164695483   18.8738999466    9.5282665358
   1.7710767025   12.0410226402   10.8760530392
  11.9824689591   13.9684649658    2.2686064667
  10.9015876447   13.0598988468    3.3981771955
  11.2134540735   18.3356778398   10.8926506928
  12.0983064925   17.9784500664   19.4655069728
  10.9966174092   16.1911921315    0.1949799112
   1.9849916266   13.3813508336   11.9308011706
  11.7522345141   18.5264676775   12.7096932522
   0.3554978982   12.9296984670   11.3124741654
  12.6853111032   12.7054793418    3.3775956884
   4.6341640282    2.8402017737    5.8426169380
   9.6658044392   15.8558795523    9.7795856002
  -2.0817887770   13.8687390540    7.8877038148
   9.0146416163   11.6641497901   10.3504813503
   5.1135849882    2.9879043733    7.4803701151
  12.1709512519   15.4613784227    1.2921327980
   5.7636875550    4.6406709241    5.0176752483
   6.0906771158    5.3639342735    6.6919216081
  14.3566549778   12.0127380681    7.9507368283
   4.9778694861   19.9380389344   14.5610628312
  -0.1243789848   19.3950509518    7.7733540122
   1.0739858342   18.1952121710    8.3977322935
   8.2774445965   14.9658184894   11.4323790932
   3.9753132907   16.8470710954   16.1153302285
   2.3907759265   17.3003532851   15.0976860448
  -0.5595586721   13.1718346438    8.4150838160
  -0.9502443951   11.3047273977    7.7340178031
  10.7861741605    2.8347050088   14.6536386113
  13.7834088047   15.6906423919    3.5692493142
   4.4872685511   19.1272583257   16.1147647863
   7.9979612748   13.0264091553    9.9089337626
  15.1841705734   11.1809093137    5.5294177855
   3.4537826495   19.7265886115   14.9130341751
  -1.1497083609   18.9189180022    5.7081207499
  -2.4644826834   17.8273876629    6.3480962739
   7.6898574603   12.0831187145   11.3916650449
   2.9294256383   12.6761708793    8.9180736862
  -1.3826292821   14.4663907478    9.4149573160
  13.3619640180   15.6522023596    5.4601094444
   3.6704775747   13.9317162635    9.8986745309
   0.4076684842   16.8860529582    6.4607594719
  10.8672225161    3.0907627528   19.1447407033
  14.1732569731   10.9947766131    9.4235662101
  -1.1353446770   15.9363899045    6.7237770753
  15.7922042063    9.5292751398    4.9916127340
   4.1815833146    6.4222953996    4.4247832546
   7.2075331514    8.4367104229    3.8496092937
   3.5531701660    7.2329389694    5.9914093310
  -1.1430122117   10.1362672387    8.9475229252
  13.8902534817   13.3244068019    5.6672466363
   0.2507583246    7.1771769982    4.3754074336
  -0.9238772148   10.7279855076    5.7036658601
  -0.9301145548   17.6278687049    2.7420757542
   0.4485919082   17.6335832372    3.9862520180
   1.7417945693   15.1392872308    7.9617372199
   0.5080787317    6.9614745324    2.5734931024
  15.1232449869   14.5001419752    5.4353295238
   3.5357191756   15.3487034638    7.9456399284
  11.3967906091    6.7233166685    3.4048796739
   6.8076601878    7.3510156781   17.2727634734
   2.5563264134    6.1039948694    4.9337620981
   0.9876093843    8.5788976319    3.3979994445
   6.7932248304    6.7434753235    3.4367064524
   8.2058940560   16.9695689072   17.1057417399
  11.1407946572    5.0461933807    3.2769716656
   7.3024899468    7.1658653230    5.0394078559
   0.7760095010    4.8651152226   11.6480374225
   8.1108630321   18.6380843691   11.3878413766
  11.4567527832   10.1577264533    4.3267072970
   8.3201462726   15.6423600664   15.9446000395
  13.4857512751    6.7022346897    6.9585715096
  11.3205260867    8.6320944018    3.3337354754
   9.2591153976   17.1556530100   11.4625283356
  -0.8673825811   18.9818832300    3.9767889720
  11.7976292453   10.5191779525    1.4166296993
  12.5179500253    6.7438661185    1.7926161758
   8.5589616483    5.2193060050    3.3103325673
  -1.4064207667   12.6562857195    5.1259280373
  12.1024166034    8.8945614030    1.4569280271
  12.1467172289    5.3692313762    0.9367511024
   9.6977354028   15.9868560217   16.9712998546
   9.4514648411    5.6475475770    4.8644876965
   7.5267825229   17.1552661632   12.0205620577
   1.8183865263   14.9030281995    5.1909397457
  -1.0138063241   14.1294587430    4.0977372185
   8.9047459079    9.5868643820   10.4595952340
  14.7852888666    7.8996328180    6.3828563207
  -1.0233130934   12.6112228927    3.3046082461
  14.9012667020    7.7530189396    3.5075029337
   3.5485279504   15.3327308505    5.5030119871
  14.6128044866    6.2478148494    5.7772257820
   7.1983821030   19.4191184373   13.3110491537
  16.1583626279    6.5303194940    4.0663764542
  11.7085970324    8.6656606061    5.7904023986
  13.5465971527    9.9070094920    1.0177208871
   3.0893590060   13.7840900907    4.6942644010
  13.2861425104    9.4562296645    5.5836867058
  11.8045671332    6.8107375988    0.0521342063
   9.2194293520   13.5443314880   17.0585835924
  -0.9996864752    8.3348584469   13.8877547938
   9.3308272179   12.0549033699   18.7607391710
   7.3394270843   17.7434983873   14.3135506429
  10.1549394366   14.2783317689   18.2829097785
  15.0721772152    5.3937408422    2.7351435939
   9.2675457403   18.7712663967   15.4914908521
  14.9998795233    6.6999757712    1.4368047575
   7.5984950330   12.6356440976   18.8164790857
   1.7572923302   10.0030823965   16.4752219278
   0.9182373887   14.6986303833   15.4707857646
  10.0885674433   17.7700321281    6.0550203363
  10.1453488930    1.8187402259    6.8145382620
   4.9105595186   11.1018470396    8.3690458632
   3.8304318204   10.9699314595    4.6791342355
  11.2684966137    1.4423311752    8.2472383475
  15.9818195295    9.4354454479    0.3622367768
  15.5322624992   11.6790943035   18.1756129315
  14.2196018240    5.1833073467   11.9667254062
  15.5675675744   13.2260374011    0.6320726958
  14.4720809253   11.9831306840    0.1044298928
   0.1938885227    0.9829868724   12.0077149101
   2.6326304821    1.7165926353   13.7667598759
   0.1006044175   17.6386895983   13.1270413229
   0.8936307190    1.5520984346    9.8657128345
   7.8338159770   19.7906079167   15.7685590853
   3.8937798222   11.8053389809    7.1491665013
  -2.2556246577   13.9015243082   15.2505126872
   9.6025072043   17.8666750368    3.5409967064
   2.8580679065   10.3906481666    9.2524546006
   2.5634533823    9.7390276544   14.7744668422
   7.8899186658   18.9290781609    5.1187154384
  -0.3166602028    7.2432428289    0.1490591987
   1.5245706338   13.8363034482   13.9939315926
   8.9529227313   11.7704747943    2.8575775548
   1.9502519488   11.2080581799    7.9778437760
  11.3480272282   19.9496549177   14.3648327847
   5.1097943498   11.7352476355    3.4639863374
   2.3939061973   12.9752782106   16.3839358776
   1.4822591047   18.8027730033   13.2449713718
   2.6361195864    1.8863125935    9.9137111205
   9.2743543540   16.7412524336    7.0597421701
  -1.6800958080   12.3267799804   15.8293604890
  15.8130576944    3.8973677349    0.7998281126
   3.3785936776   10.7813611113   16.1198822859
  15.2488090688   11.7748766418    1.8051109337
  11.7734344487    1.4508173102    6.4190581935
   4.6185317601   10.0621353863    3.6934616835
   9.4361807826   10.0575134773    2.2946571049
  15.6337637630    6.9337439575   19.1961436138
   6.6002342421   10.3220533665    6.8215610946
  14.0043427877    2.3374631469   13.9620361209
  -0.2697763020    8.2769256676   17.9202578764
  10.7039841692   16.5132258067    3.6716273418
  15.9102969561    9.1428165240   18.1741843074
  -1.4315334406   19.3666575830   13.7456529112
   0.2780117328    2.2641422506   13.2172865863
   1.1849472438   17.8963892629   11.6625005284
   1.3687657567    3.1919670915    9.5871182729
   0.3965143988    9.3752880071    0.9191697998
  -0.2887603254    4.0773064781    0.1495146150
   0.3187944142   12.1142241401   19.1562027931
   0.7834026827   12.6116861259   16.7442043812
  13.8049036643    1.7758756491   15.6684757014
   9.0147133497   16.4499604545    2.9057544028
   1.7560199542    9.3653961411    8.3915806356
   6.9822608263   17.6685476186    5.9297368921
   5.3709256701    9.4817665181    5.9929490766
   7.8538978722   10.8035525305    1.8423794779
  -1.0346084658   14.0373479876   16.3859319355
   4.9090857069    8.8303418891    1.5113289033
   8.3526439067   14.2848906432    7.3856135782
  12.2654582328   13.0087533305   13.8276093505
   3.9043797063    1.6239495895   16.5469530801
   1.8177990333    3.5347019215   18.2198485319
   0.4683017586    6.3646082328    6.0914074629
   3.9616478132    5.3680910232    0.9587213789
   0.3682133188    3.6027621164    4.9369969081
  10.4261653995   11.4806794158    5.7847197255
   5.4069825752   18.2132702688   10.2212275043
  16.4693807363    1.0643426838    1.8536471203
  11.1062187770   11.3609350100   16.4164386387
   2.9646256531   16.1278137349    0.1269138377
  11.9092162851   17.1221325961   15.9266163176
   5.5753882143    1.2924575142   10.1382174517
   2.1830704538   14.2527329215    2.1069366636
   7.2370543471   13.7704965728    1.6502546632
  11.8188921067   19.4426982715    4.6410072043
   5.5904234626   13.6767316524   18.5207567069
  15.0283416990   15.7386913952   10.7296198942
   3.9104543914   18.9100378868    3.8031758726
   4.9048792589    1.2697395981    2.2954551205
  11.3803736457   16.2725844965   18.7402367905
   6.7112766525    2.5771076737    6.1938989842
  13.2480339653   18.6696386305   11.3731883596
  11.4618256699   15.1665415650   10.1252115116
   2.7458865148   15.7311793026   13.1286147863
   4.2819444804   18.0272262181   14.4469871732
   9.5193069269    4.1485361426   15.5652918081
   9.2056964172    4.0384228647   17.8884818525
  -0.7882395699   17.3810097625    8.2399330012
   9.3679283470   13.2159037687   11.5813458942
  12.1245466507   14.5280299739    4.2927931650
   1.5914497755   13.9811807092   10.0186766239
  15.5126120578   12.6055285681    9.4416185172
  15.6489844642    9.7035922787    7.0872553948
  11.2306879879    3.1912710760   16.9745293561
   4.0223645699    5.1418305524    6.1226740336
  -1.6141713695   17.1647788351    4.6870388681
   8.7821829431    7.3047750043    3.5430387504
   7.8891376374    7.0420883713   15.6871196158
  14.9380468147   13.2400860720    3.8215565220
   2.6991346193   13.7392594669    6.7800763314
   8.6427198886    7.8469126360   11.7149406861
  13.2217745604    7.4829293514    4.9073869042
  -0.9892869747    8.2129572828    3.1245993513
   0.2423205191    6.7472527597   12.4742011475
   8.1446439574   15.0372614221   17.8717432118
  10.5837939823    6.2594853348    1.6556273807
  13.0556814819    9.7045030304    3.0089477929
   8.9167514733   18.1360119478   13.1163038035
  16.3857408532    5.4386394880   11.3226371102
  15.6470664749    7.2302728724   12.5688792073
  16.8373537557    5.4634638846    1.8027970403
   1.5839000251   11.4878814766   15.0603855978
  12.2834833180    1.2843691315   14.3003627816
   5.7588823905   11.1854834289    5.2048008730
   7.6932107240   19.0371238452    7.1521355550
   9.5830625731   11.7222816990    0.9099837846
   0.0338495374   10.1755285573   18.3778336969
   0.0205749913   19.5517141167   12.1514996454
   1.3881398449    2.6284759028   11.4935927839
  -1.1960003746   11.4635192797    0.2190143820
   9.0717593241   16.3398768144    5.0371468849
  -0.4102430022   13.3302471350   14.4865755062
   3.4805543708    9.9137867457    7.3673717432
