B2 C140 Ca1 F48 H298 O66 
1.0
1.7802410251744796e+01 -2.5013076875475544e-16 -1.1306239336740761e-16 
-2.8534165087425887e+00 1.9238625702518327e+01 2.2027318812826763e-16 
-7.5375729871081043e-01 1.3182221768925755e+00 1.9514050780745187e+01 
B C Ca F H O 
2 140 1 48 298 66 
Cartesian
   9.9261582506    3.5268967327   16.7454641534
  -1.2465398164    6.3203823941   12.1568257364
  -0.0866234890    1.4581942396    1.5110707576
   7.0263661903   13.7149556106    6.9910093164
   4.8249488251    6.4724723972    1.1528596931
  12.5059773709   12.4589305126   12.4530734114
   4.2700980558    2.7562217453   16.1819651563
   1.8853629706    2.0856751653   18.3382887583
   1.3304133115    2.7995677418    5.4861516599
   2.3715167169    1.3904141330   16.9337824002
  -0.5587536725    4.0811851713    5.7970213824
   2.9145172733    6.3629581139   19.1464872261
   1.7850852854   17.0881286910   18.4511089638
   0.6201145454    3.8773919064   17.6939921004
  11.7218236401   15.7967906418   15.1667335330
   4.7749931984    9.9901721563    0.7000781579
   6.2210284936   17.2385232521    9.4070594628
  12.2656396640   12.0477510153   16.2132937333
   9.5587351110   12.0568704769    6.7237253178
   9.4685113089   13.5475267415    6.4042037687
  12.7648954712   11.8366412570   14.7487740193
   3.9341835385    7.7602821073    1.1151100570
  11.2291957879   10.0113992340   16.8254814078
  11.9305910206   11.5984945214    6.1478508355
  -0.0183885662    5.2263821538    6.7090820520
   0.9515903516    7.2945200261    7.0220023188
   4.4723829779   18.8773961755    9.6292626728
   2.2074851408   16.3719439694    1.2144788425
  15.8943971666    1.7645631713    3.1242779478
   3.4811775554   19.3658234864   10.7816897588
   1.4282864403   15.1745196893    1.5759666040
  12.9278666830   16.8026859002   17.0774311285
   5.3057432442    2.2574746191   10.8873299174
   7.4327874613   13.7795709898    3.0184656261
  14.6076377390    1.1043898472    3.5896293656
   6.1461672011   13.5849605963    1.0156983972
   5.4164145231   14.8833922410   19.1282587452
  14.9906024669   15.2596621847   12.1263052864
   2.1527358942   12.8784609463    1.8026252144
  12.5595946890   15.8540108442   18.1457109489
   5.4067782511   13.5591336874   17.1197011936
   5.0412036113   17.8246507826    3.8879148012
   7.1990779588    0.4797924668    2.6559778698
   6.2311486538    1.6070214772    2.6535179395
   3.8709105314    2.2556441714    2.3187823560
  -2.7306982040   17.0893395164   10.5576940982
   6.7737796787    1.2451701656    6.5749239771
  12.0864392234   15.0397588985    8.8797913408
  13.6397474671   17.4971607640   10.4723659751
   3.5698313113   15.7939261995   11.9314222996
  12.9648495776   18.3804135380    4.4491657737
   7.0592707833    2.5484784271   18.2687870371
   7.5395401463    4.9355987254   19.1832986892
   7.7229373874    3.8770271339   18.0920659416
   3.5991948133   15.6451899404   14.3176824578
  11.9728245722   18.6346350109   11.7341482260
  10.0275984178   14.9504415566   10.1788762900
   9.2147858841    3.3769877093   13.3274836845
  12.1380744856   15.7485973400    0.3534219997
  12.0627670185   13.4878643511    3.2409326159
   9.3874908965   14.4221008964   11.4537212747
   5.3436490783    3.1521329764    6.4683968498
   1.5014527001   12.9854121697   10.9393091076
   3.5784158179   16.9482589540   15.1285459776
   0.2245519322   18.4753212183    8.5329939843
  10.1899142796    3.4145154622   14.4384668843
  11.2150442814    4.6020548162   14.1281298355
   5.4311681329    4.6626846998    6.1571150705
   4.3913920943   19.1907152107   15.1673838528
   8.5319137025   12.3620730349   10.7208847934
  -1.4025423962   13.5116413080    8.6901264109
  15.0990022554   11.5835878868    8.6049959975
  -0.6742634387   16.8324773602    6.8665516607
  -1.6614274027   10.5546911369    8.1074477958
   5.5608584851    6.7574581996   15.4965577784
  13.5318940445   15.0251646852    4.5246322787
  -1.4275114000   17.7972922413    5.9440444999
   2.8422797764   13.6608519158    9.0375724129
  15.8448507033   10.2278017124    5.7717599191
   3.6745121736    6.2357885048    5.4052033054
  11.4588411031    2.6885509732   18.4301971138
   2.0225784072    5.5069313464   13.4010845556
   8.8595105703   20.4021221901   18.6302410775
  14.5190465227   13.9315764382    4.9424487041
   6.8378945213    7.3604048452   16.2274314696
   2.7082641941   14.6277175841    7.9369769979
   7.4459401498    7.4234688056    3.9849814366
  -0.5250527571   17.8938576247    3.7303324899
   6.8015786968    8.9528005182   15.9905028156
   9.5187374710    7.7197470562    9.5064524270
   0.3630746815    7.7311809810    3.4600944430
  12.7389181622    3.5507108727   18.7187570705
   2.0630369693    5.9867666362   10.7936675371
   1.2097103945    5.7075312544   12.0952149870
  10.7833238644    5.8855124601    3.0731252645
   9.3598909671    5.9641112111    3.7476584049
   8.5906115834   15.8865819555   17.0401597914
   8.5757138086    8.4611088681   10.5335524066
  11.9549630879    9.1696810884    3.8971235599
   8.4585411806   17.5634497009   11.7560022597
  -1.2845050478   13.1142250139    4.0655993028
  14.1699298044    6.9496558685    6.1032071303
   7.1979161375    8.6094197553    9.9952424338
  12.8548862528    9.6130044355    1.7517762053
  11.9355878417    6.2326903235    0.9974107076
   2.8487936986   14.2823270540    5.5135261980
  12.5366477909    8.6400576591    5.2939437495
  15.9001455480    7.0756224957    3.3951118161
   8.0275077150   18.4055319734   13.9487387691
   8.9886946834   13.7218099179   18.0651542062
  14.7462152206    8.2136562607   14.7737738394
  15.8399897404    8.2628157742   13.6069373968
  15.7857057192    6.1094126237    2.2303874129
  15.0010309995    3.3052369001   10.9863981406
   8.5831826461   12.6392614429   19.0494831090
  14.9308283336    4.8762840694   11.2100304267
   8.7472639748   19.2925814453   14.9629415819
  14.2093423685    5.5862634009   10.0346371078
  15.7219979054    9.5667016062   12.7117702900
  11.0688731784    1.1031801640    7.1397230543
   2.3915775767   10.2359018626   15.7463826228
  -1.7743471933   11.4344866665   19.2816850197
   0.7793153959   13.5429740779   15.0076704452
  15.5364334776   12.0802568662    0.7191034057
   4.5468469685   10.7833783246    7.3287494408
   4.8378780880   10.9365206107    4.2415483026
   9.1180554278   17.2076807150    6.0238340974
   7.9790536535   18.0986792018    5.9286666089
   1.3722204882   12.5402426533   15.9869174563
  -0.8280975454   20.0318130960   13.2015896112
   0.9233239176    1.5933619287   12.4597495686
   0.6853474264   18.2698675449   12.6895440562
   1.3269002409    2.0999755051   10.0961977227
   9.1082817970   11.0408404118    1.9887557123
   2.4713267770   10.2297499515    8.3420114197
   5.6482911387   10.2825452401    6.4293457691
  13.6122170314    1.3223056447   14.6316197623
  -0.7655038413    8.8446706695   18.4769813356
  16.5927146679    4.7743361643    0.6963074854
  -1.4780022158   13.2015710006   15.5530280224
  -0.3942326719   10.9339920633   19.4416530691
   9.6649740753   16.8316190473    3.7402806453
   8.2462274799    6.7976207571   13.6384761210
   6.9287530387    1.8970677894   17.1009226405
   8.1558629613    6.0907565597   18.9613657957
   9.0655656206    4.5592656712   12.6038611562
   7.9019079459    1.8191981344   19.0301378645
   8.6407604855    3.1759691003    0.8831994679
   5.8689917202    2.6712872893   18.9043539802
   6.2153123195    5.2641025810   19.3942942945
   8.0511228755    3.0164524428   13.8607599846
  12.0287291280    4.3438599106   12.9458305132
   9.7231174980    2.4457165367   12.4353306347
  12.2134159166    4.6469541522   15.0947465455
   4.3527721507    7.1207255950   15.9438167986
   5.6362046112    5.4020195508   15.6131780951
  10.6346447940    5.8654897498   13.9210436121
   5.6762430204    6.9411837338   14.1540612631
   2.8587802511    4.4305020884   13.4088463398
   7.8912996165   19.6786209746   17.9640142882
   2.7511635472    6.6830087883   13.5842569505
  10.7290099507    7.8592980683   10.0468902524
   1.2930105580    5.6207659611    9.7806202626
   6.7840401817    9.2426337979   14.6879917175
   7.9563885248    9.3799690794   16.5047952602
   1.1564123652    5.2538314219   14.4103564505
   9.4716659183    8.0890250018    8.1205421409
   9.5768236749   18.6960840981    0.4875226153
  13.5276076135    3.3220860157   17.7287231523
  10.0635963564   19.9551198317   18.1637394537
   3.0490627867    5.0439994696   10.7969936793
   9.1398647516    6.4425514700    9.5021467399
   6.3610193281    9.1801967737   10.9537713746
  14.1490950445    1.8916100630    0.2919533695
  12.3794848795    4.9093957302   18.7285088213
   5.7994760162    9.7971949257   16.5992476198
   2.6409643904    7.1264037130   10.5724735706
   6.5828912158    7.5263973750    9.5308986406
  15.0564321489    9.0712368926   15.7670268557
   7.2341904681    9.5319976421    8.9149788897
  13.7873413594    2.6285564531   11.0703155731
  13.4726043239    8.5400040320   14.2178624645
  14.5590885074    5.0817375803    8.8993633611
  15.4232474875    2.9503777109    9.7681653103
  14.6265454433    6.8778517903   10.0328913177
  14.5941288296    6.9293593633   15.1745709258
  -1.4600920783    9.4307922491   11.5082645336
  15.7669389896    2.8080292548   11.9854707918
  -1.3682074520   10.5770386420   13.3899158895
  12.8643444398    5.4439021584   10.1972392274
  14.4261740515    9.9869857091   12.4025404845
   0.9263140370    1.4048096580   18.4486940897
  12.1650807992   13.1429630748   16.5687412444
   1.8738770414    2.2324864274    4.7945281681
   5.3220340973    6.5369822114    2.1116174508
   5.6176111799   17.0689973629    8.5066454216
   9.8453405407   11.8770467789    7.7705585451
   5.5766174001    6.7413952816    0.4265055560
   5.0290570927    2.4988463722   15.4957282752
  16.2270646297    4.3329714006    5.3874908857
   0.1639762090    2.5366306114    1.8000709261
   0.9946297008   17.8149455885   18.1364398463
  -0.1009610396    1.4891848272    0.4349981712
   6.3108056812   14.2873600851    7.5636983912
  -0.2845928913    3.8233639696   18.4234290776
   0.7241707235    0.8682189257    1.9010840766
  12.2741596548   11.3612397855   12.3716790160
  -0.5717554714   19.5001336704   17.1538814896
   6.7297103144   13.7711874452    5.9449852567
  12.5767236766   15.1054365080   14.9824923191
   5.6951940180   10.6093887965    0.8563525365
  13.6539291854   12.8097213079   12.3003352892
   2.6787033411    5.3271914711   19.1333240680
   2.0423137228    6.9758958794   18.7569339270
  10.8911752543    9.8151939807   17.9314317659
  12.1630946099   10.6946423473    6.8198132399
   0.8423577173    2.1526569429    6.2930072099
  16.8442611112    3.3011603893    6.5482990572
  10.3422258653   13.9894166865    6.7209945075
   4.6211110822    3.3262131451   17.0372522087
   4.9034261236   19.7898733895    9.1344564921
  11.0100525957   15.2987292237   15.6620199070
  12.2468373133   10.8939898327   14.2881417759
   1.3561622927   16.0047906696   18.3134879458
   2.6099101183   17.1621221007   17.6625829646
  11.3318167714   16.3764696417   14.2458080048
   7.2311784786   17.6036619610    9.0284876214
   0.3034846069    3.2281664928   16.8921766227
   2.7353895731   16.6421347315    2.1344441478
   0.6550738329    8.2572470090    6.5459200070
  13.1663012529   11.6993160719   16.7909559446
   1.9839410915    3.5799361685    5.9414543460
   6.3263071024   16.2761382868    9.9143482300
   8.7050908744   11.4144228979    6.4867353327
   3.8609442827   10.5826792630    0.8154411870
   6.8643704496   12.6409631979    7.2817292558
   4.1465106851   11.0410833603   19.1872176123
   3.7922696717    6.5410106577   18.5243125824
  11.8819980920   13.1132309481   11.8473018137
   2.3755171019    1.6147018203   19.1667310093
   3.3881625832    3.4399219685   15.8063834204
   0.8860259007    4.8852508034   17.3088333277
   1.8660106451    1.8634066461   16.0588026946
  16.6992721092    1.8159258508    3.8780161948
  15.6450527198    2.7615479034    2.8310762100
  12.3683629116    9.8467563460   16.6591779728
   3.2176274143    7.6490588365    1.9038334644
   3.3345175015    7.9304918955    0.1149089099
   1.9677741553    7.4524162699    7.3033493691
   0.8561278419    4.9530714160    7.4216043499
   1.5952430030   17.3445934028    0.9946720920
  12.3184591848   11.4720413352    5.0984813200
   4.1306425069   19.7976799345   11.5405929173
  12.2515015015   12.4162310043    6.7515048726
  10.6233117534    9.2644393246   16.2242135183
   9.2927236537   13.9224463839    5.4115920639
  13.8749911012   11.7120028578   14.5587352474
   3.8375002440   18.2499387258    8.9957525122
   7.2582663470   14.8139410236    3.4331410064
  -0.9072315277    5.5190814251    7.3672735546
   0.4228033265    7.2168050828    8.0307230293
   5.5493829065   14.4975793629    1.4039325511
   6.4152410128    2.8030748177   11.0440434226
   0.8538771946   14.6668112642    0.7488367482
  12.9869392351   17.8049622570   17.4200966294
  14.0041977617   16.6310788549   16.7330401542
   4.4063997668   15.2448033149   18.8275361111
  14.0397411892   15.5287587550   12.4180335659
   8.4833636003   13.4481112508    3.4061953276
   4.6109571385    2.8915641199   10.2948728643
   2.8563301407   18.5974177856   11.1326760198
   5.4429109366   12.5021992921   16.9137953917
  15.0241126524   14.2189108562   12.1137714012
  14.0813436562    0.7594379651    2.5760389663
  13.9125141241    1.8079567025    4.0978675738
   4.6787227766   16.9089267576    4.3594899654
   6.0520040233    0.9755004143    7.4484130528
   4.4183183136   19.2621164042    1.7518778528
   0.5934763165   15.4004319924    2.3500361905
   6.2199014393    1.9467641368    3.6376195968
   2.9052270013    1.7373262817    2.3239074795
  -2.1743948415   17.7289337793   11.3367895611
   1.2438321317   12.5823191306    2.3484432602
   2.3664286380   12.8084105416    0.7518452949
   6.7510887996   13.1136298229    3.5061536951
  12.4002258698   14.8261096104   17.7153445188
   4.8689490367    2.2249550452   11.8766409112
  13.3619751226   15.7745962860   18.9081269850
   6.2357269686   14.1369638851   16.7378368441
  11.8902367448   14.0846057119    8.2858037980
  13.0234455837   16.6143645567   10.5319069828
   5.5500054660   12.7486324916    1.3637550094
   2.8859102020   15.6174943303   11.1442645223
   5.8108163612   18.3272756174    4.5708597405
   4.3290787901   14.9960977752   11.8477415185
  13.2341814014   15.1522230321    8.9995775589
   3.9349147089    3.0846605756    1.6073295368
  -2.0608869879   15.6941535749   12.8503426992
   6.1999059915   15.4517054358   18.6577676782
   3.0246683754   12.2344159614    2.1525837725
   7.8035240189    1.2488760352    7.0978759830
   6.7588400972    0.6629572370    5.6835233629
   4.4768227067   13.9683057404   16.6883312205
   7.3139492600    4.3016757253   17.1649218243
  11.7634762849   19.7372506841   11.7008359185
   3.1936435812   14.9013319625   15.0071206360
   4.5787665387   15.3145684501   14.1127249760
   9.8290840792   14.3439164264    9.3331211916
   4.0686001467   16.7346560138   11.6841073877
   5.6987468989   17.5604560805    3.0471258591
   8.2334055984    0.7382757722    2.7601451977
  -2.1740531755   17.1890033314    9.6421487963
  13.9484086184   18.8070155547    4.5509983641
   6.5499478342    2.5432630532    1.9494179360
  12.9354717660   17.7837553568    3.4861662169
  12.8641350748   17.6360009183    5.2193439084
   4.0022445412    2.7773265990    3.2797616855
  11.7794980769   15.9456544256    8.3101029835
  13.4807539723   17.9539990776    9.4797739431
   9.7909443073   14.8621726544   12.3341435014
  -0.1000321379   18.7970848291    9.5372105436
   1.7505709755   11.9838068664   10.5962055107
  11.9671842569   13.9273176911    2.2267783993
  11.1879225541   12.8961017728    3.6148137904
  11.2389693848   18.0429725698   11.0816486524
  12.8741185832   16.5624557179    0.3031029400
  11.1959653274   16.2146874055    0.4010844248
   2.0208723274   13.3103406671   11.8293007992
  11.7412530974   18.3408608944   12.7380615476
   0.4219858176   13.0226076115   11.2222766612
  12.9533093629   12.7616841974    3.1714052247
   4.5625414509    2.6124781056    5.9610323707
   9.5159737936   15.9617900111    9.9674030991
  -1.8174800825   13.8476841672    7.7310644715
   9.0398051671   11.6062271458   10.0701376945
   5.1860016573    3.1482128130    7.5899301560
  12.2061064808   15.1310419388    1.2237266475
   5.8531602817    4.9104845346    5.1471027763
   6.1203746904    5.1951293298    6.9542895268
  14.4323388225   11.9241319103    7.6672211180
   5.3656847916   19.5269961821   14.8622460130
   0.0847718065   19.2819755123    7.6991506172
   1.2939455319   18.2114766345    8.5466069596
   8.3103404868   14.8045527588   11.4682362972
   4.0519491700   16.6670721124   16.0970383673
   2.5038308277   17.2397306202   15.3281651079
  -0.4312806950   13.1539777773    8.4032432380
  -0.8083574649   11.1478858188    7.8449373040
  10.8030490434    2.4927199427   14.5171978563
  13.9798730391   15.5128380412    3.6643869243
   4.6658917864   18.9508023710   16.1485398735
   8.2370902388   13.1713420982   10.0327236946
  15.0015119352   10.8795112959    5.5597821742
   3.5179016819   19.8006090783   15.1808105756
  -0.8883892657   18.6842574829    6.0617146345
  -2.4848208928   17.9980622011    6.2447723056
   7.6662864905   12.0719363685   11.2574470811
   2.7077241238   12.6323544125    8.7084067127
  -1.1968484430   14.3513459121    9.2875050212
  13.2946478754   15.8605275149    5.2647860144
   3.8386578395   13.8225849348    9.5826833228
   0.3992694352   16.6084265394    6.4846117843
  10.6427672800    3.0132503309   18.9665686207
  14.4222011568   11.0067282065    9.3116330440
  -1.2593726191   15.9610599179    6.9963894250
  15.6528282150    9.3575160250    5.0597218156
   4.1771090808    6.2466636103    4.3434056280
   7.1386323038    8.4342659868    3.6962908740
   3.7747399353    7.2806498900    5.8822506640
  -1.4488944411    9.8348507393    8.9466522135
  14.1195671835   13.2135377422    5.6124331783
   0.4209631152    7.1397941989    4.3856224783
  -0.9748945092   10.5660604860    5.5691299906
  -0.8495487781   17.6688808440    2.6906043626
   0.5193454655   17.4267174654    3.8938062976
   1.7276525616   15.2763249863    8.0020969762
   0.6531270438    7.0662181770    2.5038065996
  15.4227471221   14.3324430609    5.4631015159
   3.5873320642   15.3981699137    7.8331378183
  11.3724792417    6.6253154274    3.5920427429
   6.5734448497    7.3825438139   17.4264804027
   2.6241744320    6.0399886712    5.3225225288
   1.0676541160    8.6021432293    3.4181630799
   6.8612194208    6.7325884953    3.3614344995
   8.0924484700   16.7964002985   17.3073355811
  11.1439768074    4.8784518778    3.1332696546
   7.2557883181    7.2748731746    5.0042384676
   0.7885569349    4.6993825905   12.0431772025
   8.0803407923   18.3266135580   11.0566416963
  11.1686535853   10.0155413108    4.0177285856
   8.5078172026   15.6212624953   16.0020515023
  13.6036077594    6.7509543125    7.0679882455
  11.3790923927    8.4258027807    3.3461053928
   9.2410639882   17.1562092765   11.1694164057
  -0.3898572621   19.0725840475    3.8550087557
  12.4344472358   10.5255403767    1.4603484977
  12.7255407921    6.7081149801    1.6074210245
   8.7812123973    5.2287471538    3.1661568049
  -1.0812273413   12.6557787735    5.0758081072
  12.3378640660    8.7398554581    1.3598299650
  12.3318021004    5.2583577479    0.6625899497
   9.7123817543   16.1227906230   17.1780864500
   9.4462476947    5.5380349761    4.9036037508
   7.6725891037   16.7551434508   11.9220642828
   1.9670261616   14.9365977050    5.2344538552
  -0.8849197223   14.1183372902    4.0150491466
   9.0275375053    9.4488983549   10.6170372493
  14.8203744431    7.8727438980    6.4983477546
  -0.6696878990   12.4344895003    3.4562788209
  14.8112749091    7.3276156472    3.4326411030
   3.7190384004   14.8888305601    5.4350654951
  14.7377924372    6.0948802068    5.7002792502
   7.2325805392   18.9556210716   13.4314692319
  16.1886002216    6.7118071698    4.3579647687
  11.6733008474    8.3316349564    5.9990333328
  13.7479798958    9.7228607418    1.1844706659
   2.8030500644   13.3661233298    4.8801809952
  13.2536469541    9.4338732628    5.7265667081
  11.8447892396    6.9447700241    0.2211065308
   9.0785575108   13.1872075793   17.1348958940
  -0.9130989843    8.2010309345   13.9738033411
   9.0613632161   11.6171307386   18.9166267383
   7.3440478447   17.6082722683   14.3954095423
   9.9625341076   14.2004495144   18.4229091690
  14.9184252343    5.4245097921    2.4918539499
   9.3164731685   18.8206203895   15.7099493196
  15.4488967347    6.5337916597    1.3446057322
   7.5641403535   12.3824782872   19.0339370193
   1.8828587173    9.6251323557   16.6589870820
   0.7629352846   14.6105295026   15.4515488498
  10.1270194913   17.7308336551    6.0196228251
  10.1597806280    1.7083345707    6.9568663417
   4.9711156848   10.8311280811    8.3355064751
   3.8693782594   11.3722155118    4.4734768790
  11.4127163806    1.3208403102    8.1533904613
  16.0131104389    9.6991485102    0.4376067271
  -2.0753829172   11.4011170398   18.2109523772
  14.6025124682    5.1904417971   12.2200931424
  -1.9399952256   13.1263827260    0.5891797107
  14.6817882298   11.7314734468    0.1032349912
   0.1149199045    1.0022347529   11.9519893148
   2.6679272530    1.5842551539   13.7798462716
   0.0214000342   17.4977665234   13.1304444539
   0.6777037213    1.1886267052    9.9203956228
   7.8878135312   19.7649353492   15.4525072189
   4.2824011182   11.7533959188    6.9329130150
  -2.4027855157   13.5451918175   15.1569784887
   9.8193161141   17.9243135802    3.8453392664
   2.9336893196   10.4139896832    9.3270876562
   2.5949432081    9.4753927263   14.9402238997
   8.0414123525   18.7844721544    4.9931209459
  -0.2139888642    7.2554792385    0.0684974903
   1.4344233440   13.6945480929   14.1670266065
   9.1084608130   11.6606504031    2.8809080439
   1.9290180701   11.0689773049    7.9421810399
  11.3887455961   19.7810774026   14.3416928761
   5.0813216147   11.4988793429    3.2935718987
   2.3654822725   12.9619045052   16.3136141506
   1.5075801398   18.3452464403   13.3773445502
   2.2968567884    1.7722098274    9.7533119109
   8.8145479304   16.5776914509    6.8847900004
  -1.5754523530   12.1542199045   16.0138420097
  15.7486755260    4.1483797583    0.7599628713
   3.3699102827   10.6768837658   16.1684707236
  15.3770671542   12.0029028179    1.7582278264
  11.9678127185    1.2071274570    6.4768325138
   4.9870949578    9.9045407101    4.0534804758
   9.8026682686   10.2295857077    2.3170229859
  15.6456121286    6.7529928602   19.3842194166
   6.5514120835   10.3419799033    7.0212460504
  13.8492930073    2.2814457731   14.1409938171
  -0.2227582369    7.9833193789   18.1599479454
  10.5689366419   16.2024379783    3.6631543858
  -1.6164531398    8.9923676332   17.7379065219
  -1.1868622811   19.2944389198   13.8803306181
   0.5730295983    2.2008437909   13.2394866506
   1.0018452929   17.7822410144   11.6973429906
   0.8791150214    2.8619315849    9.4859774596
   0.5970291260    9.1269240477    0.8535060977
  -0.1474989915    4.2861516306    0.6340734804
   0.2551369815   11.7869906819   19.3352009445
   0.5513538950   12.2938861176   16.7593157385
  13.6599761179    1.6615895085   15.7240010029
   9.0393517846   16.4356488845    2.9259416838
   1.6555351349    9.4619565084    8.2451734540
   7.0361365266   17.4210703060    5.9224623871
   5.3857350697    9.2256520791    6.1888805340
   8.0130403971   10.5232295164    1.8472018628
  -1.1172035635   13.7831732791   16.4136660673
   4.8725363150    8.7819037305    1.4268505226
   8.3582527488   14.1230583678    7.2410586156
  12.2742330515   12.8267268763   13.8147322990
   3.8004780597    1.5239397434   16.6553697275
   1.7743369487    3.4288687781   18.3105971289
   0.5138966377    6.3818250561    6.0711598881
   4.0000657563    5.3112889769    0.9804181152
   0.2096915752    3.4551769290    4.7346832547
  10.5785728177   11.5669626179    5.7267089792
   5.4747972745   18.0972750075   10.2831767749
  16.3758176783    1.0429841025    1.9004162631
  11.0957661179   11.3240127713   16.4805704534
   3.1432118321   16.0593561947    0.1592355907
  12.0277333897   16.9327984113   16.0110299768
   5.5400018234    1.1174715111   10.2175504121
   2.4035699547   14.2609580127    2.2159509826
   7.3988337941   13.6998669280    1.5899204349
  11.8863114685   19.2587355102    4.6263413259
   5.4182131125   13.5648637412   18.5307384829
  -2.5620840620   15.6539858047   10.8273195067
   4.0667706162   18.7557287958    3.7485322774
   4.9454873680    1.1670404922    2.2810868796
  11.3345259915   16.0304485328   18.8500235022
   6.6558525732    2.6805657229    6.1174114173
  13.3677122137   18.5559179226   11.4047439920
  11.4753750440   14.9850131252   10.2535568530
   2.8557631048   15.5724889166   13.0338397740
   4.2397538455   17.9970958890   14.3930092154
   9.4453624084    3.8378769166   15.5419371469
   9.1743744881    3.7841916372   17.9480991901
  -0.6066219880   17.2898537070    8.2149568288
   9.4600827064   12.9615372184   11.6552013397
  12.2056873813   14.4977597872    4.2498319761
   1.7119934919   13.8889759812    9.8529186693
  15.5946124233   12.6334360588    9.5589911795
  15.7343526279    9.6959433902    7.0599272107
  11.2029086336    2.9849687648   17.0320337181
   4.1108400528    5.2007549850    6.2408532427
  -1.4134690846   17.2821246175    4.6181851003
   8.8410397895    7.2791329672    3.7419650865
   7.9679962555    6.8638372108   15.7005870147
  15.0791115405   13.1311426333    3.7547152836
   2.7218700476   13.7864698161    6.7593286221
   8.6082878885    7.7517755775   11.7333357514
  13.3285603337    7.3460855232    5.0099017265
  -1.0661040704    8.2508105884    3.2675199355
   0.1373794071    6.6470840491   12.3481440691
   8.1135538131   14.8596247573   17.9987017396
  10.6288138674    6.1928861322    1.6423815824
  13.0446223536    9.6814816941    3.1124922495
   8.9869325498   18.0134138061   13.0243387730
  16.2975701494    5.2550365975   11.2401859485
  15.5443292152    7.1481955997   12.7071078442
  16.9295813608    5.4939375623    1.8487994714
   1.5903004867   11.3730831031   15.1859685271
  12.2048753371    1.1368433254   14.3136152926
   5.9342450575   11.1116967490    5.2324981555
   7.7656736237   18.9164248786    7.1289427262
   9.5989942322   11.8473543233    0.9237051936
   0.0350623004    9.9773103013   18.4093853915
   0.0101337899   19.3987443727   12.2482128670
   1.4406575445    2.5363955236   11.4850721694
  -1.0439218034   11.5014073104    0.2256018938
   9.0400517716   16.3095115495    4.8988501633
  -0.4686054700   13.1737838361   14.4606388484
   3.4877957780    9.7834680579    7.3861111164
