B2 C140 Ca1 F48 H298 O66 
1.0
1.7847741711229769e+01 3.0796055405285906e-16 1.2538068292681265e-17 
-3.0743967179767027e+00 1.9277852127123651e+01 -4.1044167170794846e-16 
-3.0318642139899094e-01 1.5684143441309559e+00 1.9375824651195710e+01 
B C Ca F H O 
2 140 1 48 298 66 
Cartesian
  10.2728588696    3.9159461143   16.8189421906
  -0.9480230393    6.4658293525   11.9747176321
   0.1017967398    1.6031055027    1.4810076339
   7.2047810766   13.7755663984    7.2092242552
   4.6956653300    6.5559407191    1.0135659236
  12.7435245565   12.7437092516   12.4416759018
   4.4377451684    3.0686727309   16.3532125107
   2.3153398150    2.0494560092   18.1710545096
   1.5349358485    2.6626062493    5.5052111605
   2.7933432920    1.4677151869   16.7880934360
  -0.5149667290    4.0523074343    5.8320067382
   3.0967048290    6.6507109138   18.9655981521
   2.1670269697   17.5033818489   18.1533130674
   0.8411776686    3.9848660899   17.2790331929
  12.0308318773   16.0496290899   15.0174520457
   5.0853900614   10.0800976670    0.7878350750
   6.0877888747   17.1949057324    9.4635084333
  12.3381252887   12.1403030333   15.9612636881
   9.6727784485   12.1428774202    6.7869083875
   9.4600172060   13.6236765865    6.5125618587
  12.9278880056   11.9845348871   14.5082138705
   4.0016043165    7.8801671190    1.0129003036
  11.8793707884    9.8515232107   16.7312163697
  11.8084751425   11.8452136218    6.2584405990
  -0.0561545389    5.1839877608    6.8487835942
   0.8530771115    7.4202425059    6.9175494070
   4.6043356788   19.1542397075    9.6577051467
   2.0543361523   16.4776796737    1.1203571399
  15.9767998163    1.6914609462    2.8955395877
   3.6704111116   19.8328182732   10.6816801502
   1.1418617575   15.1945225060    1.5291260073
  13.1008299591   17.0284130774   16.7895789839
   5.3804344948    2.6155538547   10.7317998369
   7.4413713730   13.9793124431    3.0547891485
  14.6746366739    0.8927037459    3.3255550746
   5.8512179351   13.6362456421    1.1476586372
   5.5929951172   15.0141309892   18.9494883654
  14.9796314641   15.4335348031   12.0208474584
   1.9647976213   12.8717266999    1.8389446171
  12.8402812121   16.0416680690   17.8865189204
   5.7990528363   13.6237935293   17.0321615844
   4.9063067714   17.9292452180    3.8924640081
   7.2401212647    0.5108104744    2.6916808235
   6.3223837437    1.7563830101    2.6138814666
   4.2511149989    2.4521275917    2.0823552530
  15.0491730079   17.1700203421   10.4240144605
   6.9987296331    1.2588255450    6.6615753784
  12.2933762925   15.2439435649    8.8338343378
  13.6751399070   17.8133451001   10.2523772732
   3.5944883542   16.2292143063   11.8825713229
  12.9159935073   18.5457464729    4.3342518027
   7.6004608843    2.8367805419   18.1332809114
   7.8756669960    5.3031192075   19.0584334202
   8.0696608834    4.2717609359   17.9541075692
   3.8103088908   15.7062448623   14.1991900603
  12.0113765138   18.9591574823   11.5814289321
  10.1940433711   15.1507611208    9.9404851196
   9.5617721254    3.5046133520   13.1395650670
  12.0172414147   15.8793401185    0.0700747743
  11.9330781041   13.5211784948    3.2960110383
   9.5991961638   14.7620721380   11.2885838946
   5.5387373387    3.1638582624    6.3505301920
   1.5001418367   12.9721381401   11.1696186700
   3.7191218064   16.9591402786   14.9141905692
   0.0838947247   18.5509059847    8.4969478902
  10.6233969914    3.8752051988   14.3168147492
  11.6827244500    4.9465268093   13.9529774154
   5.4465244467    4.6127623152    5.9243833701
   4.4248758257   19.2524874591   15.0370703466
   8.6136348926   12.5597680475   10.7058107646
  -1.5576901215   13.5873236199    8.6949255815
  15.0948496371   11.4678474636    8.7467180268
  -0.6247958360   17.1399352965    6.8714672333
  -1.6786819166   10.7030313825    8.1074474966
   5.9550914527    6.8750828610   15.4074516481
  13.3333212082   15.0203173249    4.5089986710
  -1.6061110028   17.8610094062    5.9046633134
   2.8084319749   13.7970641414    9.3226362743
  16.0180542289   10.3601985605    5.8550449111
   3.7506442564    6.2651456580    5.3073268707
  11.9146608273    2.8864005238   18.2029724494
   2.2231709070    5.7122195379   13.3116183813
   8.9978155727   20.6153765321   18.4151481572
  14.4284758928   14.0973292588    4.9101743302
   7.0354693779    7.6591312055   16.1212818893
   2.7797404178   14.5567054763    7.9356962928
   7.4941326478    7.4017426656    4.0798821844
  -0.7023968152   17.8814080685    3.7650660483
   7.0039986705    9.1860435671   15.9616503377
   9.6534017032    7.7097141924    9.5316951620
   0.4615569667    7.6757376160    3.1625248745
  13.2215273225    3.6246070334   18.5537151894
   2.2199240250    6.1552743136   10.7603281357
   1.3589411131    5.8182055523   12.0248797116
  10.7022395637    6.0053901353    3.0396426635
   9.4079933886    6.0105133568    3.6918211834
   8.9195328908   15.9247406546   16.7147665626
   8.7255252519    8.4393854642   10.4561662064
  12.1645434292    9.4519744635    3.7481153772
   8.5042623561   17.8932239275   11.8724627837
  -1.4171711867   13.1641271813    4.0256288039
  14.0326354821    7.1825012212    5.9855091433
   7.2384443276    8.7566178240    9.9007352410
  12.4340140404    9.8518416968    1.5696729220
  11.9324921804    6.3139570817    1.1384764419
   2.8085680394   14.5494892582    5.5648311592
  12.6509713650    8.8193143242    5.0941814471
  15.8946324644    7.2177322861    3.2258628494
   7.9932786918   18.8172345840   13.8971273745
   9.4148628717   13.9644065374   17.9391979475
  14.9558643751    8.2768117721   14.5186289856
  16.0329288668    8.2957116352   13.4291067150
  15.6315368021    6.1225105195    2.1627803358
  15.2489765819    3.4806149887   10.9750625958
   9.0546974159   12.9428554372   18.9602356507
  15.1990355907    5.0096612797   11.0016806384
   8.7688756020   19.5274479941   14.9047947168
  14.5584386105    5.8304059440    9.8677442444
  15.9569349376    9.6555515098   12.6109724539
  11.2042455926    1.1766879775    7.1149186079
   2.4604017776   10.5079901350   15.5513509361
  -1.6919489796   11.7816235728   19.1519830731
   1.1494977202   13.7936722826   14.8697061097
  15.3802408578   12.0626595118    0.7354237972
   4.5667568487   10.9735454150    7.2786277586
   4.7136841200   11.1092320813    4.0975964208
   9.2992023948   17.5290351894    6.0068359256
   7.9779562355   18.3343503627    6.0609670565
   1.6940173017   12.6985202516   15.7498935092
  -0.7735029327   20.1585813084   13.0884262138
   1.1096723130    1.5637551752   12.3650229607
   0.8948672177   18.5627935452   12.5086610152
   1.8475171076    2.3410642473   10.2198778146
   8.8323724568   11.1498509870    1.9739084507
   2.5613220654   10.2027909208    8.2754735087
   5.6278398104   10.4843417756    6.2896766968
  13.8341904351    1.5694800590   14.6343804611
  -0.5863373133    9.0513370989   18.5289692606
  16.6140678427    4.7200891259    0.5643054824
  -1.1626036621   13.4374475601   15.5098217542
  -0.1964614231   11.3149726436   19.1008983470
   9.7011287429   16.7748739947    3.8293816599
   8.5606941478    7.1654836063   13.4393428400
   7.6228410220    2.1806998876   16.8514637485
   8.5528072147    6.4299703008   18.7616429384
   9.2316903736    4.7493116451   12.4580592109
   8.4074680347    2.0816798277   18.8415774602
   8.6684268032    3.1747367607    0.7978233904
   6.4081187950    2.7598306333   18.6314188340
   6.5255458980    5.6100308009   19.2556057742
   8.3717758072    3.0797639896   13.6611149189
  12.2577090076    4.5226520379   12.7577178637
  10.0233338672    2.6184498700   12.2592459913
  12.6105271537    5.1385293423   14.9147389034
   4.6495153227    7.1974929222   15.7193563142
   6.1372302704    5.5447278853   15.5882775739
  11.0814855387    6.1919916068   13.7380287110
   6.0488376132    7.0521691894   14.0152398370
   3.0262736608    4.6052983384   13.3110094521
   7.9596314411   19.8853982894   17.8594185083
   2.9654383314    6.8512541926   13.5905975636
  10.9194674202    7.9615092977   10.0470586658
   1.5217251047    5.9111530291    9.6137970715
   6.9965050672    9.6093626126   14.7016222883
   8.3060476091    9.6111700790   16.3802847015
   1.4359102202    5.5903649010   14.4336155789
   9.6396745336    8.1321328751    8.2559694568
   9.1244077672   18.9788094997    0.4049899335
  14.2838581050    3.5631409029   17.6736548117
  10.1967646939   20.2477913858   18.0072906352
   3.3529308955    5.4315526294   10.6579759920
   9.4511434814    6.3452127746    9.5225789443
   6.4553918928    9.2720299202   10.9608885626
  13.9385483749    1.7794239448    0.4458238206
  12.8765927524    4.8987950538   18.6129634626
   6.1244908461    9.7995464844   16.6828098806
   2.6021179330    7.4056680497   10.5109317095
   6.4794182269    7.6774566584    9.4517095261
  15.1993892577    9.3270469611   15.3122443346
   7.2541770111    9.7038361292    9.0016552503
  13.9730702794    3.0704263654   11.2187905454
  13.6062758538    8.4626162486   14.0157526042
  14.6544761445    5.2112534334    8.6067570714
  15.6404703100    3.0272554970    9.7146599029
  15.0019173433    7.0869968463    9.8972466636
  15.0802989675    7.1020682428   15.2197807768
  -1.0842071488    9.5178809432   11.4290197042
  16.0952751416    2.9012834131   11.8525842335
  -1.4451271668   10.5994374809   13.4714548505
  13.2649622017    5.8688437468   10.1402232560
  14.7978204683   10.1440655971   12.1785842469
   1.4686795489    1.5316526547   18.6477859552
  11.8463314596   13.0791048904   16.0298198957
   1.9629321125    2.0730327429    4.6571709075
   5.2955990553    6.4004803303    1.9743420093
   5.3697548265   16.9120761562    8.6215406201
   9.9855463355   11.8887798441    7.8162253400
   5.5080219212    6.6928254228    0.1727282796
   5.3652582422    3.1102030946   15.6410985155
  16.5589309514    4.4042572369    5.1305952870
  -0.0499493328    2.5664992819    1.7951232273
   1.2404938840   18.0114916479   17.9708260766
   0.2322290368    1.5774730420    0.4058841224
   6.4035343654   14.1293229717    7.9387370906
   0.1471090947    4.4803136512   17.9291081600
   0.8339123993    1.1861912813    2.2323893503
  12.4286649483   11.7596805059   12.0243594337
  -0.4062840006   19.6527193329   16.8610190912
   6.9243676596   14.0456644228    6.1908279815
  12.9024298258   15.7827764064   14.3843314415
   5.9876338417   10.5744746076    1.0949508285
  13.7942609123   12.8494572176   12.1997227031
   2.6918756507    5.6699043989   19.1322031562
   2.4584778661    7.4673421862   18.6035606594
  11.5433923890    9.6672410787   17.7431954175
  12.1583717480   11.3847169598    7.1953148656
   0.9469498798    1.9610144679    6.1295023384
  16.8115982735    3.1471601093    6.2117555308
  10.3667390823   14.3239045634    6.4235713787
   4.7273681466    3.5380994002   17.3270619077
   5.2258191260   19.8682030410    9.1008262484
  11.9596369836   15.1573761676   15.7810146415
  12.6922199856   11.0749293597   14.1412687380
   1.9360907665   16.4581799223   18.1901761679
   2.8189533271   17.9158857637   17.4164098979
  11.1481208894   16.1394061426   14.4308101048
   6.9664770557   17.4707504569    8.8859450929
   0.2817742531    3.1354031252   16.7984132095
   2.6303589513   16.7469835368    1.9877273817
   1.1724864157    7.9616873213    6.0511306889
  13.1948199581   12.2024423604   16.6058301878
   2.4239956798    3.0950798008    6.0114184704
   6.2371720063   16.2078515254    9.9960978044
   8.6948615766   11.5549397643    6.7435020862
   4.1094848586   10.6804201595    0.8580936742
   7.1329396935   12.7403471614    7.2161217383
   4.9050511587   11.2856458266   19.0996970103
   3.9573082717    6.4143732101   18.3330462715
  12.2698541808   13.5337492548   11.8856137577
   3.2178577559    1.9853664679   18.9813593340
   3.6771968614    3.6771702423   15.8665167556
   1.2517479120    4.6681652453   16.5593183202
   2.1295109264    1.9274725246   15.9967050082
  16.7055166257    1.5709463928    3.6865608101
  15.6826701558    2.7625541455    2.6456993192
  12.9351658027    9.8724816397   16.7325048056
   3.0174794026    7.9442487552    1.6150395179
   3.7386141438    8.2293102313    0.0224734924
   1.5982218236    7.0454490288    7.7503215043
   0.7261487183    4.8770840663    7.5201424769
   1.4273993411   17.3460613113    1.0211495776
  12.4385353928   11.6994207954    5.3543507245
   7.3678036911    1.1859487799   11.3913033172
  11.9050353857   12.9830312184    6.3446364424
  11.5704323422    9.1063998656   16.0358688286
   8.7861039116   13.8189301870    5.6476259058
  14.0091933819   11.7553200204   14.5084789688
   4.0103815639   18.6035358664    8.8881273993
   7.0471173127   14.9461630831    3.4489346265
  -0.8213049215    5.4378535135    7.5619525959
   0.0308814696    7.8902815559    7.4453024317
   5.2679492076   14.6354749589    1.2334015513
   6.2820185186    3.1675715627   10.7075146331
   0.7005395419   14.8149480909    0.6162985636
  13.3551510280   18.0807692126   17.2705544319
  14.0221226882   16.7398741640   16.2381290177
   4.6568754351   15.3123059050   18.5151865177
  13.8574979824   15.5232613593   12.3704516813
   8.5031393450   13.9820789336    3.0770091121
   4.6145429329    3.1224418629   10.1928813386
   3.1428344034   19.0281483752   11.3164444570
   5.7261677655   12.5159228928   16.8365390148
  15.2780599213   14.3362875534   12.1611543215
  11.5698460804   19.4467560060    2.4949521774
  13.6913270180    1.3350040446    3.5320971979
   4.5533381183   17.1308018519    4.5201751203
   6.3110031949    0.9686864952    7.3956190129
   3.7824666363   19.1068763220    1.7363539836
   0.4300305918   15.4690296745    2.3035283534
   6.4144360256    2.1854936788    3.6926570178
   3.1999034592    2.2254709759    2.0213908498
  -2.1366136422   17.7256451574   11.1256748712
   1.0774549154   12.4366943798    2.3005932199
   2.0320301108   12.4848311490    0.7879714527
   7.0325520231   13.0955968413    3.6243819506
  12.8597204374   15.0331632929   17.5390163906
   4.9219737903    2.4590013332   11.7535146858
  13.6581875778   15.9747940998   18.6206111715
   6.6793018894   14.1758543988   16.5869970226
  12.0284099313   14.3201567644    8.2509260962
  12.9491281251   16.8888142990   10.3378692927
   5.1856914407   12.8580584908    1.5853588485
   2.8595333278   15.9945972759   10.9876812165
   5.7826902175   18.3213075330    4.2590415947
   4.5025939726   15.6120191481   11.8679647606
  13.3150310939   15.2350773124    9.0610905076
   4.6791354760    3.0167754861    1.2678539853
  -2.3268785082   16.1489780831   12.6215407317
   6.3599204031   15.6774914684   18.5231412746
   2.8344152244   12.3729055533    2.4105203447
   8.0061779062    1.2579640601    7.0583976012
   6.9698704761    0.5650301411    5.7640812739
   4.8272476324   14.1084878862   16.6295131315
   7.6405286374    4.6903582904   17.0228467773
  11.8410391630   20.0608998887   11.4521743516
   3.7137102834   14.6788979538   14.6344548566
   4.8518885785   15.7586829170   13.7124369829
  10.0855151319   14.1772570471    9.3000729024
   3.8863240144   17.2954347827   11.8200354898
   5.0459957632   17.3955213278    2.8864479236
   8.3591042163    0.6922167066    2.5052259771
  -2.1226491409   17.2803162038    9.5627539171
  13.9181663411   19.0323786209    4.0526701000
   6.6639687518    2.4100096118    1.8672334961
  12.5963949603   17.9721742552    3.4465680656
  13.0205496897   17.8847380796    5.2474559422
   4.3264070430    3.1932643703    2.9247680319
  11.9710018894   16.1851106057    8.1158020204
  13.6419317259   18.4309728486    9.3445436060
  10.3844346520   15.2389131059   12.0640232540
  -0.0327168732   18.8141066872    9.5712587802
   2.0136775675   12.0223223451   10.8806848669
  12.2477344700   13.9053167413    2.2770227336
  10.9056547886   13.3285035005    3.2006699570
  11.4151088841   18.4595391778   10.8448755379
  12.3376187812   18.2755221252   19.0860739164
  10.9867277169   16.1776298729    0.2672468782
   1.9366153232   13.3655927930   12.1165560744
  11.7260959520   18.5226037541   12.5877209417
   0.4350114047   12.8673435657   11.2578306224
  12.5023213013   12.6377932088    3.4715172725
   4.7505571869    2.5534577550    5.7078084129
   9.6494972036   15.8030906313    9.2730205425
  15.5735062028   13.9131629470    7.8635947961
   9.2045322508   11.7347951660   10.2478302978
   5.1868359023    3.1324188682    7.4155599883
  12.5205237269   15.5073610672    1.0101107403
   5.8126787703    4.8067444945    4.9061612637
   5.9960041267    5.2728147702    6.5601836853
  14.3630785769   11.7553557535    8.0321357160
   5.1909463122   19.8205698514   14.5327827710
  -0.2490167606   19.4319229759    8.0076070479
   1.1113396311   18.3260432462    8.2393700766
   8.6952295529   15.3706797494   11.5306469109
   3.8859230314   16.8058889295   16.0295164446
   2.6849784958   17.3013801705   14.9348636552
  -0.5236507171   13.3907723532    8.3445729197
  -0.9430974561   11.4527185216    7.5902200975
  11.1677206097    2.8928506406   14.5126352330
  13.7081153628   15.6904005519    3.6231904225
   4.7737990086   19.1877493732   16.0827602486
   8.3079114272   13.2414355081    9.8675362036
  15.2941644475   11.1901988846    5.6365082369
   3.4446276712   19.7232688205   14.9852388881
  -1.1344007483   18.8789401901    5.8590454738
  -2.5652144829   18.0797640870    6.3817519059
   7.7515689601   12.1139577490   11.2436908164
   3.0287662528   12.7091544738    9.2184352050
  -1.4507894905   14.5041964534    9.3930261106
  13.1544289710   15.8038645506    5.2043287738
   3.6743678703   14.2142382855    9.8527881915
   0.4202922305   17.0431549346    6.6086038653
  11.1889318152    3.3415974727   18.9544436894
  14.6631145477   10.8852270664    9.5237545831
  -0.8966868819   16.0063125664    6.8080357109
  15.7560823351    9.6032017893    5.1632597156
   4.5071467576    6.6802463002    4.6666805371
   7.1228935572    8.3821902104    4.1082929724
   3.7877869656    7.0538148375    6.0600167372
  -1.1752779391   10.0993225929    8.8531125065
  13.8422727976   13.3832056531    5.5614555588
   0.5310401583    7.0706575723    4.0635890871
  -0.7671342519   10.8262229414    5.7887641928
  -0.7771564457   17.4352498096    2.7779955481
   0.2897738216   17.7709475187    4.2348885772
   1.8171397791   15.0422982528    8.0614255621
   0.7996837188    7.0179498142    2.3849645189
  15.2301207721   14.5954063314    5.4245335404
   3.6941233636   15.0889087384    7.8120732800
  11.3433906307    6.7082428425    3.6393577169
   6.6641192423    7.5357049806   17.1281425720
   2.7462982270    6.1328629202    4.8901754638
   1.1065776685    8.5388977672    3.2638525017
   6.7260577773    6.7899881824    3.5661894711
   8.3158426984   16.8232112642   16.9095181444
  11.2732592349    5.0569501814    3.0380158152
   7.6138876566    6.9560286232    5.1464534450
   1.0633116910    4.7606045434   11.9465045446
   8.2344294727   18.8342885924   11.2951238382
  11.6505827271   10.3871502062    3.8652025309
   8.5472633531   15.6082520283   15.6666190708
  13.3123166052    6.9610370657    6.7344044989
  11.4443324151    8.6102773564    3.2775752257
   9.2269843355   17.4263254122   11.2254017060
  -0.8067553956   18.9154505327    3.8120980614
  11.6190170023   10.5990864520    1.7442107570
  12.6788261612    6.8243066584    1.7703202922
   8.6956378166    5.2598178132    3.2956134909
  -1.2023045597   12.8273378825    5.0298351118
  12.0477008923    8.9481439970    1.0304995390
  12.3835385655    5.3223039834    0.8821435211
   9.9461088459   16.1172464412   16.9038249760
   9.4964809509    5.9496821758    4.8112437930
   7.6454795898   17.2880522320   11.8797761793
   1.8064230301   14.7700886093    5.2482459837
  -0.8885763023   14.1652252643    4.0859141161
   9.1441452380    9.4872827914   10.5097283057
  14.6509280359    8.0173997769    6.1701716955
  -1.0055278558   12.5480633277    3.2074315045
  14.8867657065    7.7310705736    3.3188672280
   3.4769231907   15.5028375908    5.7043661013
  14.7325203516    6.3810932220    5.7759472573
   7.3888922454   19.5395204195   13.1690410116
  15.9771227676    6.9210342549    4.2559680626
  11.8951692574    8.7273383338    5.8532616574
  13.0456003531   10.2420610764    0.7314558424
   3.3020663902   13.9888102362    4.7075601701
  13.3677202476    9.4079373874    5.5295550028
  11.9296900999    6.8513765264    0.1845116276
   9.4636585249   13.3731432659   16.9740344321
  -0.8337352485    8.2755314020   13.9913744899
   9.4914757503   12.0043537973   18.6851388737
   7.2293370778   18.2075653725   14.4040419766
  10.2806468966   14.4474013861   18.2933423734
  14.7666335987    5.5062905107    2.4563174256
   9.5592984063   18.8911366224   15.4317061775
  15.2764944460    6.6114663339    1.1554817971
   7.9069471027   12.9445331640   19.0449378310
   2.0030208211   10.0879087873   16.4163524416
   1.1900073627   14.7366256523   15.4253957373
  10.0492592057   18.3556128465    5.7591927835
  10.3895247981    1.8357121644    6.7202831877
   5.0403286306   11.1551904315    8.2892263394
   3.6443472757   11.1477719177    4.3524128782
  11.6074785388    1.6028298715    8.0499403564
  15.8196986051    9.5443902686    0.4224657806
  15.7718001166   11.6014307770   18.0662714626
  14.6742849041    5.2870531724   11.8687109510
  15.6323887370   13.1764402181    0.9473603057
  14.2150418564   13.6515808666   19.2987092807
  -2.5637767575   20.0755932033   11.8185282179
   2.8767627825    1.5454580959   13.6885818728
   0.2702016998   17.8289231073   13.0572080876
   1.1103770942    1.5501017699    9.8187153255
   8.0940452617   19.9874028985   15.7107601360
   4.3315837539   11.9978867837    6.9075686361
  -2.0742177458   13.9435266172   15.0378022221
   9.5700620609   17.8163441342    3.5935013114
   2.8508083828   10.4588508575    9.3149757628
   2.6575343954    9.6809018532   14.8687709999
   7.9073657031   18.9071132266    5.1943190826
  -0.0928228734    6.9625113322    0.0539865261
   1.8115606720   13.7958568182   13.9257526989
   9.0125557304   11.8081247114    2.8710468644
   1.9007405397   11.0271180750    7.9665060013
  11.1711732075   19.7740071340   14.4645987490
   4.7027633808   11.9544600886    3.4991251451
   2.7629924353   12.8480388001   16.0942762620
   1.8212027981   18.7827133283   13.1901898689
   2.8851546746    1.9383898697   10.3904011797
   9.3244257492   17.1891247040    7.0064410311
  -1.3623575255   12.4069089080   15.7233054267
  15.9584118106    3.7033162162    0.6422004653
   3.4073750551   10.9421383329   15.8858757652
  14.9463721020   11.7122125046    1.7685929832
  12.0836110339    1.3746618475    6.5428565267
   5.1354097769   10.2055569146    3.5562650898
   9.0818570634   10.1155763510    2.1495312579
  15.8230429868    6.8637773859   19.0010232898
   6.6160404077   10.4854687598    6.7028636763
  14.1135720608    2.4182511423   13.9595122192
  -0.3478020184    8.2658832820   17.7270326079
  10.7501572650   16.4968570139    3.6557223256
  16.2320145907    9.2468021842   18.4304152714
  -1.2214563268   19.3639423480   13.8307466889
   0.5052353367    1.8779399323   13.2790814059
   1.2810031648   18.1210533570   11.6554041258
   2.0425700221    3.3384056403    9.6256615529
   0.4815505088    9.5701237271    0.8232001709
  -0.2775931412    4.3196916462    0.3552887781
   0.3549495307   12.1733598017   18.6966917916
   1.1087552044   12.4436982562   16.6032694185
  14.0013105234    1.9512414250   15.6599666442
   9.1679781323   16.0332167389    3.1922849339
   2.0044842871    9.2602596471    8.3508316453
   7.2514050787   17.5746967680    5.9491924453
   5.2233412859    9.4123259977    6.2298894826
   7.8401802574   11.2894039741    1.6333657510
  -0.7425259033   13.8323973956   16.4403373212
   4.9251881354    8.8377874819    1.5904519462
   8.5657070774   14.2190091190    7.5070506637
  12.4613717872   12.9513173059   13.7304351943
   4.0972863716    1.6934661143   16.4777366038
   1.9844723871    3.5000117557   18.0870997703
   0.4175438967    6.2396439907    6.1284217441
   3.9321852448    5.3614022125    0.9413126351
   0.6530095147    3.7197186077    5.0080459220
  10.5114988203   11.4703038647    5.8332219280
   5.5416755302   18.2095845779   10.1946567882
  16.5287050684    1.0284322660    1.8093522620
  11.4087600773   11.1028448131   16.4053371919
   3.0436492387   16.2860444384    0.1020818748
  12.0948813138   17.1934133875   15.8858745610
   5.7751914018    1.3841504750   10.1147307377
   2.1278096554   14.2341385215    2.1126018945
   7.2017658773   13.8244825494    1.5971844436
  11.9244114688   19.5169172707    4.6031600991
   5.8887451720   13.6844586043   18.4792695193
  15.0731265374   15.8248488841   10.7025090766
   3.9577984439   18.9861881691    3.8899166084
   4.9394556925    1.2536245724    2.3785083132
  11.6675198556   16.2660842591   18.5778031199
   6.8087456221    2.6250871912    6.1969005935
  13.4133895956   18.8208004935   11.2994010410
  11.6399093297   15.2411253195   10.1147122016
   2.9446981669   15.7360363109   13.0357335859
   4.5814950883   17.9365825967   14.3878157271
   9.8942086254    4.3385533130   15.4907630252
   9.5194363450    4.1245169871   17.8878209688
  -0.8416506313   17.4576881654    8.1715774727
   9.5196169972   13.3621364471   11.5541381964
  12.0162992577   14.5731108075    4.2432490376
   1.6049058111   13.9955443401   10.0380947883
  15.6954149234   12.5681012127    9.5141275607
  15.7775522050    9.8254817872    7.1238419990
  11.4048917160    3.1683836459   16.9408665401
   4.0155275355    5.0238213980    5.9308677756
  -1.5648557903   17.2435881729    4.6088544095
   8.8352292089    7.2991088318    3.4687997460
   8.1925125989    7.0967724720   15.6051477482
  14.9825724761   13.3233270478    3.8694575282
   2.8309721446   13.7160027505    6.7367934942
   8.7725262161    7.8883812484   11.6550343359
  13.2696259038    7.4995531751    4.8884931296
  -0.9091683660    8.2306255981    2.9247701840
   0.3640833919    6.8109054295   12.2694678673
   8.4375442912   15.0721113803   17.7947462964
  10.6165289920    6.3786400379    1.6634512856
  13.2348773029    9.7280283828    2.7281378474
   9.0116112014   18.1389865160   13.1703369303
  16.5499699341    5.3451655514   11.3238713615
  15.8447293105    7.2391917988   12.4968322917
  16.7492323384    5.4968779161    1.6878263330
   1.8087201708   11.4882926021   14.8493000108
  12.4519192130    1.4563262788   14.3670287413
   5.7123987122   11.2465342855    5.0807690156
   7.7676886569   19.1600273955    7.2476706513
   9.6480124507   11.7531395937    0.9573515104
   0.1688752151   10.2381022849   18.3085510776
  -0.0285517169   19.6014270508   12.0724555888
   1.3489022277    2.7438839647   11.6072565448
  -1.3042737334   11.5260287824    0.2728705612
   9.2368828334   16.4212561592    5.1241173844
  -0.1770564168   13.4999874496   14.4728494039
   3.5836700833    9.9575614601    7.3858319986
