B2 C140 Ca1 F48 H298 O66 
1.0
1.7779431560655762e+01 -7.7419749043995186e-16 -1.5811203432708740e-17 
-2.9861555229147307e+00 1.9233086307854236e+01 1.8824555921522457e-18 
-6.0155671337284444e-01 1.5454987165007306e+00 1.9475820494633954e+01 
B C Ca F H O 
2 140 1 48 298 66 
Cartesian
   9.9475840521    3.7434670498   16.8251274698
  -1.0786596015    6.5248447126   12.1439640991
  -0.1169548562    1.5729588921    1.5374730922
   7.0812704690   13.7185012394    7.0908802528
   4.7508677884    6.5209767828    1.0373589080
  12.5470310939   12.6645481867   12.3844174945
   4.3321195635    3.0134033048   16.3168783990
   1.9823116302    2.0571548850   18.2675641446
   1.3692139182    2.7710291935    5.4555904102
   2.5092793018    1.5325582836   17.0126760749
  -0.5917878196    4.1201766001    5.7806556610
   2.9692099835    6.5715547775   19.0772694812
   1.8850172345   17.3668573067   18.3356186524
   0.6408207064    4.0116552734   17.5447122505
  11.7669643422   15.9468568647   15.1632431126
   4.8878028894    9.9503594013    0.7462871703
   6.1240553830   17.1738829738    9.3884840271
  12.2827031207   12.1544886950   16.0901149822
   9.5785830616   12.0948280284    6.7025487247
   9.2762272598   13.6957670403    6.5545959213
  12.6992423569   11.8722254437   14.6765552425
   3.9167568006    7.8656156579    1.1241927481
  11.5247683079    9.9678622881   16.7785246660
  11.7771691332   11.7335536763    6.1671070186
  -0.0885544455    5.1477650271    6.7313313347
   0.8731299536    7.4331393496    6.9794214072
   4.4501837462   19.0262232977    9.6267964037
   2.0885989895   16.3999896612    1.1971917217
  15.8453362696    1.6879176560    3.0176963364
   3.5556482696   19.5861217531   10.8342398601
   1.3380631049   15.1649573621    1.5480406664
  12.9729849742   17.0278904146   16.9906132867
   5.3275280384    2.5551394667   10.8642551713
   7.4289059533   13.8803402839    3.0362215798
  14.6251077927    0.9373442226    3.4660662123
   5.8750002513   13.6369298711    1.0943322652
   5.3576520565   15.0141798950   18.9887605132
  14.8203714695   15.3938274092   12.1357448055
   2.0626780486   12.8456516763    1.8238803090
  12.6417128223   15.9325498947   18.0922074421
   5.4922921257   13.6966453337   17.1239653350
   4.9548462463   17.8489435121    3.9893350362
   7.1631115031    0.4618459602    2.6848759521
   6.2488644597    1.6190612991    2.6918047029
   4.0685232379    2.4017002016    2.2540518694
  -2.6976388688   17.2035298133   10.4954553331
   6.9270234742    1.2835432467    6.6457626357
  12.1260716929   15.1379708460    8.8987025175
  13.6101879232   17.7414760230   10.3401098906
   3.5507563833   16.0447398981   11.8226857121
  12.8725901747   18.4861682651    4.3712340466
   7.2544830458    2.7631954391   18.1950532917
   7.5038952271    5.2432592616   19.1750579495
   7.8779001865    4.2366188477   17.9163831713
   3.6594151978   15.7191930647   14.1926363718
  11.8712114149   18.9280976777   11.6819453441
  10.0732623168   14.9650117072   10.1217612821
   9.3547782863    3.5156303020   13.2526958211
  11.9916415674   15.7338232194    0.2649086051
  11.9249230155   13.5254163881    3.2551035399
   9.4557566172   14.6664697898   11.4997612982
   5.4208371283    3.2266160909    6.4948279733
   1.4086651402   13.0738045003   11.0566260068
   3.5294136489   17.0157619217   15.1101461195
   0.0062902832   18.4905379833    8.4893053047
  10.3038235414    3.7677152307   14.4290937154
  11.4183065369    4.7696953975   14.0156570120
   5.3771362441    4.7492424866    6.0521347622
   4.3485112393   19.2722102520   15.0863245662
   8.4888091351   12.5547548773   10.7103964061
  -1.5272209918   13.6037657869    8.7606988170
  14.9145841373   11.5718075646    8.7937949271
  -0.7193330543   16.9504683658    6.8459286442
  -1.7471653077   10.6661538444    8.1689789018
   5.6734783133    6.8951200467   15.5067970105
  13.3749205415   15.0650263077    4.4494406369
  -1.4637794271   17.8764284177    5.9305724442
   2.7492021828   13.7078064731    9.2436250221
  15.8415420060   10.3056681814    5.7847742825
   3.5739248894    6.3328170879    5.3574230205
  11.6153454695    2.8538347742   18.3034773678
   2.0375443203    5.6850358798   13.4230231244
   8.8038548379   20.5923223515   18.6136422574
  14.3726909891   13.9970519446    4.8922580288
   6.7654432891    7.6168799252   16.2208697180
   2.6755937160   14.5782780505    7.9312803712
   7.4754036425    7.3730984779    4.0013613157
  -0.6318274695   17.8941032497    3.8184025676
   6.8971502585    9.1418196015   15.9947729955
   9.4591762268    7.7340103890    9.5597205294
   0.2670576042    7.6792799897    3.3301476502
  12.8471769984    3.6714037488   18.6449856473
   2.1421180397    6.1008876140   10.7317057750
   1.2294070364    5.7851667570   12.0838857655
  10.6624752325    5.9657246264    3.0287584285
   9.3135339236    5.9670230823    3.7378377103
   8.5937100231   15.9684864394   16.9665455895
   8.5142426492    8.4949858381   10.4857793869
  12.0505152603    9.2793599448    3.8836249057
   8.4270267981   17.7754969477   11.8444376418
  -1.5218549992   13.1494327215    4.1357899998
  14.0413826279    7.1564074166    6.0690954778
   7.1231949813    8.7246970013   10.0093275046
  12.5779420781    9.7837135328    1.5585141008
  11.8537681516    6.3299133183    1.0969697159
   2.7692052144   14.4434193470    5.4966250700
  12.5963243041    8.6969862233    5.0741331597
  15.7916743538    7.2472993642    3.3389608524
   7.8574341555   18.6748368881   13.9349567472
   9.1372622525   13.9873619607   18.0302744695
  14.7197626575    8.3032716632   14.5749143604
  15.7777023764    8.3315395267   13.4304012762
  15.5834857032    6.1953098875    2.1996947688
  15.0018913113    3.4791064554   10.9841889153
   8.6367198395   12.9140325628   19.0981572146
  15.0491044889    4.9483184428   11.2006339300
   8.5452012848   19.5131224430   15.0524611242
  14.3245808595    5.6664246396    9.9974777755
  15.7576254211    9.7075874838   12.6957520708
  11.0297435158    1.2573558695    7.1589088791
   2.3422884585   10.4819217717   15.6572957198
  -1.8379310602   11.6340598865   19.2322587524
   0.9102593449   13.7463379372   14.8926635723
  15.3910486334   12.1839946604    0.7102645851
   4.5163273512   10.9466599817    7.3395940495
   4.8021586074   10.9631308184    4.1834072420
   9.1527471542   17.3343226681    6.0766567908
   7.8810755119   18.2874229741    6.0173055304
   1.4519690991   12.6497943124   15.8259929676
  -0.9352312234   20.2195209255   13.1332067371
   0.9019094789    1.6457180284   12.4996262377
   0.7103071616   18.3680354467   12.5973518463
   1.6177710515    2.2946965504   10.1953645900
   8.9363256480   11.0832081146    2.0271906258
   2.4355192963   10.2435455255    8.2953659227
   5.5714312498   10.4191036059    6.3577384719
  13.6394354462    1.5820660853   14.6524520714
  -0.7799469814    9.0380362964   18.5181681603
  16.6383461476    4.6919430573    0.5689678222
  -1.3067788653   13.3573277234   15.5503421241
  -0.3311140986   11.2345655498   19.3355524548
   9.6530769979   16.7369172533    3.7356592921
   8.2986638839    7.0535287172   13.5836396125
   7.2120971347    2.1600103745   17.0155786264
   8.2145662035    6.3401830409   18.8613761939
   9.1629951982    4.6817851010   12.5639336153
   8.1266343373    2.0039682641   18.9878544689
   8.6354703775    3.1495622130    0.8367911112
   6.0204479600    2.7887152233   18.7393796796
   6.2039501617    5.5573300133   19.3588103444
   8.1242389187    3.1036826212   13.7639103267
  12.0417658103    4.5295619297   12.9058295566
   9.7161375397    2.6165126799   12.3968929407
  12.3071167551    4.9812504692   14.9935700154
   4.4439031622    7.2247722292   15.8527178868
   5.8445619660    5.5399397232   15.6099062861
  10.7649815417    6.0450208648   13.7970437888
   5.8168652026    7.0891173319   14.1000982311
   2.8705810632    4.6493947975   13.3897172259
   7.8602311843   19.8478942626   18.0122435458
   2.7644383795    6.7798956692   13.5644449518
  10.7196145467    8.0280457858   10.0089125802
   1.2847926538    5.7320647924    9.6718913505
   6.7259953963    9.5192550615   14.6091456711
   8.0380764447    9.5412155385   16.4758712879
   1.2367731714    5.5156519652   14.5902003980
   9.5529059070    8.1231296417    8.2991122849
   9.2031135581   18.8151915166    0.4336880940
  13.8166222077    3.4715297796   17.6393988792
  10.0338140812   20.1403415647   18.1121043967
   3.1657273916    5.2332825839   10.7583146148
   9.1116631904    6.3738117694    9.5696301942
   6.3842589975    9.3022105587   10.9778051756
  13.9263125138    1.8238585339    0.3852753246
  12.4992098983    5.0215643973   18.7135887038
   5.8501207553    9.8635843833   16.6032850079
   2.6560498435    7.3985029330   10.5309580217
   6.4519549502    7.6501349635    9.4427203505
  15.0193614490    9.2226575893   15.5423689036
   7.2105133109    9.6286766003    8.9305884845
  13.7879586603    2.8677618295   11.1966432138
  13.5641625028    8.5794071872   14.1915636208
  14.4810558589    5.1702881554    8.7021914526
  15.4464437372    3.0675186891    9.7565873817
  14.7345930135    7.0171166535   10.0769455517
  14.6888704129    7.1163516963   15.2646187843
  -1.3271372657    9.4963061088   11.5993739016
  15.8930221813    2.9444712133   11.9632376496
  -1.4330752771   10.6308188244   13.4460483495
  12.9907068303    5.7235868256   10.1452897697
  14.4793957023   10.0682385465   12.3294562618
   1.0098206601    1.7105455560   18.4378949039
  11.8937362416   13.1859635509   16.1207272713
   1.7242924691    2.1838030786    4.5791790997
   5.2424461255    6.4193245074    2.0129833205
   5.5537779864   16.8036582672    8.4553213380
  10.0553891946   11.9679091348    7.6809362679
   5.5306352066    6.4625694315    0.2029463084
   5.1594098016    2.9762903447   15.5326857366
  16.4062440790    4.4599355656    5.1533604920
   0.0834556906    2.6356966587    1.7661262720
   0.9339213080   17.9748101437   18.0995163830
   0.1088507615    1.3742968827    0.4815025736
   6.4342044559   14.2640008101    7.7542865247
  -0.0523030066    4.3915959572   18.1852792003
   0.6337470346    0.9358717594    1.9386067497
  12.3052820738   11.6204020163   12.2402768236
  -0.7189895451   19.6937880602   16.8652986777
   6.8417498428   13.9295323998    6.0569243863
  12.7407649828   15.7122546679   14.7542676814
   5.7185164310   10.5756280310    1.0834699691
  13.5979526099   12.7182091647   12.1273306824
   2.4313634245    5.5620017834   19.0648458563
   2.1937615228    7.2268861167   18.7377839835
  11.2178996384    9.7374837889   17.7948912050
  12.1456338825   10.9542618291    6.9548550113
   0.9942614565    2.0718674468    6.2111872974
  16.9587823978    3.2785954394    6.5156647713
  10.2432270666   14.2475520973    6.6242285193
   4.7477843603    3.5237453877   17.1994915687
   4.7883533399   19.9230167871    9.1347815020
  11.2618736136   15.0202812048   15.6386658552
  12.2930894589   10.9447078501   14.3971956239
   1.6735907795   16.3065968769   18.1633137597
   2.6551657450   17.5654106173   17.6476505840
  11.1229778355   16.1515245556   14.3100644451
   7.1571512621   17.5784866627    9.1149306903
   0.2225537842    3.2784036232   16.8258947906
   2.7881595202   16.6971154637    2.0465207490
   1.0227135309    8.4001418435    6.4608053349
  12.9641227383   11.9305753777   16.9181366989
   2.1977767427    3.2721189241    5.9243501358
   6.3428986614   16.4249798347   10.1191887819
   8.6302093280   11.6620599058    6.6444002732
   4.0474270325   10.6242505174    1.0097803156
   7.0832993933   12.6002181962    7.3000580529
   4.3744475636   11.4106183131   19.1047281383
   3.8066141830    6.6933639121   18.3268340689
  11.8742986881   13.2364753908   11.7271719880
   2.6634691781    1.9270044333   19.1602372313
   3.4653756894    3.5742925328   15.8823478671
   0.9290037353    4.9600548928   16.8264727729
   1.8114318954    1.9402968205   16.2665492896
  16.5333109223    1.7387034629    3.9147084983
  15.7666003719    2.7526580415    2.8989775417
  12.6856721057    9.6244467745   16.7830322546
   3.0781441753    7.7839967788    1.8930997918
   3.4816683555    8.0955245143    0.0348557526
   1.8818128563    7.1699349430    7.3638520730
   0.6418538422    4.5457130720    7.3415642672
   1.4334738581   17.2378101552    0.8728547583
  12.5474532451   11.6509669051    5.4716253790
   4.2766695863   20.0775975634   11.6548989996
  11.7500286279   12.7359509580    6.6042900878
  10.9765293394    9.3202794615   16.1251394245
   9.1186680798   13.6952865920    5.4796385717
  13.7285884229   11.9495266765   14.6805968530
   3.7778906456   18.5579288199    8.8149056263
   7.1640153800   14.8671138457    3.4359178252
  -0.9543426900    5.4872854536    7.3474722564
   0.1531784874    7.6740979776    7.7958058199
   5.2505695566   14.5305535300    1.3693288744
   6.1773239249    3.2995126814   10.9619241290
   0.8489558256   14.8187381695    0.6580536769
  12.9902491514   18.0672792070   17.4645405869
  14.0061591561   16.7500886227   16.5061887961
   4.4039832889   15.4250501067   18.5697023677
  13.7788370330   15.5972524110   12.5143613250
   8.5197287094   13.6720586646    3.2588139236
   4.5277719159    2.9786763152   10.1912766679
   3.0428044933   18.7668519656   11.3837767269
   5.5718396840   12.6696635560   16.6537097461
  15.0809079860   14.3511181915   12.2404261001
  11.2190537578   19.4216144252    2.7112445047
  13.8664461499    1.7182803273    3.6241501908
   4.4501693031   17.0451101086    4.4654579814
   6.0842605636    0.9885126417    7.2646049806
   4.0605151386   19.0320882111    1.7462128310
   0.5069338067   15.4459728679    2.2264185795
   6.1956827686    2.2801198459    3.6898881095
   3.0382072789    1.9576197271    1.9611494937
  -2.1942009051   17.7292654683   11.3186082463
   1.0826404524   12.3788145665    2.1805770909
   1.9671656908   12.7120962506    0.7375535640
   6.8720794642   13.0749809464    3.6424995645
  12.4322741157   14.9467875034   17.5687369654
   4.8984822441    2.2896605507   11.8885053583
  13.5506619459   15.8726180167   18.7135003570
   6.3443454259   14.2801912076   16.5849141429
  11.8508360801   14.2202784077    8.2948349692
  12.8864302182   16.9217689208   10.4654606356
   5.4218719563   12.7132946710    1.6139310036
   2.9280174040   15.7839997800   10.9144415305
   5.7948749065   18.1458757635    4.6085024484
   4.5162573147   15.4779680389   11.6952241757
  13.2034215831   15.1411042117    9.1720268759
   4.3083733993    2.9338995435    1.3546399606
  -2.1725041632   15.8560647205   12.7996479583
   6.2257887467   15.6553202328   18.7683393711
   2.8888961816   12.3845699427    2.3090546053
   7.9319962738    1.1582189965    7.1498586436
   6.9167094210    0.5293202500    5.8196515997
   4.5313112947   14.1748015876   16.8446157306
   7.4352531621    4.6552654767   17.0263490105
  11.5903322202   19.9556830644   11.6965639996
   3.2686933688   14.9823398810   14.9254359428
   4.7883036790   15.4607737082   13.9939554330
   9.7354205240   14.1418058337    9.4993893208
   3.8107085778   17.0739686118   11.9294111865
   5.2512059955   17.6309321729    2.9666759356
   8.1440559058    0.9655494951    2.8089357114
  -2.1874957176   17.2500050599    9.4396334604
  13.8892480027   19.0432434650    4.3654546992
   6.6353398997    2.3851580279    2.0434768044
  12.7151043462   18.0248829194    3.3842513845
  12.8801651750   17.7317394724    5.1847724165
   4.0111404062    2.9486844536    3.1703306877
  11.8662868802   16.1417995330    8.2396896648
  13.3872803595   18.0391515766    9.3576902975
   9.9622083724   15.0299448586   12.3922968735
  -0.1247877178   18.8508267238    9.5320037018
   1.7730482500   12.0465267218   10.8703639977
  12.0106713773   13.9661075474    2.2711294884
  10.9128462799   13.0664724393    3.4026660459
  11.2220590144   18.3441615586   10.8938361223
  12.1008928308   18.0097171534   19.4400849422
  10.9998756992   16.1840889002    0.1782014986
   1.9772016823   13.3864196131   11.9601935084
  11.7301943804   18.5417625962   12.7208185561
   0.3671823638   12.9296191027   11.3181168244
  12.6641085776   12.7221238039    3.4034829691
   4.6219204743    2.8338659116    5.8298568434
   9.6974525327   15.8610583247    9.7721455099
  -2.0873424611   13.8862701235    7.8689175436
   9.0320614572   11.6840757493   10.3554891029
   5.1246430404    2.9822488850    7.4866305226
  12.1656873496   15.4908791114    1.2979996120
   5.7537479508    4.6349225579    5.0161487038
   6.0833335185    5.3644704364    6.6750597402
  14.3603635390   12.0019304331    7.9693761793
   4.9847071690   19.9413196857   14.5691135173
  -0.1386113411   19.3757270612    7.7793249724
   1.0666761286   18.2019563678    8.3913141047
   8.2927922995   14.9750931629   11.4414371980
   3.9865262649   16.8488206013   16.1248630962
   2.4046715929   17.3098772673   15.0808300794
  -0.5441560851   13.1893395447    8.4019580827
  -0.9539822587   11.3223728815    7.7327204263
  10.8257858424    2.8593950159   14.6492310312
  13.7810991798   15.7008283929    3.5503571117
   4.4964581250   19.1397574570   16.1383040738
   7.9925709164   13.0044460246    9.8942647701
  15.1798879864   11.1950465774    5.5466606973
   3.4406514394   19.7358417621   14.9244418507
  -1.1589250163   18.9353119334    5.7013737214
  -2.4530545473   17.8271278573    6.3421989834
   7.6826027577   12.0858656169   11.3882132350
   2.9255110534   12.6833711407    8.9276322860
  -1.3953800346   14.4579512143    9.4422447723
  13.3735949722   15.5996487405    5.4606845485
   3.6574933158   13.9486418939    9.9157898852
   0.4053706404   16.9411638186    6.4810323851
  10.8714817845    3.1007068337   19.1666369632
  14.2028167421   10.9933910270    9.4256024660
  -1.1432229281   15.9276892442    6.7266726816
  15.8112193601    9.5557605457    5.0129821269
   4.1730511800    6.4221715384    4.4383022377
   7.1973782123    8.4284362256    3.8586160036
   3.5354765460    7.2179522260    5.9995689288
  -1.1313322321   10.1602277299    8.9517071538
  13.8970619600   13.3230723082    5.6770205532
   0.2488867636    7.1813358291    4.3722479838
  -0.8972713820   10.7309167215    5.6959367149
  -0.9230842919   17.6253597168    2.7528958042
   0.4295529313   17.6447768290    3.9753072787
   1.7787185261   15.1415845507    7.9507886535
   0.5155372156    6.9889304947    2.5773753153
  15.1112620260   14.5131262537    5.4511182619
   3.5086916121   15.3480865185    7.9622136532
  11.3874817741    6.7506955802    3.4155494407
   6.7973965501    7.3821336678   17.2571811083
   2.5597669863    6.1109181247    4.9257198302
   0.9865527170    8.5613989028    3.3802034224
   6.8061943566    6.7459669566    3.4330628613
   8.2205322803   16.9855827068   17.1146945370
  11.1595405206    5.0404033597    3.2699396478
   7.3092745821    7.1567828159    5.0751242974
   0.7626486879    4.8819232187   11.6373989783
   8.1191772429   18.6518966503   11.3977568495
  11.4713986038   10.1514299771    4.3165096589
   8.3400050001   15.6328453079   15.9239867687
  13.4869649674    6.7300227775    6.9488387185
  11.3108588482    8.6596559236    3.3061680648
   9.2634137426   17.1644568159   11.4533721689
  -0.8812075991   18.9644768449    3.9614304786
  11.7820862549   10.5343507892    1.4181528848
  12.5207691035    6.7607610683    1.8016217790
   8.5601799178    5.2289078563    3.3210412611
  -1.3916279129   12.6398321576    5.1065719062
  12.0989961979    8.8963628347    1.4687318837
  12.1551384101    5.3561630368    0.9447990142
   9.6774893986   15.9949111710   16.9386700784
   9.4841512731    5.6195320792    4.8409520838
   7.5371885343   17.1786918199   12.0305215540
   1.8252065094   14.8933887310    5.2175778938
  -1.0168298046   14.1412922281    4.0779692126
   8.9088004074    9.5979338337   10.4568795347
  14.7550661977    7.9026561577    6.3941169841
  -1.0375197582   12.6112134817    3.3061303731
  14.9005808230    7.7653069381    3.4989252784
   3.5421991623   15.3804065186    5.5296073986
  14.6049595607    6.2464550622    5.7716361205
   7.1980832560   19.4384463390   13.2954610307
  16.1815611458    6.5401079933    4.0670220158
  11.7296951805    8.6937720204    5.7783352950
  13.5171886404    9.9466141739    0.9790906093
   3.0808088418   13.7930255202    4.6868707230
  13.2806282461    9.4618752266    5.5680155326
  11.8177235100    6.8271756511    0.0548245973
   9.2362539733   13.5512423219   17.0542649079
  -0.9931468984    8.3239710842   13.8793091124
   9.3178614884   12.0656043320   18.7548560957
   7.3228795300   17.7688065049   14.3050885440
  10.1548378649   14.3026820478   18.2560636402
  15.0636358820    5.4005040394    2.7186614524
   9.2768334326   18.7615380958   15.4810901733
  14.9809966296    6.7084157897    1.4172304477
   7.5961240208   12.6200578228   18.8123754946
   1.7710656371   10.0269381448   16.4601959507
   0.9305778908   14.7169412374   15.4414837093
  10.1088910646   17.7603090911    6.0270520382
  10.1406662915    1.8263103672    6.8240326606
   4.9126947392   11.0965465421    8.3764100880
   3.8132468667   10.9641869531    4.6711578353
  11.2592449190    1.4472191353    8.2567987839
  15.9747749302    9.4281495421    0.3717895778
  15.5329286558   11.7206931454   18.1844958099
  14.2345035707    5.1867206959   11.9578843043
  15.5855506453   13.2514511862    0.6512856160
  14.4409217408   11.9863830024    0.1064108738
   0.2067790918    0.9627484983   12.0172047411
   2.6333207032    1.7105973694   13.7650854499
   0.1023647201   17.6570219703   13.1169443050
   0.9114463684    1.5719406102    9.8548461361
   7.8356373609   19.7945919212   15.7915935170
   3.8825803028   11.8129482444    7.1396426460
  -2.2453337287   13.9259639394   15.2532144703
   9.5899995467   17.8589414447    3.5423842015
   2.8609623237   10.4115281218    9.2595440319
   2.5734281575    9.7473931668   14.7845201801
   7.8864003501   18.9269871077    5.1473428861
  -0.3084374987    7.2430491557    0.1417309395
   1.5285854943   13.8610286042   13.9759490622
   8.9536046371   11.7708434686    2.8643709212
   1.9367345443   11.1999128430    7.9743993114
  11.3844675302   19.9534809572   14.3656471511
   5.1104681340   11.7396845134    3.4791150859
   2.4156295410   12.9849524167   16.3627757257
   1.4964453652   18.8206756974   13.2616719358
   2.6549730529    1.8698685735    9.9226727209
   9.2961239794   16.7682374038    7.0633971050
  -1.6770392136   12.3465967859   15.8244725826
  15.7920410835    3.8745363657    0.7942555347
   3.3675348325   10.7934866579   16.1102671039
  15.2443093894   11.7690419301    1.8098333158
  11.7750883867    1.4302114015    6.4119466081
   4.6367131043   10.0568868447    3.6712239920
   9.4127491654   10.0631291619    2.3065064443
  15.6375909681    6.9518080734   19.1814910763
   6.6110900609   10.3384069124    6.7961263944
  14.0267206289    2.3360118244   13.9569095993
  -0.2593516576    8.2940087611   17.8910678743
  10.7027253848   16.5069095872    3.6722008019
  15.9370683537    9.1633204488   18.1990238443
  -1.4527984095   19.3720765532   13.7491755147
   0.2781269150    2.2730666579   13.2246696547
   1.1661813278   17.9066838724   11.6716421273
   1.3710729008    3.2080158363    9.5627561572
   0.4043334090    9.3893983702    0.9328511423
  -0.2857420729    4.1179781429    0.1588862307
   0.3249502867   12.1435692478   19.1514760607
   0.7841819988   12.6021157014   16.7093263472
  13.8301254971    1.7882091740   15.6646512953
   9.0166681598   16.4239477371    2.9112363717
   1.7528317488    9.3617029675    8.3680737745
   6.9966364564   17.6992212114    5.9322275419
   5.3624135817    9.4877905292    5.9919041591
   7.8682134259   10.8230647873    1.8464257505
  -1.0441472711   14.0499836626   16.3958564689
   4.9140162129    8.8323611917    1.5143621325
   8.3512579887   14.2879307617    7.3978282322
  12.2753080653   13.0137732404   13.8318115266
   3.9183885637    1.6385231291   16.5511199323
   1.8233900432    3.5430322122   18.2176268793
   0.4709050725    6.3672237558    6.0976232164
   3.9580287313    5.3663460386    0.9489246369
   0.3777411985    3.6129516510    4.9442834688
  10.4285373109   11.4766186582    5.7846177820
   5.4052522861   18.2178359551   10.2238506014
  16.4769228603    1.0566910078    1.8437008027
  11.1169256871   11.3583772331   16.4200843174
   2.9611357624   16.1344912934    0.1213680555
  11.9074470133   17.1376099592   15.9267486411
   5.5799919375    1.3016984780   10.1371207570
   2.1711923827   14.2536302152    2.1061710091
   7.2275397021   13.7742991856    1.6474710170
  11.8232984741   19.4569064376    4.6424742598
   5.6024009043   13.6816030189   18.5239316983
  15.0239721217   15.7390565514   10.7263517587
   3.9129544752   18.9161035421    3.8129047481
   4.9169887143    1.2759245334    2.3021310948
  11.3867286022   16.2837048515   18.7344446529
   6.7222287653    2.5763688478    6.1960161945
  13.2567855683   18.6799989212   11.3716656984
  11.4621465543   15.1805019958   10.1312813746
   2.7492535771   15.7415110859   13.1247497976
   4.2980900818   18.0302594599   14.4445679257
   9.5398485379    4.1631686895   15.5696164160
   9.2113364253    4.0492055061   17.8951930777
  -0.7870278648   17.3973688688    8.2414316659
   9.3734296933   13.2263708978   11.5862159493
  12.1221870041   14.5300244075    4.2947003838
   1.5887140729   13.9813906166   10.0323721735
  15.5166442319   12.6026127043    9.4488015658
  15.6501000479    9.7079348840    7.0928111816
  11.2373406823    3.1987187868   16.9805338688
   4.0206224517    5.1353544674    6.1186070883
  -1.6237107640   17.1653689895    4.6879620089
   8.7785086696    7.3085410976    3.5332220015
   7.8921484985    7.0531716288   15.6916986040
  14.9406770436   13.2495127924    3.8234209936
   2.7005051865   13.7375281025    6.7699261112
   8.6477928824    7.8518742169   11.7207929173
  13.2239887571    7.4819907679    4.8963169197
  -0.9907704655    8.2115936223    3.1176210972
   0.2506308544    6.7520013880   12.4745052928
   8.1610525199   15.0390758993   17.8716109784
  10.5827583745    6.2657023700    1.6573910923
  13.0629066323    9.7036516812    2.9998271179
   8.9204759120   18.1457649163   13.1259084446
  16.3927874542    5.4398961245   11.3272252275
  15.6667759651    7.2351791324   12.5692597975
  16.8387432964    5.4659573868    1.7981073011
   1.5839896830   11.5061084669   15.0564005038
  12.2858597311    1.2917585852   14.3028780893
   5.7542300797   11.1905705436    5.2017469744
   7.6942144604   19.0414228736    7.1564447294
   9.5882197593   11.7233330017    0.9128512244
   0.0305008827   10.1837913815   18.3789552491
   0.0242696998   19.5520500063   12.1468655545
   1.3871104332    2.6355781953   11.5004990713
  -1.1991558439   11.4637025614    0.2184637980
   9.0808154030   16.3482111915    5.0417014113
  -0.4011763550   13.3437358795   14.4864813332
   3.4859061356    9.9207300265    7.3693178428
