B2 C140 Ca1 F48 H298 O66 
1.0
1.7883375428402424e+01 9.3301346309826000e-16 1.7747305394826100e-18 
-2.9799912422438353e+00 1.9216904365550299e+01 -2.8350832170661809e-16 
-6.4680305933994875e-02 1.3318749851647473e+00 1.9356703281882851e+01 
B C Ca F H O 
2 140 1 48 298 66 
Cartesian
  10.6121006401    3.6995781355   16.7078953336
  -0.7780223768    6.2905286501   12.0041701678
   0.2010017299    1.6080892754    1.5147354016
   7.3710590729   13.7047341429    7.4518601535
   4.7297651246    6.5439018683    0.9927733048
  12.9677337094   12.6026321309   12.3796813077
   4.5467956128    2.9289566756   16.4541548522
   2.5537477868    1.8971170575   18.0723967917
   1.6218331133    2.5083509308    5.6125728996
   2.8074702492    1.1910387703   16.6697945320
  -0.1119792908    3.9615625172    5.9266611069
   3.2531706464    6.5067096383   19.0360348548
   2.5162699960   17.4684454324   18.1857079571
   1.0664602408    3.6602716075   17.2032233531
  12.2562972912   15.8422208753   14.8481068638
   5.3685859289    9.9569515668    0.8229952961
   6.1225337210   17.0569113964    9.4288447758
  12.3873571553   11.7810643908   16.0210319387
   9.6576246023   11.9106302098    6.8413440280
   9.5682962547   13.3305506654    6.5308728331
  13.1128242124   11.7265032651   14.6400204399
   4.0374899440    7.9323017500    0.8908288695
  12.3046797201    9.4893869373   16.7728142433
  12.1198873924   11.8208405883    6.3619422687
   0.0605769048    5.0063708068    6.9934886524
   0.7800869770    7.3231708160    6.7932588428
   4.9589842904   19.0743732990    9.6236494509
   2.1930973868   16.3046805027    1.1031168691
  16.0398825463    1.7257842635    2.7427501854
   4.0583857918   19.8693511802   10.5738131143
   1.3780008489   15.1071910240    1.5081881459
  13.4570023406   16.7969173117   16.7062384309
   5.5033750732    2.4673847911   10.5698252326
   7.3006380186   13.9858413724    2.9941192765
  14.8215912353    0.8067608514    3.1642210614
   5.9828628226   13.7234309329    1.0239410883
   5.8654730489   14.8619165461   18.8769002320
  15.1331272350   15.2064257668   12.0422466272
   1.8936479381   12.8689431709    1.9188308083
  13.1564588592   15.7826394580   17.7999467884
   6.1722305460   13.2625568109   17.1476610953
   5.0283299350   17.8349283996    3.7973558652
   7.2222876482    0.4010367531    2.5493148268
   6.3780174313    1.6385217588    2.5617836518
   4.4334626793    2.5586071618    2.0898970322
  15.1550273901   16.9906825934   10.3717811091
   6.9640671184    1.3825951018    6.8101498857
  12.5130108374   15.0473395250    8.7778242858
  13.8019693894   17.6254233705   10.2175345782
   3.7650084770   16.0847786083   11.9358344921
  13.1453230003   18.3525128258    4.3712022196
   7.9481248864    2.5246953153   18.1803751272
   8.2887402781    5.0162386031   19.0692722145
   8.4938717988    4.0139406383   17.9045642126
   4.0872476183   15.3948851346   14.2071761953
  12.2069491039   18.7905831503   11.5188727766
  10.3691793135   14.9209908598    9.7767024438
   9.8260196095    3.4309577192   13.1371315055
  12.1697766543   17.0956673552   19.3520455357
  11.9834858302   13.3676006630    3.2869910992
   9.8742931885   14.6086780913   11.2051284862
   5.5130961717    2.9926008908    6.2238992234
   1.6398230871   12.7999751502   11.0853118369
   4.0192098596   16.6537649567   14.9380826829
   0.3348307377   18.4768927613    8.5695657530
  10.8063404356    3.7826427553   14.2995066298
  11.8243098494    4.8637761674   13.9029389265
   5.4646378581    4.3968121186    5.7821121415
   4.7470526263   18.8640470756   14.9907905267
   8.8111112541   12.5500853359   10.6904378621
  -1.6414280901   13.3747921288    8.6454468772
  15.4006096205   11.2520073616    8.8465805757
  -0.5392002624   16.8944154166    6.9170127830
  -1.3358357043   10.4895568274    8.1668086703
   6.1541140907    6.6966877876   15.3859142945
  13.4087117471   14.8979587476    4.4526379908
  -1.4628414710   17.6382369941    5.9202780349
   3.0075579729   13.6008870298    9.3955982292
  16.1449819730   10.1853106037    5.7223577776
   4.0037737136    6.0968722659    5.2722874865
  12.1110355586    2.6708631420   18.1987324044
   2.3723046423    5.5623250382   13.2787426080
   9.2472016750   20.3069066256   18.4525330427
  14.5515133348   14.0737584070    5.0060126027
   7.4341103800    7.4160409064   16.2083363496
   2.9723343226   14.3747362429    8.0291697888
   7.5742622594    7.3801824659    4.1308694756
  -0.4463234833   17.7337877624    3.7395015289
   7.3266480464    8.9451275693   16.0330306542
   9.8434680410    7.5569685745    9.4825420546
   0.6365710205    7.6324291525    2.8677202072
  13.4250622458    3.4386818922   18.5632884542
   2.3770782213    6.1401594527   10.7464763185
   1.5514722081    5.7004670733   11.9160818035
  10.8830190253    5.8999350341    3.1303543824
   9.4905106718    6.0552324284    3.6346143114
   9.2563375860   15.6470926218   16.7108949601
   8.8115807302    8.3502768450   10.4091469621
  12.3024000367    9.3803063466    3.7085857722
   8.6650788733   17.8070681703   11.8454203256
  -1.3163671079   13.1401298876    3.9635088891
  13.9506938796    7.0923886542    5.9486993057
   7.3572480535    8.6375293469    9.9105717677
  12.4258498661    9.8979554173    1.5227756268
  12.1332189851    6.2639567389    1.1270575239
   3.0013047185   14.4240206548    5.6940421764
  12.7793852093    8.8630439862    5.0005475932
  16.0876926171    7.1518647537    3.0512197961
   8.2845314165   18.6203951210   14.0255361276
   9.8451246325   13.7112334519   17.9612495907
  15.1944892489    8.0973144951   14.4167347953
  16.1750693044    8.1509396829   13.2858387381
  15.6590242686    6.2167367528    1.9673191911
  15.3413286435    3.3779395265   10.9747640670
   9.3195273968   12.7409914090   18.9870242861
  15.4153148237    4.8704656065   11.0408837381
   9.0183317074   19.3664995821   15.0990747939
  14.7285220561    5.7031319391    9.9418379660
  16.1832195096    9.4760299074   12.5256587686
  11.5415519645    1.0455279881    7.0685079237
   2.6765978586   10.1727638598   15.5469197885
  -1.4211011439   11.4951927957   19.2681810390
   1.4554496795   13.5828333497   14.9450042420
  15.3120364346   12.0376528691    0.7179061139
   4.7216001041   10.8536938088    7.2931902423
   4.6219890604   11.0486219450    4.1721181298
   9.6167536058   17.6251938097    6.0595475232
   8.1346211728   18.2061180476    6.1271795075
   1.9884037267   12.4050909875   15.7090826703
  -0.4877014307   19.9752436066   13.0677960940
   1.1079368496    1.3324198241   12.4026448797
   1.1435067965   18.3831377234   12.5336999585
   2.1074764347    2.2246325481   10.5118110609
   8.8929199044   11.1929164699    1.9471600740
   2.7446143524   10.0221902418    8.3439721292
   5.7400718031   10.3223034314    6.1523248709
  14.0432213599    1.5175345456   14.6600160544
  -0.3482569066    8.7631714401   18.6456330293
  16.5982106245    4.5941501757    0.5202899512
  -0.9200629610   13.2003640516   15.4225185773
   0.0209462399   11.0895655731   18.9590613337
   9.9339597677   16.6668698992    3.9042524566
   8.8280427408    6.9581088876   13.4618939465
   7.9494228776    2.0709429339   16.8342241415
   8.8864433013    6.1571728386   18.7047242391
   9.2152262865    4.4776826531   12.4428622374
   8.7983828179    1.7010982675   18.8941523555
   8.8430211229    3.3424271795    0.9261304166
   6.6607057651    2.4678660466   18.5893413426
   6.9055880609    5.3692655246   19.2027135915
   8.7083733141    2.8186382492   13.6306447705
  12.4942239678    4.4335251310   12.7160100630
  10.3418928538    2.6219687472   12.2590074331
  12.7718658723    5.0266958541   14.8136374220
   4.8357834977    6.9410323863   15.7265320152
   6.3162482671    5.3662722819   15.7763933642
  11.3853709330    6.1180185439   13.6918801633
   6.2640358115    6.7330153008   14.0115575717
   3.1436071391    4.4809681661   13.2469976674
   8.2597091099   19.7056894833   17.8640398166
   3.2576779356    6.6464253678   13.5985830729
  11.1499648074    7.7620717201   10.0046627212
   1.5968604858    5.6620700163    9.7062840741
   7.1741971770    9.3970671796   14.7262998088
   8.6056537681    9.4843848767   16.4596962317
   1.4728214863    5.3508519943   14.3225083454
   9.7699742750    8.0592870683    8.2272277682
   9.2159656408   18.8068198005    0.4412158604
  14.5957498204    3.3770271123   17.8207276093
  10.4011341761   19.8415301986   18.0674346761
   3.6031947118    5.4885511749   10.7124223231
   9.7801116173    6.1494779049    9.3811271779
   6.5665689132    8.9591500828   11.0779486648
  13.9007904120    1.6124483436    0.4340405429
  13.0890122925    4.7784005946   18.5040040749
   6.3674535144    9.5879197014   16.8557743880
   2.4650364645    7.5317475872   10.8056048445
   6.7374665148    7.6450483107    9.3155669526
  15.2740417584    9.1952445683   15.1821631825
   7.3593048062    9.7339144207    9.1190266147
  14.0783288157    2.9678387517   11.2230518333
  13.8663921952    7.9224246319   14.0085575587
  14.8121771623    5.2624754816    8.6770248785
  15.7021072389    2.9717443336    9.7049674467
  15.3996931279    6.8703944411    9.7544364588
  15.3420082483    7.0342998712   15.1473538326
  -0.8428753120    9.3751558367   11.4863377785
  16.1524091796    2.7940764451   11.8020727709
  -1.1477959507   10.4136766295   13.3832879249
  13.3914121174    5.7605762049   10.1862251889
  14.9931651708    9.7720303104   12.0920677242
  -1.1445004202   20.4805106593   18.5568711120
  11.7509686895   12.6969190273   15.9169262002
   2.0924629277    2.2508410808    4.6720947176
   5.2337463050    6.4510641807    1.9648545008
   5.1879980557   16.6944653240    8.9174501202
   9.8370582873   11.7932634719    7.9260233154
   5.6496661680    6.4592343454    0.3849346642
   5.6014202607    3.1670606084   15.9994610185
  16.9625130880    4.3751691226    5.3843866802
   0.3141465624    2.6592323026    1.8279582529
   1.5413330772   18.1227830223   18.0036008474
   0.4263184926    1.5311638445    0.3564483878
   6.7181970206   14.0910148229    8.3284203476
   0.4069048326    4.4289998037   17.5965458689
   0.9061705439    1.0789636418    2.1831980588
  12.3018970847   11.8297647266   12.0198036825
  -0.1437047080   19.3622476815   16.9676822312
   7.0558924188   14.2107568076    6.5687459755
  13.1264874808   15.8501578276   14.1654087496
   6.2517455892   10.3098347539    1.3380838556
  14.0278584149   12.3813610562   12.2732827493
   2.5263986165    5.6734091761   19.1726363348
   2.9362494943    7.3681262463   18.5347819452
  11.7741822059    9.1248208844   17.6589763474
  12.2930056264   11.5492021485    7.3843932342
   0.9063814261    1.7634511266    6.0008389495
  17.3687530243    2.9740063833    6.3845674468
  10.5583626001   13.8545586648    6.7730557966
   4.4945052700    3.3660993635   17.4600615474
   5.7186811560   19.5833889178    9.1118709554
  12.4036002362   14.9370332809   15.4960457802
  13.0026399828   10.6249451955   14.2936798572
   2.2571139352   16.3783184455   17.9903229994
   3.2945483398   17.8399597018   17.5249879262
  11.3740608600   15.9736809848   14.3538733194
   6.8369417430   17.5027247323    8.6453613676
   0.4088021846    2.7710617909   17.0579265747
   2.8172550685   16.5399612596    2.0301086395
   1.3156647390    7.8437719966    5.9665132457
  13.1719184407   12.0593457868   16.7400850407
   2.3637375969    2.7978777191    6.3525212739
   6.4835174277   16.2325628443    9.9564924708
   8.8219741908   11.3137711496    6.5984349123
   4.5718940356   10.6929861369    0.6607813916
   7.1153372225   12.5787841693    7.3136709171
   5.6990973564   10.8291536569   19.2773683499
   4.1251284858    5.9618630796   18.4224514427
  12.8071947932   13.4609791823   11.7086890944
   3.4150708300    1.6686434918   18.5815753688
   3.8231632084    3.4687712079   15.9034653726
   1.6962209839    3.8966302111   16.1806703756
   2.1146050108    1.4966039886   15.9199265499
  16.6570995944    2.0147840052    3.6356607398
  15.5746949512    2.6032689057    2.3244561833
  13.4096411751    9.7541185085   16.9079349160
   3.0690581598    7.9023523163    1.4199975161
   3.7622080989    9.6990235229   19.2195216881
   1.4704940185    6.8947908910    7.5350199834
   0.9280084972    4.8252217191    7.6584373382
   1.4440651248   17.1409312794    0.9895375684
  12.6497112817   11.2456139726    5.6724843415
   7.6143801809    1.5078854016   10.9920648890
  12.3578626042   12.8410263693    6.2538601707
  12.1846510410    8.6787755413   15.9894958578
   9.1628593587   13.5293525168    5.5360525520
  14.2234910634   11.9066939243   14.7548654386
   4.3001381651   18.4998706137    8.9219102502
   6.6795696112   14.8183234371    3.2480842650
  16.9950436122    5.0198771818    7.5617376929
   0.1136064371    8.0044312876    7.3044611384
   5.5063053225   14.6438157844    1.4229266804
   6.2355014952    3.2017410181   10.9909923219
   0.8238839334   14.7198416754    0.6266760245
  13.6876387357   17.7619667291   17.2926286485
  14.4336409623   16.5779784961   16.2296963126
   4.8038990322   15.1689890710   18.5836292195
  14.0421739761   15.2676408491   12.3709750050
   8.3515784532   14.2048310696    3.3031108753
   4.7373100788    3.1184718171   10.0965491193
   3.6433736993   19.1883183796   11.3666832388
   5.9598567460   12.1455156075   16.9915324125
  15.5247520761   14.2172428753   12.3447991858
  11.4862640618   19.3172298527    2.2955016196
  14.0125282342    1.5279922818    3.4572784951
   4.7212438349   17.3868461980    4.7124139544
   6.4040308323    1.3366215049    7.7985857993
   4.1664134388   18.9913645964    1.7292501568
   0.6742461303   15.5557684583    2.2695600245
   6.6343974395    2.0985257155    3.6173775130
   3.3620732471    2.2635095061    2.1262080587
  -2.1613069941   17.6986515281   11.0681840625
   0.9454867952   12.6423841264    2.3959500800
   2.2264636604   12.5738172249    0.9553008352
   6.9294591837   13.0809845757    3.5697160347
  13.0914371120   14.7548905216   17.4036320308
   4.9800829852    2.0333336227   11.5170955911
  13.9547184967   15.7009934819   18.6325710152
   7.1574904119   13.6021353796   16.6992953415
  12.3666344030   14.2201712574    8.1100878794
  13.0120083318   16.7930151624   10.3383468321
   5.3238915562   12.8870970651    1.3943796910
   2.9725277037   16.1005521782   11.1027201312
   6.0848923927   18.0487509101    3.7782050543
   4.7233025506   15.7616653083   11.5047697227
  13.5600552861   15.1062870970    8.9523108459
   4.7512177782    3.0319642960    1.1521559000
  -2.1760776031   15.9578326798   12.6297541124
   6.5371603800   15.5486859650   18.3127126620
   2.6827667859   12.3986484201    2.4604349804
   8.0479297790    1.1357289348    6.9985544379
   6.5992978588    0.6768297946    5.9954242978
   5.4736635758   13.8727838658   16.6009010511
   7.9792550814    4.3712311362   16.9841265074
  11.9825731634   19.8642762457   11.5531429926
   3.8704268571   14.4551361158   14.7957834317
   5.1136671726   15.2604857580   13.7397684789
  10.0290823132   14.2967678408    8.8646816542
   3.9721198176   17.1271555441   12.1663367494
   4.8518425841   17.1231664605    2.9708015994
   8.1804206543    0.7492140204    2.4768070582
  -2.0978280683   16.9999665277    9.4144363017
  14.1703739538   18.7170629811    4.0190324003
   6.7273870546    2.1933673893    1.6706143074
  12.8412530368   17.4574558775    3.8360437560
  13.3008063621   18.0897073868    5.4554341359
   4.5637518007    3.3531622355    2.8260703274
  12.3070082481   15.9347994797    8.0979410607
  13.7142883044   18.1652029576    9.3020550030
  10.4752346670   15.2508993090   11.9065454080
   0.2899774488   18.3402388087    9.7029063680
   2.1045883993   11.8375229879   10.7582947725
  12.7503309640   13.5533353452    2.4542188565
  10.9621385991   13.1923118088    2.9516861270
  11.5025735260   18.2447516689   10.8078717883
  12.2302341165   17.8977037344   18.6619502704
  11.3145232912   15.8950493525    0.5433793835
   1.9940241561   13.1975572031   12.0936650028
  11.9118806174   18.3483891597   12.4916030941
   0.5491788175   12.7657027205   11.1935445787
  12.3412843204   12.4421913852    3.8099944305
   4.9549202907    2.3588486946    5.6063217424
   9.9138850826   15.8633663792    9.5047630740
  15.5525916099   13.6880502633    7.8678027491
   9.4519983656   11.7215965229   10.3489278389
   5.0369491291    2.8706496531    7.2031885903
  13.0348578330   15.8180540017    0.6901265297
   6.0113589794    4.3871031114    4.7908975601
   6.0906685519    5.0744314015    6.4264278194
  14.6310320604   11.5221429372    8.0838184198
   5.4772091105   19.5155409495   14.6077175529
  -0.0489966870   19.5489747100    8.3592868147
   1.3413674189   18.3207098362    8.1290105593
   8.8201109583   15.1148437418   11.3319888656
   4.2029979167   16.4498379896   16.0488199567
   2.9224560651   17.1468963297   15.0601144574
  -0.6609611092   13.2065522432    8.1829806126
  -0.7962833605   11.3177713272    7.6818184793
  11.4542327600    2.9222417756   14.3642811507
  13.7576564430   15.5263740198    3.5260633876
   4.9443294898   18.8589613917   16.0323098037
   8.4645942878   13.0192447817    9.8200296637
  15.5554986025   11.1189755341    5.6567869383
   3.7153497141   19.1531332117   14.8855082283
  -1.2728188357   18.7203875664    6.0607903255
  -2.5248459336   17.5975424550    6.3525632698
   7.8866683233   12.1065048829   11.2382606367
   3.2531578744   12.5431800341    9.1379532720
  -1.5629152580   14.1268088360    9.4172718782
  13.3149566435   15.6842618796    5.2417359952
   3.8031143593   14.0918686938   10.0577929046
   0.6119002294   17.0105164280    6.6816940400
  11.3428408366    3.0417492340   18.9777342121
  14.9071525726   10.6318828370    9.6086453600
  -0.8613824421   15.8630195874    6.9480414918
  15.6805023562    9.4657994616    5.1097312042
   4.8691725302    6.3643194392    4.5663345381
   7.3630335202    8.4411288174    4.2229050880
   4.1219608059    6.8601088547    6.1136990936
  -0.6971369212    9.9602020343    8.8838302851
  14.1838530798   13.3266319925    5.8214508835
   0.8940167798    6.9956831745    3.9111343760
  -0.6920816419   10.2502461537    5.4468910989
  -0.5220804486   17.0348875484    2.8023286311
   0.5761729276   17.7937823004    4.1477671270
   2.0254892172   15.0150091156    7.9070035096
   1.0967595108    7.1296971503    2.0288004246
  15.3047213623   14.6242133875    5.5061404206
   3.8381464562   15.1575557185    8.0415392622
  11.5550327332    6.5502280388    3.6284835016
   7.3294291588    7.1810379880   17.2615391362
   2.9001536316    6.2864444324    4.8998047452
   1.1212264800    8.6805837278    3.0352822684
   6.8402905909    6.8194144530    3.5890852230
   8.4465799712   16.4099767787   16.7548819652
  11.1172345655    4.8299187580    3.1328916014
   7.7766260136    6.9303672680    5.1472844684
   1.0562628028    4.6996814909   11.6628503981
   8.5590205624   18.8140749157   11.5287227810
  11.7617468605   10.3214641039    3.9979525762
   9.2842759889   15.0464661171   15.7995428674
  13.1562450001    6.9554346793    6.8668027691
  11.4704591741    8.7336848046    3.2834340413
   9.3933216116   17.3858373611   11.1929503761
  -0.6906538031   18.7527047495    3.3343964445
  11.6165536855   10.6143078120    1.6669652226
  12.9572279700    6.8578358355    1.6005375433
   8.8729512831    5.2944049632    3.0815143020
  -0.7947156574   12.6660795648    4.8245244375
  12.1992787363    9.0027475920    0.9970581917
  12.4883573399    5.2525794024    1.0339063834
  10.2215174298   16.1111594628   16.8457758753
   9.5888942600    5.5539608419    4.6670026274
   7.7548437837   17.2735796089   11.6216778729
   1.9755844282   14.4933973950    5.4347173904
  -0.7437480677   14.0702176018    3.7444647148
   9.2195448362    9.4018046412   10.2443760564
  14.7111996574    7.8839430664    6.2591529077
  -1.1830405534   12.3627647379    3.2148248123
  15.2727108768    7.7934528524    3.4046372674
   3.3917126013   15.4239917077    6.1218428747
  14.3982020609    6.1346132855    5.5531616704
   7.7652032441   19.3349908502   13.3351897951
  16.1791071954    6.6410468948    4.0243199980
  11.8133868731    9.0404169036    5.5205812709
  12.9157511735   10.5792205670    0.7766296760
   3.4769956229   13.9319531139    4.8417403788
  13.4918825930    9.5007383191    5.5447855128
  12.1890307337    6.7286448115    0.1353005468
   9.8769526062   13.0997571160   17.0748843205
  -0.6964903369    8.0581671673   13.7333722494
   9.6529028231   11.7693350402   18.7463050766
   7.4640404043   18.1101614528   14.4943439738
  10.8264324311   14.0715461830   18.2450184162
  14.7468301367    5.6801981148    2.3065306073
   9.9753572636   18.9180972008   15.5031306993
  15.2633141410    6.6150108796    1.0094961900
   8.2096288213   12.5530967898   19.1467899612
   2.1131315868    9.9677834596   16.5167251176
   1.5416949947   14.4701474582   15.6095840676
  10.3109280698   18.3579988872    5.6645548727
  10.8162826920    1.6892730555    6.4927394602
   5.3122947287   11.0650443640    8.1782139027
   3.6706810282   11.1437188972    4.8121222030
  11.5350853641    1.6043323292    8.0832869839
  16.0346158105    9.4916038784    0.6047388972
  15.8340167200   11.5588894294   18.3901742496
  14.9111757142    5.1210380273   12.0261423054
  15.2793680578   12.8283485438    1.4250825413
  14.4795432552   13.4999163513   19.3214505707
  -2.1575320327   19.7423029835   11.7725471437
   3.1486322808    1.3847052068   13.6760895287
   0.6263718472   17.5420641462   13.1169499035
   1.3444518787    1.8958460376    9.9270641873
   8.3242283760   19.6682324423   15.8832728481
   4.3777881471   11.8653988406    6.9199539352
  -1.7085279174   13.8533078075   14.9961512473
   9.5636415803   17.6867357091    3.5997902053
   3.1696780184   10.2525257678    9.2730145111
   2.7017818436    9.1467219494   15.0027890716
   7.8140705445   18.7647392529    5.2219344699
   0.2198177427    6.9125123108    0.0911442134
   1.9670037476   13.8376207036   14.0103399853
   9.3208034008   11.1393519309    3.0381528669
   1.8664728949   10.7184007686    8.1958537226
  11.4047331526   19.6161367723   14.5256280957
   4.6228837957   12.0634224255    3.7409915762
   3.0773906178   12.5799230883   16.0553002806
   1.8480526788   18.8012635554   13.2473540431
   3.0128317044    1.6188845932   10.7074026980
   9.7959971702   17.3729103636    7.1743386254
  -1.1755410029   12.1246098435   15.6257818228
  15.7648133793    3.8339333666    0.5292875129
   3.7727334234   10.5578622393   15.7211309771
  14.8953276021   11.3440142219    1.4944372695
  12.5166820855    1.0864222681    6.5760972153
   4.8460642858   10.2869214446    3.4613910286
   8.7246298452   10.0933655986    1.7443674074
  16.2180208358    6.6059056950   18.9969828236
   6.7712543821   10.2942728478    6.5225819755
  14.3827015431    2.3519238552   13.9861584874
  -0.4682777270    8.1374729887   17.7135998475
  10.9351655012   16.4412114950    3.6260925443
  16.5540153367    9.0879054310   18.9884978764
  -0.9395915258   19.2046705317   13.7650736895
   0.2297798846    1.4119922947   13.0932280625
   1.6217662353   17.8421913681   11.7280923741
   2.3608425670    3.2875128490   10.2105527983
   0.5034472493    9.7745420951    0.6335002234
  -0.3919782386    4.1921740871    0.2558296270
   0.4404312533   11.9917927721   18.5148467509
   1.2918186888   11.9753299813   16.4182478778
  14.1412983376    1.8051604443   15.6308645873
   9.4361795144   15.8469789431    3.4327189630
   2.2220868007    9.0259940447    8.3142330391
   7.5121736688   17.3160296785    6.0770454138
   5.3623867102    9.3885254426    5.9089187899
   8.0012542696   11.8440868488    1.7789007089
  -0.5310059563   13.5027489853   16.4551400506
   4.8289007006    8.8871901063    1.6829022894
   8.7117562614   13.7742126761    7.6070872062
  12.5057556200   12.7518452663   13.7446960353
   4.2922038222    1.5188570678   16.4795714391
   2.0845077786    3.2778609288   18.1971874908
   0.2062306888    6.0946280179    6.1980509209
   3.8416656473    5.4256634522    0.9415021307
   0.9604881656    3.6478096511    5.0946263653
  10.7443071873   11.3857083351    5.9634938830
   5.5826783212   17.9452800856   10.3546827553
  16.7397868603    1.0834825373    1.7728204181
  11.5867438610   10.6457282361   16.4407296120
   3.0982529816   16.3848747119    0.0867864426
  12.4595125071   17.0193059692   15.8093870223
   5.9633834362    1.3166522053    9.8448457457
   2.2557845958   14.1705903774    2.1382562599
   7.2885064895   13.6752264142    1.5172288485
  12.1255917755   19.3046273264    4.4371014960
   6.0890716567   13.5009902436   18.5384852165
  15.2165771090   15.5632638219   10.6879378602
   4.2076024347   18.9529874701    3.8020526973
   5.0400459640    1.3539277706    2.4728488590
  11.9099759660   15.9744877001   18.4889513061
   6.8872699918    2.7364295291    6.1981138794
  13.6666307806   18.5860255226   11.3584210955
  11.7374931356   15.1755448457   10.0023436826
   3.2609860976   15.4158082950   12.9678352649
   4.9740126993   17.5238252834   14.4900316314
  10.1758846251    4.1399704310   15.4735623622
   9.9036331428    3.9940314222   17.7931770764
  -0.6261964495   17.4388100084    8.1894016204
   9.7628497963   13.2704286298   11.5114142516
  12.0540307323   14.3952851790    4.2795584505
   1.7927138452   13.6810081971    9.9815439678
  15.7986289243   12.4215398300    9.5898030075
  15.9309807462    9.7237196082    7.0824757593
  11.7342527633    2.9865902853   16.8824513471
   4.0799055104    4.7662077909    5.7093671304
  -1.4995788351   17.2588002196    4.5551640820
   8.7866907025    7.2194443151    3.3625784436
   8.6008603196    7.0029887938   15.6124706177
  15.1504320632   13.2661941477    3.9954344017
   3.0375918134   13.5080904795    6.8117691785
   8.8802324936    7.8008442185   11.6031141735
  13.2385374746    7.5186470328    4.8524631847
  -0.6988656515    7.9488817276    2.7645117391
   0.5635114661    6.6656015514   12.0661522550
   8.9220553899   14.7277016161   17.7660362252
  10.8761080859    6.4342079436    1.7385057526
  13.2396997688    9.6224020903    2.6443055244
   8.9991773359   17.7138431049   13.2260778169
  16.7903599094    5.2148626118   11.2622100093
  16.0488360210    6.9874144989   12.5024951037
  16.8139652542    5.3625233017    1.6875546513
   2.0673073794   11.2031943696   14.8662060987
  12.5326872663    1.4732370316   14.4236023479
   5.8366894047   11.1193973928    4.9851013111
   8.0126221878   18.9956811905    7.3664439358
   9.8671300316   11.7041725727    1.0539009222
   0.3258285481    9.9784780921   18.2900356071
   0.1438585100   19.3005002420   11.9464373922
   1.3512676827    2.5772110929   11.8167530477
  -1.2171048170   11.5833146052    0.3687267893
   9.6560568082   16.4427148146    5.2834739790
   0.1035616813   13.4801924915   14.4597459712
   3.7016968081    9.8585810626    7.3556467151
