B2 C140 Ca1 F48 H298 O66 
1.0
1.7800484184081188e+01 -2.8688583472600812e-16 1.8693146744689696e-17 
-2.7232905008587807e+00 1.9200542935935850e+01 1.1203100063693158e-16 
-9.0861193791080874e-01 1.2074307515577809e+00 1.9512486948306332e+01 
B C Ca F H O 
2 140 1 48 298 66 
Cartesian
   9.7731550043    3.3900995393   16.8758519199
  -1.2139478745    6.3416789880   12.0857894555
  -0.1914502679    1.3517578903    1.4985382896
   6.9661736318   13.7166414708    6.7918514521
   4.8686322990    6.3552212606    1.2953649250
  12.4737860991   12.4816172489   12.4833975743
   4.0657872824    2.6532858236   15.8969033171
   1.7720257913    2.0763866492   18.3024849739
   1.3502775347    2.9061315120    5.4551399282
   2.2374269297    1.3113789964   16.9757786242
  -0.6316920313    4.1128861849    5.7815371835
   2.8733446507    6.2908814653   19.1451271068
   1.8301687603   16.8909974406   18.5967830113
   0.5304595450    3.9399808855   17.7051050780
  11.6297832396   15.7154495215   15.1786276422
   4.5978779694    9.8757964113    0.4670394115
   6.2959684327   17.2235115101    9.3642987063
  12.2643306442   11.9368349157   16.2587543452
   9.6842811306   11.9419416426    6.6691582106
   9.4585204903   13.4319539736    6.3865366211
  12.8121483975   11.7779203867   14.8141994896
   4.0253978322    7.6746279760    1.1691786448
  10.9173536482   10.0574188227   16.9061823868
  12.0297407654   11.4690280613    6.1941384461
   0.0411402396    5.0138054385    6.7624404776
   0.8737526024    7.3672323607    7.0137811420
   4.4869424743   18.6961775555    9.7167575092
   2.3824217403   16.2457220796    1.3222526393
  15.9493776892    1.7937367573    3.1425026904
   3.4737104521   19.2017047773   10.7154493661
   1.6449459527   15.0791842068    1.7704719371
  12.8761890663   16.7086185263   17.0847306895
   5.3624620826    2.0893674701   10.9575791617
   7.4174968426   13.6531041906    3.0644272669
  14.6826408215    1.1757375757    3.6603558603
   6.2967939069   13.7200599581    1.0567423524
   5.3092698146   14.9593366489   19.0769636574
  15.0713441908   15.2354876391   12.1123753800
   2.2713553342   12.8028626973    1.9132583313
  12.5131639138   15.7406983805   18.1686284259
   5.3403775158   13.3503692175   17.1185769909
   5.1345910636   17.8381589993    3.8313313844
   7.1064927087    0.5118464931    2.6200338472
   6.1732115706    1.5605626597    2.6221804154
   3.8246218328    1.9998339207    2.5515214025
  -2.6538050830   17.0293348908   10.5572317324
   6.6575262877    1.2437746222    6.4636077076
  11.9922075482   15.0674617739    8.9991738561
  13.6362639290   17.3427421321   10.5178819123
   3.5540210567   15.6211108638   12.0323546497
  13.0550055634   18.1846514995    4.2841445907
   6.8968415987    2.4921745601   18.3564319573
   7.5109990075    4.9179053589   19.2109704282
   7.6416344972    3.9177519050   18.0408568698
   3.5279649923   15.6017857759   14.3957025683
  11.9715331914   18.3998555479   11.8141951565
   9.9678599270   14.7983378280   10.1568297944
   9.1352804031    3.3006068958   13.3223604925
  12.1904406055   15.6352439090    0.4775780477
  12.1981289316   13.3476597365    3.2551999739
   9.3974582335   14.1838521826   11.4287658857
   5.3278894051    3.2419202162    6.4590676347
   1.5075509266   12.9467835766   10.8901270528
   3.5436214129   16.9678256736   14.9989021245
   0.4785245538   18.4670646595    8.4434841158
  10.1868873383    3.3052886546   14.4578640813
  11.1746506517    4.4653967038   14.1912034953
   5.4374459370    4.7400881740    6.2551655390
   4.4228246373   18.9915741662   15.2442776053
   8.5590419090   12.2416041596   10.5743376014
  -1.1624077214   13.4152911866    8.7276193782
  15.2082899358   11.5542863815    8.5291886880
  -0.5534946106   16.7796109637    6.8988674876
  -1.5135067937   10.5337329915    8.1129121464
   5.4734707164    6.6783486386   15.5890914976
  13.6535033715   14.7434267465    4.4474452885
  -1.3289171841   17.7972833027    5.9775011732
   2.9201498545   13.6987429563    9.0712170018
  15.6937875770   10.1146255863    5.7782664512
   3.7612442223    6.1901374759    5.4542631183
  11.4398343676    2.5681491329   18.5069600117
   1.9147609646    5.4077270345   13.2840725141
   8.9507646880   20.2930701618   18.5860449313
  14.7190267494   13.8261625043    4.9417905229
   6.7582141456    7.2905701264   16.3297879413
   2.7713137674   14.6471198290    7.8906925256
   7.3878374753    7.3124326289    3.9321796052
  -0.3251740261   17.9138295312    3.6185590711
   6.8014206122    8.9067152417   16.0218662818
   9.5573908234    7.6469323320    9.4993274055
   0.4454545597    7.9099228612    3.3867574893
  12.6854040108    3.5562930430   18.6895991706
   1.9432557066    5.8633212680   10.7633322498
   1.0494529826    5.5406883335   11.9367539145
  10.7237286174    5.7848009671    3.0617829436
   9.3359311134    5.9169662940    3.7009663567
   8.5597791842   15.7938569143   17.1994330258
   8.6158219090    8.4016155262   10.5582644718
  11.9764154076    8.9508671049    4.0612437213
   8.4352089323   17.4086270514   11.5489676819
  -1.0001294856   12.9993650952    3.7998631145
  14.1293221421    6.8521841930    6.1096396879
   7.2284059437    8.5828907510    9.9502925974
  13.0075772458    9.5010239820    1.9313366372
  11.9764333245    6.1459415095    1.0383405791
   2.8060869379   14.2226298188    5.3876234483
  12.5410878624    8.3917524556    5.3045358707
  15.9333863109    7.0247236167    3.5663088418
   8.1664630619   18.2728934714   13.8321356349
   8.9393927061   13.5311030480   17.9631481274
  14.6826375825    8.1632377204   14.6630974107
  15.7911323853    8.2013040798   13.6102294548
  15.8549717990    6.2806650684    2.2241062322
  14.9879405006    3.1721896707   10.8846352383
   8.4869814998   12.6033387265   19.0436584357
  14.8143034365    4.7526624216   11.2336181426
   8.8359746638   19.1586686149   14.8545128929
  14.1642843340    5.5507383993   10.0063286475
  15.7078163049    9.5210058325   12.6655118608
  11.0732788594    0.8575158526    7.0607091545
   2.3745225663   10.2261929852   15.9834501398
  -1.7874988270   11.3137030743   19.3341502141
   0.7690076850   13.3368417180   15.0405245245
  15.7616827739   11.9440261793    0.5754212607
   4.6655576998   10.5882363523    7.4713776433
   4.9077781100   10.7134221845    4.4196293195
   9.0680062360   17.0510030044    5.9353716375
   7.9594450254   18.0207451803    5.9416451728
   1.2841590244   12.3187271042   16.0561459849
  -0.6627526681   19.9624618876   13.1839514625
   1.0224115914    1.5473636564   12.3860786933
   0.6324186641   18.0226741116   12.5944776984
   0.9769288980    1.8553737825   10.0256477053
   9.3527275887   10.9368304388    1.8565987654
   2.4299522627   10.2197384187    8.2656416423
   5.8515099657   10.0947900970    6.5003819537
  13.5079468667    1.1995985877   14.7012773277
  -0.7362394396    8.6854339845   18.4403298342
  16.7550096024    4.7035703228    0.7893880082
  -1.7244332034   13.0998007858   15.4783838428
  -0.4349584961   10.8135293400   19.4870890078
   9.6219730725   16.8292035067    3.5836036404
   8.2821802388    6.5872680424   13.4469346862
   6.6398263073    1.8790574156   17.1851994599
   8.1577614053    6.0622732993   19.0024730358
   8.8071585461    4.3844679175   12.5340044088
   7.6125716767    1.6540745085   19.1900763283
   8.8713945382    3.1677350546    0.9033720511
   5.7162492045    2.6601585725   18.9633891645
   6.1137297263    5.1912287491   19.1981488844
   7.9261946621    2.8912206908   13.7261492795
  11.7819522244    4.2810689764   12.9272673505
   9.5628437467    2.3412147922   12.3349228679
  12.0976998801    4.4213782620   15.1691427675
   4.3262527888    7.1904106090   16.0410474935
   5.3893524970    5.3182244481   15.7012440737
  10.6554275817    5.7390416602   14.0881623546
   5.4875882173    6.9229133498   14.1630412483
   2.7895272465    4.3927242225   13.2916483704
   7.8951216888   19.6830039966   17.9460725742
   2.6568367386    6.4886876618   13.6023447033
  10.8596613137    7.7501009665    9.7506828343
   1.1788242513    5.5936193381    9.6767577904
   6.7988563321    9.0220806377   14.6786096924
   7.9808744718    9.4793727007   16.4757190726
   1.0578944261    5.2276927145   14.3118465518
   9.4029509155    8.2666422682    8.2694927181
   9.8689042062   18.5769231001    0.3419144906
  13.4595365717    3.4631998889   17.5932199085
  10.1281120884   19.8291717766   18.0653811708
   3.0390576132    4.9648499805   10.8956730814
   9.2368769016    6.3707063308    9.2799892016
   6.3604306574    9.2344751234   10.8258696806
  14.1897580482    2.0968204303    0.3328930594
  12.2282819168    4.8073915371   18.7663288516
   5.7469555690    9.6214024234   16.5063445764
   2.3639682060    7.1027376832   10.8082626487
   6.7385170619    7.4024784325    9.5646932972
  14.9509755537    8.9132053929   15.7389277597
   7.2209526236    9.5005605780    8.8846494837
  13.7387657531    2.5638696224   10.9500960669
  13.4159558634    8.5427419817   14.2800124084
  14.6165830401    4.9632101859    8.8847066140
  15.6006708810    2.8131141926    9.7705094588
  14.3406946882    6.8591449019    9.9750530614
  14.5799536532    6.9136351527   15.1379120552
  -1.5882768364    9.3175187914   11.4296970289
  15.6843774041    2.6627943783   11.9285420968
  -1.3902263840   10.5454353743   13.2868294616
  12.8316037063    5.2871159589   10.1886452523
  14.4569879207    9.9686913557   12.5843076321
   0.8472472347    1.3348900465   18.6330441851
  12.3915865435   13.0417681962   16.3103072668
   1.8327181224    2.4693637181    4.6149261855
   5.2975018217    6.3721033018    2.3047176014
   5.9606951973   17.2343653491    8.3547797259
   9.7495853679   11.5424500537    7.6723817121
   5.8219251901    6.5717829756    0.6834956851
   4.8442644040    2.2197042951   15.3678759733
  16.3273521162    4.5469549056    5.2640841175
   0.2071127434    2.3782985902    1.6621580911
   1.1521903545   17.6702102136   18.1828473495
  17.4964068737    1.1203834951    0.4682351751
   6.3456740734   14.3934900411    7.3064216045
  -0.3628268112    3.4864814651   18.0486872093
   0.5715627899    0.8458461975    1.9815968231
  11.9394926961   11.5640372276   12.2507979909
  -0.7211120326   19.4436048335   17.1598423129
   6.7409344077   13.8310701336    5.7721103999
  12.4916987360   15.0002727772   15.2054565361
   5.5140804475   10.5142127646    0.6008077615
  13.5909231140   12.5212899429   12.3210201435
   2.7571434566    5.2952680267   18.7579509694
   1.9918197573    6.9469055344   19.0033541037
  10.6392257721    9.9937133813   17.9516712776
  12.1702775105   10.6151328472    6.9783554452
   1.1845781464    2.2829144362    6.3329270187
  16.6664891485    3.4216761627    6.4930522401
  10.2884309090   14.0621848360    6.7801695037
   4.3634148892    3.5851556445   16.4349856520
   4.8752307973   19.6275892343    9.2725748074
  10.8098330424   15.1357434182   15.6081173301
  12.7147328501   10.8243795619   14.2689378940
   1.1922828448   15.9631605945   18.7558460091
   2.5589246953   16.7968436277   17.7570185793
  11.4366118207   16.1399444293   14.0733103289
   7.1834832033   17.9275573137    9.2745689487
   0.5801587968    3.6830942220   16.6501417107
   2.9171540427   16.9161570451    2.0672499265
   0.1906493281    8.2280120706    6.9128898013
  13.0813367755   11.5722150469   16.9165141124
   1.9273508957    3.7643035257    5.7532764777
   6.5101174681   16.2146107061    9.6074410927
   8.9560894519   11.3532496213    6.1979735258
   3.7104305531   10.3587702208    0.7723023558
   6.5210289646   12.7001836997    7.1977371083
   3.6391137339   10.9111193959   18.9100109436
   3.7018928027    6.6673329201   18.4424508739
  12.1774818876   13.3562314806   12.0064578711
   2.5479748937    1.7543928550   18.9752234942
   3.2402487471    2.9777499354   15.1548130817
   0.4745251776    5.1119339073   17.8094358533
   1.7188084130    1.8329095578   16.0654373264
  16.7245540299    1.7396097444    3.9499012509
  15.8274951470    2.7944548426    2.9218258294
  11.9003656943    9.4077240083   16.7379812422
   3.1167775862    7.6618639341    1.9142963434
   3.4753059268    7.5964250931    0.0989093632
   1.9051277127    7.7207336253    6.9103262691
   0.9017806554    4.5305225276    7.2824657936
   1.5498409330   16.9190513402    0.9404677873
  12.5589658091   11.2385093841    5.2851468511
   4.1013822212   19.6416424208   11.5428681473
  12.4652433189   12.3733820798    6.5949596771
  10.1889922491    9.6244300806   16.1856693573
   9.2671711525   13.6028922278    5.3488590478
  13.8517298768   11.9208906519   14.8272120490
   3.9269382427   17.9547854817    9.0747721654
   7.1544647806   14.7029755251    3.3001873987
  -0.7686009523    5.1898458825    7.4731678086
   0.7654569894    6.9079631246    8.0113360532
   5.8184526064   14.6690073604    1.5323990843
   6.4559763615    2.4240427396   11.1390111537
   1.0953363235   14.6498079917    0.9308392682
  12.9300225177   17.7094350891   17.5271752880
  13.9336975233   16.4088557197   16.6283988872
   4.5004982705   15.4710523842   18.5628499195
  14.0558530331   15.4377153759   12.4848650519
   8.4833889505   13.4621297822    3.3973491456
   4.8316113844    2.9374771675   10.4675162752
   2.9090666583   18.3791927840   11.2175086695
   5.4517668870   12.2668591676   16.9666823081
  15.1144822746   14.2098611137   12.0392460243
  13.9588309897    0.8595293209    2.8309542858
  14.2472435900    1.9754052926    4.2681305915
   4.8947585821   16.8497855741    4.1923724541
   6.1135593514    1.3427586503    7.4251267497
   7.2023644662    0.1180768757    1.5761923341
   0.9316511447   15.3959295020    2.6005123289
   6.0159698493    1.9432281631    3.6747839542
   2.8604229867    1.4483601928    2.5859027826
  -2.1406918656   17.5629540045   11.4396865497
   1.3329067496   12.3684499718    2.3682387342
   2.2949764956   12.7262957888    0.8344181078
   6.6571772172   13.0183270346    3.5361691568
  12.4617060607   14.6643940622   17.8214758255
   4.8607220064    1.8870679539   11.8752354503
  13.2652733907   15.7040238968   18.9394701987
   6.1947805870   13.9754557980   16.6883950116
  11.8905541116   14.0885052694    8.4720877940
  13.0847914509   16.4927169121   10.7899034125
   5.6646858889   12.9048024985    1.4438186871
   2.9642669427   15.6156535473   11.1079413613
   5.7884872197   18.4045865857    4.6061468199
   4.3159831016   14.6822508993   12.0303872474
  13.1066692777   15.1529756448    9.1567893228
   3.9090212992    2.9002625906    1.9231919234
  -1.9659675931   15.7246899872   12.9014342069
   6.2141013085   15.3973755319   18.6447668254
   3.1167152762   12.1477364478    2.3649019888
   7.7201529570    1.0171951355    6.7341383866
   6.2497000121    0.5892873179    5.7098221128
   4.3808520184   13.6799554680   16.6446908533
   7.3323784631    4.4258723578   17.1580350646
  11.5417171445   19.4629962856   11.8248514011
   3.2606032014   14.8690794649   15.2242577979
   4.5612727526   15.2785770651   14.1633523645
   9.6663318392   14.2133605841    9.3389695504
   4.2296255158   16.5195516948   12.0425015354
   5.7825920843   17.5597912562    3.0239194643
   8.1135356927    1.0426887971    2.8631528636
  -1.9794194067   17.4253731939    9.7368584746
  14.0701915666   18.6561175828    4.2899062987
   6.6738665952    2.3122643263    1.9363002186
  13.0075730471   17.5531508536    3.3626921666
  12.9204338547   17.5822579790    5.1614005367
   4.0543798619    2.4659232724    3.5178977799
  11.5003965699   15.8938747311    8.3678603589
  13.3332158151   17.6227751476    9.5972272700
   9.9394288793   14.5188634312   12.2724177634
   0.2786585168   18.9504708060    9.4705573231
   1.8043697071   11.8792140825   10.7815470897
  11.7226941201   13.6461227232    2.3431807336
  11.5179143146   12.5608089610    3.6505750997
  11.3475989335   17.7218404806   11.1240278620
  12.8723047287   16.4473312266    0.2126319025
  11.2046420730   15.9905915701    0.7400009044
   2.1817817162   13.4316591104   11.5730736671
  11.8366639921   18.0434813877   12.8310759098
   0.4482264659   12.9827084371   11.3079771908
  13.2256288475   12.9264404415    3.0025262387
   4.5003563926    3.0979091864    5.7326141362
   9.5225595042   15.7372519215    9.9145462288
  -1.6423096953   13.8878086775    7.8373894685
   9.1435820884   11.4975792785    9.9772561065
   5.0428205776    3.0488016902    7.5328529163
  12.6756195607   15.0716734463    1.3423043420
   5.7458299223    4.9144302867    5.2155330732
   6.2473990724    5.2645557044    6.8720634760
  14.7880333814   11.8849493881    7.6254092021
   5.3554013525   19.5248646572   14.9362429909
   0.3697966810   19.2456919601    7.5244851957
   1.5577223864   18.2223008561    8.4221146074
   8.3095809599   14.7111587457   11.4776330025
   4.0861553085   16.7181588168   15.9335135100
   2.4922140844   17.2561052793   15.2373852919
  -0.2094226066   12.9981617883    8.3719965072
  -0.5821240362   11.0667936383    7.7300829952
  10.8157337515    2.4471583166   14.4432080584
  14.1086847033   15.2782996029    3.5229689045
   4.6845587402   18.5813782033   16.1695283222
   8.2323685059   12.9783307158    9.8651616623
  14.8023916038   10.8315166292    5.4847068369
   3.5755399620   19.6064718160   15.2687077317
  -0.8896154500   18.8450757901    6.1767174715
  -2.3880354009   17.8781274621    6.2852208078
   7.6042082404   11.8338642217   10.9870154309
   3.0561159557   12.6873243194    8.7734802572
  -0.9960921047   14.2367946239    9.4191625395
  13.6244911286   15.5655408382    5.1737962693
   3.7891292683   13.9282767505    9.8052008571
   0.3992450787   16.2624884898    6.4722303116
  10.6380222702    2.7656048573   19.1925391694
  14.4315834218   11.0826127746    9.1101832427
  -1.1445465964   15.9545734021    7.0875309757
  15.5619995427    9.1904370705    5.0575242948
   4.0676964859    5.8253820561    4.4403875752
   7.1080660152    8.3134658624    3.5721771156
   4.4489503271    7.0530783674    5.6018422970
  -1.2789701774    9.8477690643    9.0300795952
  14.3394292301   13.0875216204    5.6619876743
   0.8152466871    7.2818019703    4.2312086814
  -1.1815335202   10.6385623381    5.6063943320
  -0.5651701524   17.7561096887    2.5079117692
   0.5955271481   17.3941018815    3.8074727973
   1.8874043731   15.2330004317    8.0648595131
   0.9092227327    7.4834128558    2.4570769057
  15.4160344490   14.5249141690    5.3129085607
   3.5478623027   15.3230594494    7.4910798933
  11.5356394447    6.2997065680    3.6354827343
   6.5026217125    7.0276786138   17.4048401516
   2.7101441020    6.3055191311    5.5811844689
   0.8868147792    8.9672616076    3.4595630215
   6.8943352952    6.5450196130    3.3349807976
   7.9412948235   16.6602084725   17.5049311714
  10.8923493091    4.6782080397    3.2221415976
   6.9759563999    7.2111754619    4.9170846808
   0.5994342148    4.5434958111   11.9077163247
   7.8713425901   18.1915269280   11.1764961684
  11.1492350155    9.6482835289    4.4625011627
   8.3840403638   15.7577141333   16.0524899035
  13.5807953040    6.8531836739    7.1172096790
  11.4456394039    8.0931099917    3.6691003654
   9.1894488246   17.3824001537   10.8187025125
   0.0878721372   18.9467556214    3.8101107146
  12.7892111110   10.4563195180    1.4155116061
  12.8552644384    6.3590499244    1.5981452016
   8.6355400480    5.2300723431    3.1697316775
  -0.5733784325   12.5030713926    4.6803030561
  12.4202365269    8.7409516980    1.5447270088
  12.1198696586    5.1865972748    0.5483339261
   9.6202512999   16.1630488017   17.4460761484
   9.4189162490    5.5997770639    4.7896983353
   7.8491554152   16.4932954278   11.4863638261
   2.3068509248   15.1951100237    5.1724458870
  -0.4086266331   13.8803347038    3.8135338540
   9.1720651265    9.4187072095   10.8298701685
  14.9409367984    7.6372168044    6.2175797549
  -0.9045140104   12.3492495698    2.9394124878
  15.0250283677    7.5443732833    3.8403350053
   3.9809281218   14.3839333954    5.2508975691
  14.4910126187    5.8942637852    5.7768974855
   7.2250155251   18.6937492838   13.3067842652
  16.1377000525    6.3543202349    4.3882287889
  11.6282751152    7.9795137621    5.8944311933
  14.0405832086    9.2014413217    1.5615946503
   2.4508529570   13.5395116230    4.6069055237
  13.1208682965    9.2684185089    5.7563659320
  11.8279864669    6.9851050572    0.2328216196
   8.8744474662   12.9952931699   17.0178578244
  -1.1474373788    8.4525222481   14.2401800283
   9.1056209137   11.6165563171   18.9060386611
   7.7101288067   17.3483849115   14.3326414453
  10.0226458348   13.6594626785   18.1770693977
  14.9103969253    5.6913726532    2.3200356586
   9.5960421599   18.5767504943   15.3477442725
  15.6931878696    6.9297607849    1.2845341526
   7.4244530883   12.4655759361   19.0863555621
   1.8254038075    9.8611100013   16.8789034655
   0.8284211601   14.3651234162   15.5365938054
   9.9159153387   17.6783767803    5.9185310123
  10.1833607609    1.4980779430    6.8430839693
   5.1453170221   10.6862044171    8.4705900749
   4.2187357314   11.4234155729    4.8019375389
  11.6146970020    1.0916939886    7.9775548041
  16.3084393861    9.6422289693    0.5936595552
  15.5203166996   11.0654077204   18.3882890675
  14.2180400164    4.7330838520   12.1833688412
  15.7217909973   13.0363416101    0.6977538356
  14.1986247356   12.6984207694   19.2724879349
  -2.2646503408   19.9171570259   11.9245460798
   2.8321951571    1.2205244359   13.9188611321
   0.0853819415   17.2971369152   13.1971318706
   0.4031415557    0.8831985634    9.9825886497
   8.1739097377   19.4365394996   15.6390442208
   4.3837655794   11.5773942428    7.1222263869
  15.1936063596   13.0737883841   14.8026794231
   9.9832427380   17.8217789977    3.9190504847
   2.9410240549   10.3911132477    9.2006171967
   2.5429074924    9.3228999406   15.3583804724
   8.1369273461   18.8758246244    5.2589627863
  -0.0659952827    7.1338254501    0.0008861370
   1.3770493099   13.3157901853   14.2247272232
   9.3635941665   11.4653142245    2.8011782397
   1.8628296171   11.1017282961    7.8593746850
  11.2430776961   19.4558896678   14.4008050614
   5.1896066307   11.2465195650    3.4880430579
   2.2353187141   12.6051568216   16.5059967634
   1.5534581627   18.2590447962   13.2041556331
   1.8996461789    1.7411259360    9.3529065720
   8.8678257623   16.3224840111    6.8239266519
  -1.6249093391   12.1458620326   16.0426723973
  15.8179362698    4.0954261312    1.0041635633
   3.3292964453   10.7009591555   16.3884955052
  15.4742703982   11.4617394450    1.6026089119
  11.9072435241    0.9004507511    6.3575894285
   4.6803251589    9.7335613650    4.0793061459
  10.0866387943   10.0735328352    1.9931708085
  15.5345321859    6.6253266855   19.4429892132
   6.8074179025   10.3038111848    7.0051929899
  13.8995086955    2.1152248353   14.3474000793
  -0.0428948707    7.8962209350   18.2915259065
  10.4933905393   16.1572309666    3.4214941467
  -1.4942418628    8.5905320820   17.6278879093
  -1.3143590877   19.2357203174   13.8213789272
   0.2982460735    2.0873531382   13.0213398281
   1.0885801893   17.5335892791   11.6748846428
   0.3503785813    2.6611806133    9.7193703471
   0.5715918929    9.0058207207    0.9293659192
  -0.2041816301    3.8915998196    0.4008542994
   1.3003864614   10.3229892774    0.0334438599
   0.3950206735   12.0308072024   16.7554572030
  13.5189499036    1.3820001918   15.7624929322
   9.0263456050   16.7578098644    2.6905893607
   1.6833549044    9.4142625335    8.3141885256
   7.0158955770   17.4533682367    5.9025069073
   5.7794075270    9.0620450214    6.1755100144
   8.2903221944   10.3822210935    1.6161738119
  -1.7251863886   13.8447489698   16.2782670781
   4.8863190753    8.8136392460    1.3788126674
   8.3332345835   14.0276957679    7.0992065208
  12.2778305426   12.8023588801   13.8450066434
   3.7068143702    1.5613109644   16.7515684292
   1.6298254920    3.4512131934   18.3857414811
   0.5513009142    6.2240794295    6.0921664886
   4.2772585344    5.0504575278    0.9659135225
   0.1809655294    3.4256701744    4.8313775306
  10.7911064057   11.6523502171    5.6813418464
   5.5759202238   17.9869316441   10.3390298287
  16.2847774052    1.0869047597    2.0722773308
  11.0136849727   11.4260680170   16.4500740547
   3.3496034771   16.0365882120    0.2946504772
  12.0996715900   16.9300096672   15.8545984807
   5.4215480053    0.9366926415   10.1644390147
   2.5593860686   14.1527749651    2.2962408936
   7.5857029755   13.5756477030    1.6532022473
  12.0811790002   19.1349103715    4.4799913672
   5.2939833401   13.5533780813   18.5664607949
  -2.2868646720   15.6837778277   10.8827938249
   4.0499546339   18.5473310672    3.4833440019
   4.9526104953    1.1183395394    2.1682498965
  11.2784276301   15.8928762532   18.8953546249
   6.5701145922    2.6183993576    6.0039294830
  13.3594912725   18.4139142246   11.4823654329
  11.3625281314   14.8574330822   10.2960292329
   2.7551265630   15.4175419658   13.1576231573
   4.1759390539   17.9855309975   14.2960327233
   9.4741694745    3.6589729191   15.5798538652
   8.9922731701    3.5988794910   17.9650992281
  -0.3383595740   17.1981873765    8.2890514886
   9.4162163106   12.8019245107   11.4813820982
  12.2618142224   14.4238550134    4.2332303527
   1.6198204897   13.7701620575    9.6912418220
  -2.0755211417   12.5350007799    9.3752696883
  15.6359591999    9.6420242086    7.1229532155
  10.9573697985    2.7451919354   17.2010796406
   4.0897162800    5.2466113982    6.4590034486
  -1.2703544631   17.4697869238    4.5905946289
   8.8425901587    7.1800452498    3.9805309076
   7.8315569960    6.7898169823   15.7295217194
  15.4054208291   13.2430916014    3.8450660865
   2.6542886551   13.6634942199    6.6332705830
   8.5661849012    7.7196493562   11.7407541201
  13.3545055595    7.2921673041    5.0609018977
  -0.9913954084    8.0812585259    3.3922050357
   0.1702759003    6.6019873516   12.1270276716
   8.1205409484   14.6815920800   18.0372933134
  10.6916056339    6.2193198921    1.7016333807
  13.0682788880    9.5456572224    3.2988335719
   9.0886682677   17.7112256624   12.8280953439
  16.1427542483    5.2721094808   11.4012768066
  15.6457703929    6.9777160007   12.8511040255
  -0.7590457997    5.4162106245    1.9966065232
   1.6634040331   11.2049763404   15.2376726981
  12.0970982325    1.1570974249   14.3288566708
   6.0128122604   10.9087401161    5.3228987308
   7.8519784816   18.7508332539    7.2103203552
   9.7220811289   11.8452263589    0.8634180112
  -0.0256737673    9.9277237522   18.4407670472
   0.0831663881   19.2276226863   12.1485770919
   1.4783888137    2.3188433007   11.2896083068
  -0.7849265294   11.5214963272    0.1770363336
   8.8964300631   16.1395902007    4.6990548962
  -0.5704435384   13.1354630094   14.5938790024
   3.4803750097    9.7677809134    7.3601897848
