B2 C140 Ca1 F48 H298 O66 
1.0
1.8948537237822329e+01 3.8316550276204200e-17 7.4869342298763005e-17 
-2.8762471336644273e+00 1.9769639998575105e+01 1.1822080423931686e-17 
-4.0468986274297569e-01 -8.6632317955709803e-02 1.9307860776972422e+01 
B C Ca F H O 
2 140 1 48 298 66 
Cartesian
  10.6298900954    2.1493742908   16.6322510416
  -0.9680856424    5.4541535891   11.8944018027
  18.7216678811    0.3144277027    1.1344342308
   8.1378469365   14.3821915615    7.2667641979
   5.5915152434    6.6971841420    0.7849833257
  14.5533333633   12.8915398105   12.5615900188
   4.0861128200    1.8101664425   15.9170500676
   2.7821913738   -0.0256913100   18.8172669585
   1.1949439322    3.0126849203    4.1445663638
   3.5014142300    0.1260666913   17.4413330895
  -0.3355351457    3.2122352757    5.9149168259
   4.1263357617    4.7812522829    0.5540227889
   2.6337341201   15.8369224070   17.7304639689
   1.3607459321    1.8786458571   18.4808058470
  12.7631752453   14.8943784355   15.3758079203
   4.6251310991   10.1327234116    0.3490139520
   6.1831037691   16.2131426750    8.9241764956
  14.3092019650   11.4494831734   15.7965382560
   9.2583012953   11.5767140966    6.7126311180
   9.8931054116   12.9015305203    6.6326480391
  14.0384452657   11.4932846655   14.2882946669
   4.5579195827    7.8141497049    0.6141956252
  12.2391320493   10.8142549630   16.8880509785
  11.4053986254   10.3871806831    6.7555773991
   0.2078983184    4.3172889980    6.6538513062
  -0.1411095979    6.7667868724    6.6446638352
   4.8653870852   18.1890848068    9.3111363639
   2.4491392243   16.1103141604    0.7286878076
  17.4122886949    0.6335041651    3.0656209621
   3.9741377275   18.7924213448   10.4297335661
   2.2370028222   15.0187812843    1.7955810206
  13.9474895213   16.1771755456   17.2454190678
   6.0440793646    1.1522166125   11.0032394249
   7.5619298202   13.0126562155    3.6351583066
  15.9634288380    0.6014325840    3.4651879406
   6.1111801186   13.7274410031    2.0348567198
   6.0247080585   14.2797668436    0.5995827499
  -0.8466812822   15.1465351341   11.4380497350
   3.3080927408   13.8038578528    3.5038280583
  14.2726105326   15.0202447942   18.0819742677
   5.6235937428   13.6703932216   17.6409072667
   4.5815014235   17.5188205426    4.3651149884
   4.6509160295   19.6269388725    3.3606956450
   6.9543325851    1.2202655484    3.4560258955
   5.0458885605    1.9313585541    2.2174098057
  -2.1449960964   17.0382998038   10.9486473096
   6.3786575879    1.0445855579    7.1274476508
  13.4354729017   14.2993082415    8.7223886167
  15.3326686250   17.2001613627   10.5052366743
   4.2339495470   15.2667796690   12.0157266006
  13.6225356691   18.1533648345    4.2172127052
   7.6709090455    2.3907060500   17.9289558481
   8.9208624161    4.4087128526   18.7549108454
   8.7984434877    3.3559445284   17.6690136071
   4.1615225197   15.4785403593   14.4048374655
  13.3806116846   18.0960944457   11.4372143067
  11.6552443540   15.3470647555    9.9306314213
   9.9609977107    2.2199329635   13.0628111911
  14.2136609119   15.5356784169    1.0480593939
  14.0953850471   12.8090368160    5.5829709955
  11.0818214002   14.7666133935   11.1801984533
   4.7867105970    2.7027605228    6.4981821822
   1.7309722698   12.5072423406   11.7473060718
   4.1438736597   16.9475670464   14.6400815084
   0.9682990241   17.8629795210    8.0004788920
  11.0206773500    2.0899457289   14.1871119013
  12.2164372235    3.1865963712   13.9568856477
   4.8864954911    4.0910142495    6.1227744843
   5.3514717128   18.9775645265   14.2388009089
  10.3019716590   12.5100028670   10.4615687978
  -0.7548784291   13.2428539403    8.4051673285
  16.9675600856   11.1746660488    7.8085370539
  -0.9291821907   17.2999559122    6.6664351009
  -0.9743438564   10.3877260645    7.0009782447
   6.4365261262    6.0881083422   14.6052920885
  15.2217359396   14.4478111036    4.5103387128
  -0.7937674564   18.3784054317    5.6901863084
   3.0430253899   12.4733531534    9.7742550701
  16.8330210157    9.9181923557    4.9339112712
   3.9534105262    6.3186788388    6.3404246357
  12.1619551723    1.0827284061   18.2628051416
   2.5689398921    4.6656269024   13.1231852626
  10.0101378430   19.5111094421   18.2020769824
  16.4832636431   14.5225886435    3.6908513228
   7.5367821522    6.4373821993   15.6576164492
   3.5391499354   13.4069976287    8.6634544901
   8.9366240951    7.3826676443    5.5991907460
   0.1290017200   18.7772482782    3.5418987820
   8.1145331169    7.8552062105   15.5186314892
  10.7281126194    7.2887716097    9.8019753956
   1.1665091072    6.1250919763    2.6753349423
  13.1553753891    2.3099959746   18.5229273887
   2.2741273949    4.7643006250   10.6413201458
   1.4744051265    4.6718959795   12.0335871485
  10.8372291997    4.9906110255    3.5062369209
   9.5783935868    5.5865979015    4.1605017387
   9.3045743855   15.5748899644   18.3335047137
   9.7048668212    7.7646184096   10.8594106606
  13.6351848893    8.0403673714    3.4467053034
   8.6518398518   17.7938443001   12.1374076631
  -0.7197384497   13.2402171556    2.9331252347
  14.7568307494    5.0069046698    5.4809988991
   8.2258839764    8.0543230657   10.4361608995
  14.7687514456    9.5888846009    2.0613275240
  12.4655635285    5.2369435400    1.7824778882
   2.6736039965   14.7827832178    6.9224487167
  13.8518896040    7.0945995136    4.6039695328
  17.8044012467    6.4029300324    2.8109000552
   8.9965634420   17.4193017272   14.6126596400
   9.5292026026   13.3130400983   17.9889363287
  16.2109355824    7.4656542471   14.2822004821
  17.4071439264    7.3466132328   13.2883748432
  16.9477693535    5.6607646602    1.8138410810
  15.6660085203    2.8236690645   11.4042172914
   9.3342908732   12.0321517528   18.7478403346
  16.0604767831    4.2727965634   11.0962132446
  10.5158187325   17.7891493361   14.6786399280
  15.7204208713    4.6537340412    9.5872396663
  -1.0321546061    8.6010530342   12.5039657789
  10.6868074495   18.7441495058    7.0247093189
   2.9608381134   10.3514198603   15.1684728832
  -1.3932821465   10.7897427950   19.0174322837
   0.9744587336   13.3279532298   15.3019812119
  16.7875759256   12.9422844053    0.1274408510
   4.7345823743   10.2837164195    6.5255332460
   6.0281481359    9.2054352000    3.6124539686
   9.9594086618   16.6800619786    4.7143968855
   9.1443330673   17.7735928652    5.4985524538
   1.9582596721   12.3765692320   16.0803177588
   2.8209503799    0.4413466267   13.0232236523
   1.5121580429    1.0447994131   12.7618048343
   1.1101835459   18.2069039888   12.5453685950
   0.5661825082    1.2869045034   10.5575617401
  10.2687995179   11.0329652309    1.5750371412
   2.4891941324   10.0442395073    6.3986676586
   6.1497651394    9.7607149972    5.9905994950
  12.2759486078   19.3052613454   14.5831226499
  -0.6271210136    8.0443863435   18.4398292812
  17.1855188735    4.1153072440    0.0798822259
  -1.0791820166   12.0235704908   15.1805179190
   0.2731685159   10.1950089965    0.1106230765
   9.6565102712   17.6222319943    2.4657797016
   9.7028458727    5.7773859192   13.6425429897
   7.5492848028    1.7140647528   16.7291463576
  10.0374971993    5.0216068663   18.6301206694
   9.3782088005    3.5487220370   12.8369377236
   7.9532696219    1.5508624698   18.8994481692
   9.2605764311    4.0070777006    0.6576219394
   6.4556397277    2.9652508180   18.2190837908
   7.9090574700    5.3444307250   18.6729771226
   8.7957007106    1.6414992632   13.4206897603
  12.5841500879    2.9597108789   12.6571848376
  10.2894057099    1.7119860506   11.8768620655
  13.2019485882    2.8267138275   14.7425831217
   5.3259645669    6.7870501914   14.6195488621
   5.9165169252    4.8291084206   14.8542647505
  11.9618253926    4.5021555302   14.0336192875
   6.8731151261    6.1856769402   13.3381075042
   3.7450719131    3.8419850228   12.9137583135
   9.0412064635   18.6419031404   17.9472253241
   3.0770820123    5.9174145472   13.3441694954
  11.8710998286    6.7858830511   10.4204628774
   1.3747960728    4.9332768455    9.6492047954
   8.6655434706    8.0719814531   14.3448908122
   9.1222598536    8.0341297142   16.5851959970
   2.0594244392    4.2478134682   14.3728810797
  11.0959924684    8.2977992246    8.9198181085
  10.8947313391   19.3523974446    0.1208894635
  14.2634369917    2.1351738758   17.7656287225
  10.9961712315   19.4003632587   17.2898030571
   3.0381794705    3.7326623143   10.3249104348
  10.2779547005    6.3113084050    9.0991461528
   7.4486842807    8.4023494936   11.5493114795
  14.0351401495    2.5311266578    0.4989357405
  12.5980758363    3.4227162017   18.2176805687
   7.1581789175    8.7449532866   15.7437940431
   3.0736452523    5.9049072150   10.7785521915
   7.6533644848    6.9034087180    9.9814564678
  16.4984568104    8.6123865148   15.0168782989
   8.0253015822    9.0586292130    9.4642496739
  14.3984779002    2.5575744362   10.9566496953
  15.0227149441    7.5590145484   13.7169902792
  16.3044901805    3.6768653495    8.7808715825
  16.4183728406    1.8518432963   10.8331124846
  16.0577909658    5.9837718228    9.2905575051
  16.0228690512    6.3910164440   15.1150001108
   0.0788390813    8.0973249256   11.8239108659
  15.6816253331    2.6714624560   12.7608333038
  -0.7407447596    9.6381865407   13.3063789919
  14.3926069438    4.6680222725    9.3428032385
  17.0034935930    8.9946657592   11.6283280532
  -0.8470495676   18.9682240484   18.5935288088
  15.1598858619   12.0634679315   15.9763399103
   1.2009998680    3.1907362647    3.0450694866
   6.5659941722    7.0155154848    1.2027775023
   5.7522150812   16.1804684325    7.9147188187
   9.2238977812   11.2284553763    7.7988173869
   5.6934507970    6.6014017839   19.1081375364
   4.4643066903    2.9089850127   15.7243000198
  17.5313073109    3.1042853750    6.1758828432
   0.5334213625    0.8125476383    1.8117088910
   2.3690901649   16.7863573581   17.2046066202
  18.4379411797    0.8168000879    0.2601415246
   8.1406083744   15.5096630388    7.4837795833
   0.8953551908    1.2902240240   17.7359929448
  -2.5856745893   19.1754409342    0.7837754904
  13.6753739501   12.5479171294   12.0922731267
   1.4920379875   19.1748986797   17.2668569250
   7.8816555494   14.3337433356    6.2055246580
  13.7169788121   14.7379631560   14.8657461183
   5.2633175334   10.8874769923    0.1197602465
  15.5225023923   12.5177270101   12.2091411801
   3.8636047841    3.9363899713    1.1953545933
   3.3020967534    5.4751538794    0.3564582084
  12.6479499773    9.7871619957   16.6824131508
  12.1096016751   10.1907375842    5.9202609569
   1.3313842833    1.9716811821    4.2854980401
   0.1868773191    2.3784827698    6.3371408599
  10.9021835802   12.6180315143    6.9515848133
   3.1082028933    1.7968276512   15.4306964049
   5.7859524437   18.7862923540    9.2345282433
  12.5782452770   13.8852575965   15.8763908841
  12.8988113478   11.2255719516   13.9874635897
   1.6258740392   15.2815175264   17.6610868217
   3.4038874978   15.3527548328   17.1077776550
  12.0127261798   15.3318423885   14.6089485310
   7.1060227882   16.7502509261    8.7644190041
   1.9478576432    2.6968128293   17.9299524790
   2.6598764179   17.0564961995    1.3456899476
  -0.8801343521    7.5321621617    6.4347026969
  14.6215966272   10.4442548318   16.1029855547
   1.9832737328    3.6016000974    4.7246408475
   6.3157536413   15.1881416341    9.2959835475
   8.4118016089   11.3753519967    6.0552284343
   4.4836953793   10.1341884389    1.4765356625
   7.3805893337   13.7970957342    7.8717100999
   3.1672769509   10.2448235158   19.1652784849
   4.2004717044    4.2603070669   18.9319598159
  14.5302442557   13.9504892586   12.2266795777
   1.0860578183   19.4682465091    0.2101885417
   4.7110478646    1.1798854772   15.3918276356
   0.6845474223    2.4566266342   19.2120767577
  -0.1212124437   19.6192762631   16.6146748503
  18.1244816496    0.4119122769    3.8178136976
  17.5698615199    1.7040733223    2.7568344221
  11.5101380794   10.9118320074   16.1589051560
   4.2212971315    8.2312729005    1.5920374031
   3.5776481010    7.3948837658    0.0897427930
   0.7372216286    6.8364479274    5.9039316830
   1.1343741031    4.7283024292    6.3412175955
   1.5249206497   16.3468294374    0.1734142332
  11.7398176558   11.0727572675    7.6324219276
   4.5624711246   18.6758812841   11.4190365192
  11.1178589973    9.4378506616    7.1692284238
  11.7812001590   10.8731494679   17.9473324500
   9.9412587572   13.2770386295    5.6271006537
  14.6263811458   10.9358680647   13.5711997131
   4.2374855379   17.9901626411    8.3893846510
   7.7500206021   14.1167811881    3.8317778621
   0.2396202353    4.1017249939    7.7123721331
   0.1951202471    6.8582082790    7.7203066634
   5.8181119131   14.5331311056    2.8265314843
   6.9173351503    1.4954550383   11.5660374960
   2.1062021627   14.0237260248    1.4843949439
  13.9041829671   17.1497446689   17.7745659052
  14.7820670596   16.1296400125   16.5429031036
   5.1748194275   14.9216628263    0.2823999208
  -1.7371668545   14.8411532537   12.0335464286
   8.5303479852   12.4577353619    3.6428840198
   5.4851291073    1.9656555368   10.5460705913
   3.1319535199   18.1322624979   10.5360085884
   5.1340670697   14.6037315344   17.6180708011
  -0.4682616552   14.2223061892   10.9938315551
  15.4584391084    0.6941911888    2.4373759333
  15.7282075864    1.4984543909    4.0109881279
   5.6812778944   17.3225914497    4.4593622310
   6.7127746706    1.5372396317    8.1295291880
   4.3199274495   19.0132569730    2.4266823830
   1.2585279351   15.3895386117    2.3896566365
   7.3218781531    1.8092876511    4.3176279612
   4.0166296549    1.6434059948    2.0313071945
  -2.0651837245   16.9033107669   12.0564386368
   2.5439636499   14.1153147503    4.3290023552
   2.8513104391   12.9115509740    3.0875177985
   6.7365436952   12.6258851523    4.2203016832
  14.4492771588   14.1478410662   17.3508749464
   5.3168401766    0.5131561428   11.5342353036
  15.3176743563   15.1857915735   18.3635909102
   5.1564357857   12.9573898285   16.9583227670
  12.5656778074   14.3022042932    7.9006763182
  14.8131765671   16.4247730619   10.0184506255
   5.2639179519   12.9512830885    2.1472463816
   3.4243718065   15.0205953042   11.2541626310
   4.2182253324   17.2237843277    3.3159681015
   5.0610759309   14.4915571839   11.9101772832
  13.5670922803   13.2227514293    9.1082460290
   5.6594022483    1.5850160819    1.3732285008
  -0.0469117242   15.5956078626   11.9985221236
   6.8767447382   14.9054103874    0.4189722848
   4.2719207489   13.5862850093    3.9246757528
   7.3306617622    0.5464059784    6.6615151687
   5.5050322954    0.3168698863    7.1388089770
   6.6892649692   13.9439502543   17.3409767081
   8.5681795018    3.8218392977   16.7005759605
  12.9900173846   18.4879980003   12.3620898074
   3.5293148331   15.1347695725   15.3037138438
   5.2088863997   15.0758576391   14.5019609382
  11.2865574184   15.1535769605    8.9313581356
   4.5362119251   16.2315245877   11.7257816492
   3.9937465037   16.8650546956    4.9862384960
   5.7924311942   19.6628433763    3.3470240601
  -1.6723020053   17.9698622760   10.5103908502
  14.3070386636   18.2661436390    5.1011053820
   7.3306603726    1.8799765485    2.6244902737
  14.2325632486   18.2915729402    3.3717716871
  13.0945327703   17.1519515223    4.3306422305
   5.2435087859    3.0101860717    2.4674978489
  14.2662691666   14.5565000272    8.0301027302
  15.2947413312   17.9670760532    9.7370557723
  11.4707437687   15.2583794442   12.0562855197
   1.3662510461   18.6575231539    8.5732737445
   0.9998637556   13.0682917974   12.2518783297
  14.1280927216   11.9302589783    6.4112745243
  13.9030158135   12.2697504077    4.5656070940
  13.4497458485   18.7847683420   10.5792452846
  13.5690034607   15.1104358553    1.9115912989
  15.3934065114   15.5558987040    1.2917976847
   1.3499572335   11.5209672705   11.4149412669
  12.7283056976   17.2284076371   11.1690913136
   2.4950219779   12.2858983059   12.4307307871
  13.1355788170   13.4517683658    5.7403475675
   4.0349404561    2.1418240689    5.8882824670
  11.2943144279   16.4625412081   10.0123307582
  -1.1757364173   14.0872677944    8.9702859355
  10.4229289800   11.5382074204   10.8511335829
   4.6447828766    2.5177447321    7.5597018984
  13.8355564118   16.5556201204    0.8876446809
   4.8629227617    4.1409070307    5.0064579730
   5.7812733713    4.6452701915    6.3910925217
  16.1427345142   11.7037160390    7.1951651923
   6.2770250139   19.3599077120   13.7633918763
   1.3926806246   18.0760104299    7.0591612829
   1.4465470509   17.0478912915    8.4300828788
  10.0050802016   15.1161584381   11.3105132395
   3.9459542034   17.2813159766   15.6733085261
   3.2869621438   17.3907996517   14.0424659379
  -0.9327761051   13.5049273524    7.3295881007
  -0.2553330827   11.0442669479    6.4959243114
  11.4367164734    1.0613551996   14.0530851213
  14.4637933555   14.1519135528    3.7773103062
   5.1945993696   19.4642207188   15.2421171225
  10.6110756689   12.4854861210    9.4016026893
  16.8804011485   11.0571941219    4.7887902035
   4.3809781015   19.0711847391   13.7340682381
  -0.0583934142   19.1765035923    6.0253132176
  -1.7868568520   18.8711805942    5.6087479040
   9.2819501669   12.8709658872   10.3800547217
   2.5409044167   11.5609193674    9.3496725504
   0.3817146315   13.3456987610    8.6578040420
  14.8165031977   15.5687512080    4.7914899948
   3.9780988688   12.0375232732   10.2874323441
  -0.3413838124   16.5165265117    6.3411633833
  11.3598721990    1.1429111663   19.0102590840
  16.4774882848   10.4231759007    8.4171762701
  -2.0600373833   17.0569217971    6.7403247396
  15.8183323882    9.6009891547    4.8701108524
   3.1711530554    6.8066045335    7.0320600001
   9.2023088476    8.3270181932    6.1493607507
   3.8003756525    6.6469027870    5.2784162676
  -0.4231203632    9.8311953424    7.8147595129
  -1.6148906874   14.8678650544    4.3637772343
   1.0351220680    5.8584728638    3.7091431137
  -1.4144344921    9.4789615825    4.2002463631
   0.0103239666   18.5371922586    2.4404420832
   1.3043240345   18.9670461798    3.6330500439
   3.6016165779   14.3234952620    9.2760154353
   1.1346318722    5.1927476199    2.0603033457
  16.2256398780   15.2453852734    2.8744176846
   4.4999854643   13.0353400406    8.2457457040
  11.6571628606    4.8078704738    4.1800436477
   6.9668783733    6.4165813576   16.6257631146
   4.9851414610    6.6658194359    6.5510701940
   2.1063751117    6.6820610539    2.4358233534
   8.2861988069    7.9449146623    4.8402689413
  10.3721635465   15.4320176294   18.5925846742
  10.5888445544    3.9893734394    3.1848667958
   8.3307990088    6.6419604767    6.1872079831
   1.0822184222    3.5431015784   11.9157381811
   9.1551982290   18.7867978082   12.3635017312
  13.0777639191    8.9898695925    3.7949638394
   8.7804499051   16.4001659416   18.8126637776
  13.8878755176    4.5687290077    5.9499019954
  13.1819420038    7.4210738468    2.6450754261
   9.4601422473   17.2818772754   11.6998485721
  -0.4302396672   19.7263698559    3.6682865122
  15.5040312784    9.5650867842    1.2607847456
  13.4774754593    5.4464086804    2.1593787249
   8.7968396913    5.6475023831    3.3550824972
  -0.1645848059   13.3571860151    3.8922834714
  15.0013691016   10.5233078224    2.6551801053
  12.3416203479    4.1025936251    1.7035139821
   9.3330487101   15.8575994009   17.2137024336
   9.0970735878    4.8215649539    4.8056519826
   7.7795083531   17.8648126755   11.5210547369
   2.2881452823   15.5125765460    7.5954097102
  -0.5615413469   13.9974819637    2.1168798007
  10.1839675225    8.7130702305   11.1802085279
  15.3080663961    5.6156250025    6.2785238457
  -0.5048940887   12.2465343729    2.5132833666
  17.1481591157    7.2092831824    3.2902957580
   3.7749171496   15.1340978364    6.6826176475
  15.4426466915    4.2948612796    5.1155321404
   8.3822072848   18.2019698312   15.1200732512
  17.9149508002    5.7581163246    3.6279817174
  12.7763217831    6.8957567335    5.0089819973
  13.7196352599    9.5221064224    1.6301746863
   1.9774060949   14.5945998338    5.9784189080
  14.4301600957    7.5010505119    5.3480613724
  12.4589460790    5.6785294105    0.7445017475
   9.1980120523   13.1758233264   16.9299474919
  -0.7477412657    6.8964066341   13.8078282852
   9.3657127354   11.0596364180   18.2224555583
   9.0428637261   16.4869938489   15.1803380228
  10.6269113996   13.4848795517   17.9216542540
  16.0765873203    5.3159361204    2.2512590267
  11.0218541678   17.0179246022   14.1413209179
  16.4464336103    6.4205339629    1.2067343746
   8.3736021249   12.1702571164   19.1436694886
   3.1782395775    9.8659597142   16.2066792495
   0.4543204064   13.9794408062   15.9224366627
  11.0601613576   16.8839834142    4.8164413961
  13.3155531491    0.0448037476    6.9933448702
   4.9150241294   10.2127512832    7.6574660119
   6.4122321995    9.5877910026    2.6480361867
  11.2604309898   18.6476811063    7.9150613416
  17.1001300350   10.5413435511    0.3403690392
  -1.4900593458   10.7721664314   17.9533411060
  15.5489130225    5.0588099959   11.8229762533
  16.8837042733   14.0276829003    0.1752951628
  15.7727818840   12.6812577362   18.5281204921
   0.7362573988    0.3750124957   12.8207447707
   3.7176603413    1.1489150597   12.9918010815
   0.7163685853   17.5457036170   13.3879136196
  -0.3036048707    0.8275430046   10.9386722009
  10.7019232497   17.6174998456   15.7263903691
   4.5518297521   11.3452857427    6.2648358451
  -1.8063977942   11.7018158296   14.3998864706
   9.2893759470   17.3330900199    1.5021580466
   2.4218004695   10.4206086324    7.3897513595
   2.0480114500    9.9778694214   14.7236567213
   9.3561042450   18.7026601997    4.8813960689
  17.2736057837    8.3724509049   18.1380320118
   1.5164593639   13.9217646579   14.6040223293
  10.7677530728   11.4803306839    2.5091640687
   2.3676109260   10.8456165258    5.6517632232
  15.5633148497    0.4346329447   14.0524966156
   6.4684176699    8.2441234081    3.7821064793
   2.4202341485   12.7549502063   17.0146803875
   2.0569026904   18.6283226491   12.7730998530
   1.0793935973    0.5002084381    9.9663513180
   9.8936598976   15.6538655228    4.9477193220
  -0.8300794035   11.1579591255   15.6657062800
  17.0174218782    3.1356563690    0.5109841676
   3.7140940758    9.9371707895   14.5085375742
  16.2815333914   12.4597056418    1.0327598305
  11.3043322058   18.6083495362    6.1873681017
   5.0116437951    9.0376446867    3.7478814979
  10.6115656888    9.9931171919    1.3134951410
  15.8190980013    4.4352082842   18.9606497258
   6.8611951314   10.3369398358    6.6299692301
  12.3895084775   19.5387538753   15.6269694305
  -0.6871098208    7.4471967390   19.2951697270
   9.1470383711   18.6482783357    2.7356383745
  -0.1884820547    7.3010916904   17.5690066787
   2.6442812768   -0.0134056406   14.0369143769
   1.1556972252    1.8319418555   13.6066802193
   1.2957581279   17.4811650171   11.7065191141
   0.2966757600    2.1399125514    9.9905804897
   0.2999395719    9.7610750863    1.1485758571
  17.3553763453    3.9472755448   18.4643297178
   1.0797840347   10.9256388264    0.0476787849
   1.2281042885   11.5967754780   16.5454760990
  12.9545786761   18.5484247828   14.3030939954
  10.7051493842   17.8235878849    2.4442722885
   1.6124107955    9.4194733986    6.1208182098
   8.0003498078   17.4682432557    5.6817825640
   6.3285381523    8.6731953104    6.0802478126
   9.1204099752   10.9681483445    1.7090326081
  -1.5542963955   12.7081452778   15.8792032380
   4.7884931544    8.7819367013   19.2124196452
   9.4771965427   14.0453777277    7.4794582611
  14.4502156330   12.8956928397   13.9548877762
   4.0019051357    1.4098088048   17.2591977599
   2.6881749759    1.1963213324    0.0014776781
  -0.6902483919    5.4923631364    6.4353016422
   5.1709178517    5.4351346145    1.3105990152
  -0.1377771462    3.3422991618    4.5219944236
  10.2691625616   10.8986892562    5.9486167742
   5.3309588836   16.8600006999    9.8200372147
  14.7929201094   19.6962733486    1.9119900485
  13.2217163403   11.8645954434   16.6083585221
   3.0424291660   15.7881198335   19.1278601714
  12.7157606047   15.9382065366   16.5254308196
   6.4847555337    0.2756768900    9.9632929547
   3.4599595556   14.8661780977    2.5348133273
   7.3685822220   13.0869084520    2.2280166435
  12.7265231773   19.2626185299    4.3163354541
   5.6673897746   13.1460026620   18.9639765055
  -1.4510243481   15.9062353844   10.3773400291
   4.3134532335   18.8414204318    4.4965612169
   5.5444531570    1.1588478846    3.4290101054
  13.4445787632   14.6829269339   19.2095786182
   6.1127278583    2.0458998877    6.2543263352
  14.7450961329   17.8076409950   11.7224786749
  13.0800606868   15.1606205589    9.8023426756
   3.5069815343   15.1919517824   13.2555420086
   5.4562017338   17.5619097105   14.3371676858
  10.3004536341    2.5050982983   15.3904482444
   9.9448327913    2.5757710370   17.7139668085
  -0.5008824244   17.6777483841    8.0390500772
  11.0869528058   13.3251708807   11.3393764225
  15.2806555782   13.5450209089    5.5894713996
   2.1932250036   13.2119675034   10.6192848514
  -1.3760478727   11.9392994469    8.9093289109
  17.3976744348    9.3726089725    6.2334746295
  11.6329911168    1.2607676011   16.9438164413
   3.7804430932    4.9027798157    6.5812738772
  -0.3296761007   17.8050815914    4.4790413744
   9.9595116563    6.6946770012    4.8378043120
   8.6652122359    5.6812198051   15.4585349837
  16.7873565287   13.2001057458    3.2110909485
   2.5395266200   13.4888321702    7.5173612514
   9.7389902032    6.8701077265   11.9287486324
  14.5584467840    5.8509329597    4.3077685253
   0.0461937018    6.9566621333    2.2462204583
   0.4035821519    5.5881659121   12.1672089611
   8.6847860594   14.2826559171   18.6101037610
  11.3333729019    5.8743908607    2.4711304391
  14.9724954277    8.4781458201    2.9337147033
   8.3186524878   17.2104794623   13.3360440752
  17.4305899725    4.4423192477   11.1481263937
  17.1212965427    6.3353456605   12.3626659087
  17.9253034121    4.8390770163    1.0400616702
   2.8863247589   11.7801110093   15.1832137515
  10.9141770439   19.0842826521   14.1801628593
   6.4601338266   10.1862240997    4.6473335840
   9.5337257739   17.9729134413    6.8562981160
  10.6606366814   11.9925031515    0.6040794840
   0.2973612539    9.1338373836   18.5190271566
   0.2850168974   19.1908091353   12.1338363555
   1.3868598257    1.8468434362   11.5542197500
  -0.8728390208   12.2844023363    0.1374073304
   9.4032873971   16.5719669394    3.3890540866
  -0.0099716172   12.6575008972   14.4464284074
   3.7162178670    9.4144727786    6.1852059180
