B2 C140 Ca1 F48 H298 O66 
1.0
1.7793158672237467e+01 1.9962245009697041e-16 5.7495752360451539e-17 
-2.7243485629883835e+00 1.9197565590031992e+01 -1.1703786085447270e-17 
-8.7981544409596102e-01 1.2126133553499474e+00 1.9513153103957023e+01 
B C Ca F H O 
2 140 1 48 298 66 
Cartesian
   9.8076143523    3.4109975057   16.8578903850
  -1.2053766421    6.3483099773   12.0782257323
  -0.1743995189    1.3698424508    1.4873172450
   6.9912262782   13.7021774897    6.7975635410
   4.8476292425    6.3766930315    1.2876621860
  12.5038392211   12.4803076784   12.4844546709
   4.0946000154    2.6752826397   15.9358961370
   1.7948594199    2.0490521020   18.3006199146
   1.3378998628    2.9102229580    5.4631072501
   2.2793791583    1.3113780805   16.9715590233
  -0.6236588109    4.1086849410    5.7877380415
   2.8921053378    6.2938118891   19.1371226829
   1.8438614683   16.8882769349   18.5677530879
   0.5372054649    3.9319197305   17.6983691303
  11.6485315940   15.7120672862   15.1689376714
   4.6189780606    9.8932625627    0.4719089156
   6.2887428945   17.2255243383    9.3752264115
  12.2944662287   11.9525287305   16.2515881422
   9.6853312059   11.9579429381    6.6744330286
   9.4478078958   13.4185443839    6.3962883661
  12.8148674935   11.7981486363   14.8048033992
   4.0313258107    7.6723698118    1.1785828821
  10.9524457989   10.0215928931   16.9086671570
  12.0401241059   11.4534709432    6.1801623558
   0.0661447659    5.0169247743    6.7605379858
   0.8852000650    7.3910604420    7.0409383732
   4.4838500889   18.7066568746    9.7259823805
   2.3693720587   16.2442951620    1.3036597664
  15.9397628431    1.7837038230    3.1417573843
   3.4962842661   19.2094700615   10.6976016600
   1.6155652721   15.0761117588    1.7583276420
  12.8924583507   16.7132234519   17.0808172433
   5.3816902725    2.1137756624   10.9666583526
   7.4264564778   13.6647584455    3.0705115758
  14.6710830227    1.1646447798    3.6734202420
   6.2928207263   13.7127264107    1.0639676534
   5.3172976544   14.9513743233   19.0654579050
  15.0793652635   15.2189192820   12.1115787064
   2.2771044442   12.8162786166    1.9133944274
  12.5402153931   15.7337418905   18.1588248056
   5.3612894424   13.3531465276   17.1088619816
   5.1524654764   17.8228609469    3.8482940143
   7.1182113744    0.5192558172    2.6199006964
   6.1793440766    1.5738200619    2.6263299394
   3.8461434435    2.0148677839    2.5477200804
  -2.6388133951   17.0138259831   10.5577962062
   6.6726270539    1.2569148837    6.4682254535
  12.0022478947   15.0589474229    9.0024122022
  13.6361742352   17.3485515108   10.5041976589
   3.5770747979   15.6160388824   11.9979922564
  13.0484959096   18.1820709952    4.2981712179
   6.9389466828    2.4985077386   18.3541860563
   7.5401428000    4.9065453599   19.2175022772
   7.6652852037    3.9407361109   18.0234869840
   3.5302163977   15.6067914233   14.4165055854
  12.0013652186   18.4237255554   11.8130750469
   9.9804540293   14.8043668160   10.1573033993
   9.1643249317    3.3002475356   13.3272825777
  12.1811343689   15.6183986701    0.4897002484
  12.2013210113   13.3535348192    3.2598899320
   9.4109074186   14.1821725628   11.4254017695
   5.3335063758    3.2414468078    6.4676385548
   1.5228554795   12.9467479862   10.8907456249
   3.5600307149   16.9718734327   14.9965360806
   0.4809534745   18.4751224317    8.4465698689
  10.2218607668    3.3482614858   14.4549291657
  11.2011897949    4.4599388736   14.1770096959
   5.4595740702    4.7293879924    6.2415683062
   4.4564378429   18.9853158034   15.2429631345
   8.5752666359   12.2601079701   10.5858441782
  -1.1608847681   13.4127834445    8.7230584208
  15.2022721152   11.5469071436    8.5458624806
  -0.5457281540   16.7923370720    6.9152780208
  -1.5020923539   10.5424079372    8.1293282573
   5.4945915473    6.6624068332   15.5871645440
  13.6622000954   14.7288854462    4.4502300493
  -1.3278753169   17.7717346213    5.9722942143
   2.9189959262   13.6982243347    9.0558639966
  15.6962588015   10.1105026192    5.7637172989
   3.7636525636    6.1924016771    5.4426823309
  11.4424579427    2.5677423012   18.4899846433
   1.9363187738    5.4032387990   13.2832274086
   8.9622636677   20.2993026299   18.5866629471
  14.7111285015   13.8279734280    4.9263241879
   6.7667470927    7.2965002731   16.3320222314
   2.7690681460   14.6613034758    7.9043514535
   7.3813811882    7.3257929841    3.9268769225
  -0.3302148060   17.9031981688    3.6191343033
   6.7848145913    8.9204827092   16.0401343318
   9.5389212985    7.6611823895    9.4914991596
   0.4517487508    7.9026736989    3.3779533367
  12.6946074866    3.5613007379   18.6931706315
   1.9615111496    5.8617214065   10.7780205948
   1.0596971734    5.5503507141   11.9454070688
  10.7194931139    5.7990871369    3.0585734549
   9.3427524774    5.9090720842    3.7059555804
   8.5926880045   15.7859586111   17.1960491028
   8.6193195081    8.4094484597   10.5633995846
  11.9730173838    8.9684949030    4.0498660108
   8.4534359231   17.4010362167   11.5723347188
  -1.0162079350   12.9928941769    3.8131014507
  14.1483914870    6.8712715889    6.1160914439
   7.2419764482    8.5864382471    9.9328028223
  13.0010503881    9.5203322907    1.9099404478
  11.9678777388    6.1557555425    1.0376059668
   2.8071133357   14.2246125405    5.3948757986
  12.5404090325    8.3922368672    5.3016625085
  15.9159833760    7.0363717232    3.5629736672
   8.1734817419   18.2798388490   13.8459793873
   8.9673882510   13.5248800566   17.9918982379
  14.7114238951    8.1635437829   14.6555007688
  15.7971826515    8.2100206373   13.5946093151
  15.8534703489    6.2569317660    2.2233773048
  14.9858840331    3.1683166150   10.8911927906
   8.5072888972   12.6095874011   19.0388286019
  14.8236147315    4.7604277008   11.2356998930
   8.8124855850   19.1658955187   14.8663797487
  14.1713137700    5.5788860317   10.0224924671
  15.7164672596    9.5084097822   12.6745613451
  11.0552776057    0.8460341972    7.0718618879
   2.3957643493   10.2329160009   15.9738157775
  -1.7809054304   11.3254914423   19.3403309701
   0.7858353722   13.3443360753   15.0369337905
  15.7633355538   11.9546087418    0.5719452923
   4.6603614065   10.5955826740    7.4605604509
   4.9328889129   10.7188238096    4.4169448337
   9.0876614621   17.0542865188    5.9487400002
   7.9561219107   18.0324448912    5.9305494072
   1.2952644509   12.3398292004   16.0561166765
  -0.6406929542   19.9560010936   13.1865072720
   1.0386901396    1.5464722988   12.3812660932
   0.6516721865   18.0319427017   12.6002632219
   1.0099974836    1.8610754373   10.0320695412
   9.3421036295   10.9431398362    1.8697221269
   2.4399476962   10.2035408859    8.2533170746
   5.8609018178   10.1122788585    6.4826584043
  13.5237640435    1.2219815114   14.7013692479
  -0.7183788138    8.6999518191   18.4319334628
  16.7573035887    4.7057398142    0.7776110262
  -1.7030683857   13.0918552503   15.4852521055
  -0.4065339900   10.8040717486   19.4858619890
   9.6270449634   16.8175093392    3.5996061673
   8.2864866233    6.5906844238   13.4602196974
   6.6573216213    1.8739645545   17.1778608302
   8.1750653538    6.0633122866   18.9905554435
   8.8276446534    4.3958912646   12.5440712949
   7.6472220119    1.6574145906   19.1866049532
   8.8561917558    3.1679415221    0.9195084340
   5.7417000402    2.6553903587   18.9582646189
   6.1360165751    5.1792169327   19.2062302623
   7.9337604449    2.9091925626   13.7442048862
  11.8024048226    4.2788152420   12.9348856339
   9.5840805943    2.3365897442   12.3343185849
  12.1059732745    4.4281268376   15.1580349990
   4.3446500130    7.1844642321   16.0293179959
   5.4171446338    5.3155321574   15.6913222216
  10.6587621759    5.7366955646   14.0858275846
   5.5078531438    6.9269836636   14.1503711363
   2.8135236881    4.3854126505   13.3050225619
   7.9032733565   19.6749256734   17.9404758170
   2.6886236426    6.5082318755   13.6043037032
  10.8643337410    7.7446916761    9.7783719095
   1.1962999659    5.6020797638    9.6912483716
   6.8150247695    9.0319512508   14.6724122959
   8.0058568282    9.4694936747   16.4751367229
   1.0837693621    5.2222037908   14.3002717223
   9.4095775691    8.2402754141    8.2418963313
   9.8639446225   18.5783890390    0.3410383348
  13.4795694018    3.4525237437   17.5969124567
  10.1303212508   19.8297614034   18.0974518782
   3.0497795667    4.9677130197   10.8978802088
   9.2380923226    6.3771678830    9.2904539971
   6.3716824102    9.2278348890   10.8299488660
  14.1957392665    2.0836534365    0.3288435911
  12.2605692085    4.8073942541   18.7619505900
   5.7769882704    9.6288889467   16.5106937069
   2.3919605187    7.1021901691   10.7849113845
   6.7364700245    7.4088479244    9.5688339391
  14.9683849207    8.9183522212   15.7488623794
   7.2256097435    9.4976494188    8.8941997693
  13.7346083795    2.5577332967   10.9586005902
  13.4288253598    8.5396948281   14.2810146409
  14.6236955524    4.9654987788    8.8889696343
  15.5943476251    2.8211896078    9.7668559715
  14.3671630198    6.8636758859    9.9719819496
  14.5894026520    6.9145044200   15.1340712667
  -1.5687209155    9.3270482095   11.4335538004
  15.6925980311    2.6777520433   11.9285938871
  -1.3785403923   10.5403991475   13.2923876711
  12.8354279586    5.2891631922   10.1961775466
  14.4758874926    9.9672185505   12.5764636937
   0.8311921941    1.3834272340   18.5746943205
  12.3927142611   13.0351074524   16.3204493582
   1.8684867883    2.4379931097    4.6113106520
   5.3005025730    6.3463659231    2.3001918464
   5.9637935463   17.2255752544    8.3188850868
   9.7590812527   11.5465722838    7.6803893765
   5.7783764419    6.5387120102    0.6414497598
   4.8770329434    2.2320403496   15.3416511966
  16.3463423469    4.5425679110    5.2663078284
   0.1973015799    2.3731390155    1.7104469137
   1.1661126570   17.6756236530   18.2169198967
  17.4989400175    1.1401725933    0.4007323457
   6.3885173497   14.4001932670    7.3525168319
  -0.3374575139    3.5519741276   18.0814637418
   0.5925754525    0.8148846605    2.0328038253
  12.0167489037   11.5758435327   12.2656063671
  -0.6773079949   19.4582149775   17.1134377768
   6.7509606408   13.8437146461    5.7834064117
  12.5149638706   15.0283020448   15.1612632965
   5.5288379184   10.4959944361    0.6347746215
  13.5474264707   12.5043718040   12.3103382330
   2.7795654364    5.2475151283   18.7413014584
   2.0263606213    6.9422269043   19.0058405485
  10.6851799183    9.9930986623   17.9158730354
  12.1613622294   10.6082010049    6.9352823677
   1.1887239750    2.2958249446    6.3096738040
  16.7209691468    3.3928019213    6.4723392352
  10.3062450174   14.1089140527    6.8226052568
   4.4292891900    3.5883607520   16.4691419335
   4.8869066860   19.6141069869    9.2818323389
  10.7424026795   15.1099473344   15.5849103287
  12.7107366378   10.8000917506   14.3542606442
   1.2364897717   16.0239567782   18.7675786105
   2.5777179396   16.8316223422   17.7575974006
  11.4502102082   16.0961981179   14.1114577078
   7.1747121312   17.9231047742    9.2574977964
   0.5805110419    3.6549412324   16.6317579731
   2.9389991508   16.9299143698    2.0498157907
   0.2147111629    8.2741900786    6.9157488820
  13.0895941090   11.5644614824   16.8854289232
   1.9112677151    3.7710303135    5.7862653561
   6.4613035536   16.2170620303    9.6241297995
   8.9018776943   11.3699583005    6.1765532257
   3.6904330012   10.3517091772    0.7879066687
   6.5367079541   12.7179129433    7.2134065049
   3.6783712518   10.9271217385   18.8893583799
   3.6995901459    6.6176526287   18.4309763565
  12.1264619957   13.3390055265   11.9628328371
   2.6402435940    1.7381616752   18.9650478184
   3.2864189460    2.9871390799   15.1773948315
   0.4773915115    5.1385529941   17.7640085071
   1.6995493590    1.7938732605   16.1032583334
  16.7420774223    1.7295994187    3.9265314696
  15.7746047469    2.8246504020    2.8854523076
  11.9131024577    9.3778211486   16.7690435036
   3.1068534117    7.6787196394    1.9044989773
   3.4872606519    7.5841649372    0.1151285297
   1.9547705692    7.6423809569    6.8977898719
   0.8875867427    4.5199559813    7.2972644221
   1.6083117712   16.9088162402    0.9380081425
  12.5871958534   11.2614641650    5.3097593410
   4.1178250625   19.6497658066   11.5716874106
  12.4679834069   12.3973906595    6.5632952398
  10.2681332071    9.6008156529   16.1889129218
   9.2709060386   13.5731964720    5.3069967299
  13.8745917172   11.9071184186   14.8032178502
   3.9866787936   17.9559116591    9.0314805295
   7.1506753823   14.6786986737    3.2858907866
  -0.7404448514    5.2199843447    7.4274120299
   0.7416346025    6.9223327935    7.9929707439
   5.7974213955   14.6076704175    1.5139251801
   6.3737842281    2.4628935815   11.1388525315
   1.1322293597   14.6211364761    0.9150449812
  12.9388478983   17.7299408752   17.5525802217
  13.9351737028   16.4125772799   16.6287754451
   4.5194416641   15.4762859696   18.5231440370
  14.0317603796   15.4737584194   12.4986884042
   8.4806870166   13.4587287589    3.3703111318
   4.8514795344    2.9714720077   10.4676240676
   2.9361723449   18.3849608999   11.2273331438
   5.4744169606   12.2636536928   16.9409912400
  15.1231654913   14.1535175336   12.0563591422
  14.0088125052    0.8621341358    2.8598838152
  14.2006849159    1.9835547688    4.2643465306
   4.8896051057   16.8570868036    4.1902707185
   6.0848673094    1.3484801996    7.3648697570
   4.4761642828   19.2702646670    1.5515279225
   0.9458673297   15.3858466084    2.5766504941
   6.0167012160    1.9781378787    3.7198951865
   2.8696288145    1.4337922659    2.5478743589
  -2.1411045272   17.5514658809   11.4295465693
   1.3444391064   12.3460721802    2.2862841926
   2.2426485002   12.7336252000    0.8017747661
   6.6228569254   12.9904599483    3.5070461392
  12.5226905973   14.6733795128   17.8366527191
   4.8533728759    1.8765561056   11.8491151647
  13.2869370602   15.6813681026   18.9668105365
   6.2232927161   13.9978199683   16.7267382799
  11.9023188681   14.1119650493    8.5137217743
  13.0706142772   16.5048839271   10.8321993379
   5.6575970586   12.8586253269    1.4661817695
   2.9331148942   15.6364174893   11.1071255327
   5.8191765978   18.3567880851    4.6382119624
   4.3535385367   14.6955174973   12.0096095181
  13.0935145216   15.1194757780    9.1616781593
   3.9299824050    2.8770880264    1.8627651530
  -1.9919218695   15.7036553331   12.8715569233
   6.2363829065   15.3983339658   18.6376970140
   3.0711087349   12.2161198199    2.3614308804
   7.7136643571    1.0486460367    6.7587835165
   6.2772323625    0.5596792207    5.7125440406
   4.3940205717   13.7020579852   16.6550769175
   7.3783032304    4.4156370487   17.1437686098
  11.5560587582   19.4215610088   11.7831511200
   3.2783331311   14.8286920234   15.1833439755
   4.6173563681   15.2899313226   14.1316862726
   9.6492761236   14.2344154537    9.2761941944
   4.2148710643   16.5235623702   12.0776677496
   5.7297389193   17.5435260687    3.0291400723
   8.1535342642    1.0385325959    2.8602249799
  -2.0014239474   17.4489834677    9.7373804558
  14.0867870764   18.6759721998    4.2775655640
   6.6584287760    2.2451635120    1.9602861028
  13.0276366187   17.5859022760    3.3735595030
  12.8982379857   17.6186107735    5.1984706441
   4.0334689524    2.4741302772    3.5153746099
  11.4794753824   15.8618743981    8.3821802328
  13.3622907508   17.6217961977    9.5309886294
   9.9365341481   14.5624522935   12.2699074594
   0.2463989555   18.9305692291    9.4644321060
   1.8223612889   11.8613103938   10.7786059805
  11.7593778932   13.6594861617    2.3424928474
  11.4782757085   12.6263457639    3.6020360728
  11.3703147926   17.7560291743   11.1278960889
  12.8936038483   16.3857388053    0.1789429663
  11.1439396642   16.0369744796    0.7168332162
   2.2235230769   13.4025912284   11.5986275521
  11.8725320595   18.0365918184   12.8530621761
   0.4582055497   12.9926498282   11.2678957897
  13.2115003780   12.9513067804    3.0287076552
   4.5050653641    3.0599474792    5.7400560023
   9.6047412236   15.7291558564    9.9046706376
  -1.6702110266   13.8825966512    7.8182960841
   9.1190556578   11.5066594427    9.9949813798
   5.0691397522    3.0627666286    7.4976774496
  12.6595851240   15.1437926930    1.3817141010
   5.7970791455    4.9291385554    5.2130663925
   6.2335015541    5.2150198942    6.8458138586
  14.7903214560   11.9325369486    7.6935678153
   5.3744285627   19.5618554931   14.9285667829
   0.3621814902   19.2379312408    7.5713075543
   1.5654168043   18.2070470812    8.4437048416
   8.3055980964   14.6730391429   11.4746112639
   4.1204582866   16.6912635915   15.9258645809
   2.5239489071   17.2469365807   15.2899858729
  -0.2086581336   12.9470061909    8.3810832826
  -0.5404558249   11.0153613556    7.7408048402
  10.8239304225    2.4403580405   14.4440084071
  14.0857879983   15.3016494124    3.5267840599
   4.6888772256   18.5533669880   16.2198131575
   8.2266002440   12.9867977065    9.8994790029
  14.8155758434   10.8545886314    5.4852237483
   3.5917078268   19.6599507889   15.2511312050
  -0.8729907367   18.8673277824    6.1660284308
  -2.3719499793   17.8868361353    6.3075186511
   7.5533375574   11.8033720429   10.9877113860
   3.0801188193   12.6966123737    8.7186187320
  -0.9883971474   14.2659785570    9.4225906461
  13.6401262080   15.5556474235    5.1742552603
   3.7826380742   13.8688443475    9.7705753763
   0.3587495581   16.2626987135    6.5009007232
  10.5938264613    2.7972336313   19.2127749949
  14.4166787612   11.0725532518    9.0963421193
  -1.1381278350   15.9260579647    7.1056602939
  15.5732461797    9.1950533333    5.0474274314
   4.0909265692    5.8465501003    4.4680345693
   7.1170080467    8.3306100125    3.5557833196
   4.4089941282    7.0555826886    5.6229697730
  -1.3378944314    9.8374254540    9.0155719867
  14.2881810583   13.0650443877    5.6345903673
   0.7925301070    7.2555017943    4.2450674172
  -1.1622701054   10.6942575913    5.5911585170
  -0.5865190752   17.7718133440    2.5161159122
   0.5969740011   17.4131860426    3.7853263535
   1.9107587830   15.1935319892    8.0616795194
   0.8710546706    7.4608968379    2.5228172897
  15.4002134723   14.5247291398    5.3049219665
   3.5620548538   15.3083281852    7.5230016256
  11.5518709694    6.2860585034    3.6379808233
   6.5451025022    7.0064190297   17.3258680580
   2.6916845026    6.3010310026    5.5727518057
   0.8733077536    8.9233202140    3.4565252054
   6.8858964214    6.5401425821    3.3572801754
   7.9390218839   16.6460050042   17.4848309207
  10.9445582025    4.6856680550    3.2452578867
   6.9470672153    7.1989391048    4.9556908555
   0.6189026765    4.5282327571   11.8985747578
   7.8775939675   18.2168100264   11.1673726460
  11.1721071601    9.6307241876    4.4753464013
   8.3819565770   15.7249712326   16.0599705750
  13.5612031765    6.8173473485    7.0900128825
  11.4713945584    8.0652251963    3.6577318826
   9.2310988717   17.3277219145   10.8556750048
   0.0556978012   18.8887438189    3.7918548086
  12.6954249606   10.4719011445    1.3536381394
  12.8827248376    6.3786324274    1.6134940631
   8.5844972094    5.2503398023    3.1875018146
  -0.6123097413   12.5706636427    4.7402616142
  12.4254244365    8.7498897334    1.5281496784
  12.1272638882    5.1735501298    0.5441317353
   9.6366181017   16.1632916482   17.4403971196
   9.4283942233    5.5973435623    4.7245296282
   7.8577878988   16.4930393163   11.5050096171
   2.2961629521   15.1491659421    5.1894163198
  -0.4195117124   13.9168805432    3.8611363461
   9.1744188316    9.4501369704   10.8622594878
  14.9123446677    7.6015789363    6.2065907058
  -0.9377753903   12.3518186079    2.9604370994
  15.0557184692    7.5453700116    3.8500639641
   3.9888364150   14.3948586189    5.2485333137
  14.5198622766    5.9086649767    5.7812428048
   7.2531979737   18.7492181999   13.3137721488
  16.1047996822    6.3218197644    4.3958605046
  11.6704563453    8.0295430125    5.9148451128
  14.0680984761    9.1650806166    1.5744178811
   2.5115240036   13.5313959008    4.6217510286
  13.1274838276    9.2242594640    5.7262379577
  11.8036946951    6.9906212582    0.1811225365
   8.8881421721   13.0150505090   17.0320987662
  -1.1236355469    8.4370380240   14.2558507959
   9.1505059564   11.6543760538   18.9234022506
   7.7590104711   17.3797475072   14.3280515928
  10.0319144650   13.6689373596   18.1982446665
  14.9122996638    5.6336638735    2.3364862448
   9.6218482766   18.6013364945   15.3669449968
  15.6336910274    6.9627211785    1.3003870293
   7.3965524515   12.4657948936   19.1146262652
   1.8561480840    9.8764006314   16.7999911759
   0.8385699022   14.3459002934   15.5393408446
   9.9401063006   17.6642501384    5.9576045662
  10.2294544290    1.5414985884    6.8311681807
   5.1597086025   10.7191091076    8.4561968959
   4.2103029572   11.4384262393    4.8258929601
  11.6276804718    1.1034831043    7.9716734611
  16.2524356683    9.5852245078    0.5336503995
  15.5310261227   11.0410111927   18.3799350048
  14.2080532849    4.7166109639   12.1907942705
  15.6515324898   12.9926398297    0.6616648712
  14.1930461284   12.7442316578   19.3008939292
  -2.2624517714   19.8928032209   11.9729842790
   2.8009117681    1.2237446006   13.9063001826
   0.1068247756   17.3042021241   13.1923881442
   0.4297426814    0.9082385248   10.0370670150
   8.1745414708   19.4445493040   15.6748269620
   4.3478505783   11.6087141160    7.1366159545
  15.2146345338   13.0956257869   14.7904823311
   9.9993920246   17.8263649912    3.8940797817
   2.8882598260   10.3802990966    9.2275480780
   2.5389063300    9.3506867085   15.3021337144
   8.1181671191   18.8559969320    5.2776101903
  -1.0033252761    8.3344094693   19.4773103504
   1.4209650813   13.3453705499   14.1931766665
   9.3456000083   11.5029341228    2.7883996582
   1.8846922174   11.1238734315    7.9074152280
  11.2649641733   19.4052204101   14.4029547289
   5.2267011833   11.2527457834    3.5104811714
   2.2419611098   12.6086153537   16.5269637832
   1.5715324171   18.2716475976   13.2136841444
   1.9523193522    1.7534427145    9.3839096483
   8.9105148875   16.3189510577    6.8684972838
  -1.5799210802   12.1596738482   16.0462735051
  15.8191752571    4.0788338400    1.0292285990
   3.3499495376   10.6572962328   16.3597596283
  15.4883434563   11.4644287366    1.6354756357
  11.8874214782    0.9615724596    6.3804740784
   4.6314016227    9.7239426952    4.0685827851
  10.0734223349   10.0904700150    1.9956210442
  15.5591467711    6.6644460395   19.4277504002
   6.8660864340   10.2921772495    6.9905812695
  13.9171047326    2.1682916983   14.3187150618
  -0.0064029636    7.8791471769   18.2776261626
  10.5182685343   16.1809272048    3.4215428051
  -1.4890324601    8.5934937939   17.6758154291
  -1.3355427845   19.2557962851   13.8335938180
   0.2936636921    2.0916181635   13.0591039258
   1.1335825897   17.5491119117   11.6740969350
   0.3991426303    2.6932124235    9.7181065775
   0.5579821165    8.9928075754    0.9433191297
  -0.2833962977    3.8886865732    0.3670597126
   1.3104792328   10.3217618565    0.0328132310
   0.4908100391   12.0466782356   16.7637219485
  13.5583407144    1.3827923356   15.7281727376
   9.0389594227   16.7524338959    2.7108122360
   1.7102179050    9.4236590367    8.3505990749
   7.0388427182   17.4730528583    5.8790214873
   5.7821612287    9.0978426114    6.1401690498
   8.3426423755   10.4440998015    1.6016848290
  -1.6345428780   13.8596807752   16.3093858276
   4.8807751316    8.8096225466    1.3840583427
   8.3508319493   14.0238207638    7.0891924118
  12.2852273575   12.7943330826   13.8317730012
   3.7123976189    1.5409008433   16.7595783247
   1.6726181206    3.4519932288   18.3939606564
   0.5559767525    6.2252258035    6.0814084615
   4.2706386000    5.0791444824    0.9753339268
   0.1845383096    3.4226913794    4.8327238296
  10.7764950211   11.6583738004    5.6938315345
   5.5928919679   17.9896168114   10.3309041192
  16.2772274688    1.0858056026    2.0726136347
  11.0174507835   11.4384008271   16.4489737148
   3.3415038019   16.0404744663    0.2913212626
  12.1214238380   16.9253462490   15.8694867108
   5.4329656651    0.9308806935   10.1588263681
   2.5645493188   14.1560607233    2.2886637214
   7.5948931269   13.5792071758    1.6556127661
  12.0665018753   19.1393778742    4.4703341518
   5.3186626092   13.5510797075   18.5671908427
  -2.2823553404   15.6828418557   10.8760943057
   4.0521010646   18.5533248029    3.4935848546
   4.9432336339    1.1324044164    2.1735312032
  11.2981361386   15.9055329817   18.8912507522
   6.5779928395    2.6133244550    6.0150667887
  13.3685768795   18.4058015092   11.4884273842
  11.3946181082   14.8700674821   10.2846714575
   2.7895725437   15.4306764124   13.1528934945
   4.1920833532   17.9757562904   14.3002358050
   9.4911551553    3.6531152077   15.6020365847
   9.0094189729    3.6052994199   17.9673832599
  -0.3463922447   17.1851514914    8.2846585106
   9.4326938785   12.8057902597   11.5091490150
  12.2477777648   14.4384822637    4.2333204285
   1.6433952933   13.7861806534    9.6946326150
  -2.0653516272   12.5344962096    9.3653816122
  15.6493088369    9.6521503765    7.1236371569
  10.9821028997    2.7619294726   17.1861107729
   4.0897540367    5.2362934916    6.4447645242
  -1.2674654541   17.4549497545    4.5837136505
   8.8506811973    7.1904255331    3.9675476545
   7.8563805112    6.7948699119   15.7411555003
  15.3927752243   13.2350390421    3.8564376487
   2.6746332755   13.6656378747    6.6507398903
   8.5834305625    7.7160573290   11.7390793170
  13.3509565317    7.3130617903    5.0547738235
  -0.9865625006    8.0807168761    3.3906781886
   0.1698131850    6.6036114904   12.1373334958
   8.1321621881   14.6919498024   18.0244023361
  10.6945262569    6.2071167368    1.6926208429
  13.0740919077    9.5417165564    3.2861374415
   9.0979069325   17.7185920939   12.8261206056
  16.1639004758    5.2796653814   11.3821811411
  15.6535034769    6.9753339451   12.8505491505
  -0.7597360728    5.4184316990    1.9967730398
   1.6771033917   11.1945934931   15.2382125511
  12.1243880873    1.1506955048   14.3190940759
   5.9973665924   10.9263412104    5.3117773290
   7.8598606815   18.7593496334    7.1994957307
   9.7022177642   11.8285680151    0.8663450624
   0.0063535945    9.9469371718   18.4493812507
   0.0905898730   19.2474327969   12.1627222515
   1.4764451987    2.3309775946   11.3065433839
  -0.7833175770   11.5168478088    0.1789946604
   8.9068748932   16.1484672467    4.7239540234
  -0.5488784167   13.1358969146   14.5882989962
   3.4731508992    9.7675194287    7.3610037019
