B2 C140 Ca1 F48 H298 O66 
1.0
1.7790637878644695e+01 5.1507195495810197e-16 1.2362815412136045e-16 
-2.9005591438608307e+00 1.9217083001415482e+01 4.9857160674894347e-17 
-7.1935064417120742e-01 1.3791918792485074e+00 1.9497322180969089e+01 
B C Ca F H O 
2 140 1 48 298 66 
Cartesian
   9.9368296417    3.5592775100   16.7598648004
  -1.1565214680    6.3417066466   12.1790558018
  -0.0542256794    1.4900086519    1.4866388192
   7.0271843286   13.6995836076    7.0147492888
   4.7473089659    6.5490056599    1.1318384557
  12.5104137696   12.4785720063   12.4671791673
   4.2702653211    2.8577646952   16.2366388194
   1.8225437356    2.0825607209   18.3037963772
   1.3205492833    2.7816009994    5.4718283249
   2.4513675702    1.4392012570   16.9495693659
  -0.5914329288    4.1282012579    5.8066064243
   2.8827733785    6.4372854941   19.0971356448
   1.7941420376   17.1195920755   18.3636384245
   0.6336986453    3.8866408865   17.6703547765
  11.7119661656   15.8372661687   15.1488246090
   4.8133894555    9.9898655226    0.7054312654
   6.1549952081   17.1846565072    9.4539132300
  12.2471424875   12.0274619951   16.2370666428
   9.5542288795   12.0756449154    6.7273681559
   9.4280330389   13.5456590611    6.4121326837
  12.6820008629   11.8485239861   14.7068405554
   3.9860401206    7.7677439647    1.0851150909
  11.2885138173    9.9755094359   16.8161245737
  11.8434343186   11.6100687589    6.1395279691
  -0.0456969388    5.2358672121    6.7056096488
   0.9599867249    7.3861569394    7.0297189041
   4.3991888830   18.9411389091    9.6699368169
   2.1809813202   16.3614564615    1.2250395613
  15.9004549806    1.7213548514    3.0502894726
   3.4922206533   19.4386259212   10.7293764990
   1.3276646807   15.1696299820    1.5272432921
  12.9016900925   16.8450873613   17.0285090181
   5.3216679826    2.3437201962   10.8879529138
   7.4091661212   13.7779235865    3.0339550209
  14.5947674755    1.0604241873    3.5248465327
   6.0972233271   13.5705676556    1.0899583798
   5.3841149068   14.9064641818   19.1051342775
  14.9426730078   15.2709609661   12.1166816135
   2.1389265374   12.8679732032    1.8190117710
  12.5501043738   15.8687348727   18.1019544162
   5.4143255733   13.5941326212   17.1102839011
   5.0136308311   17.8137852089    3.9375014369
   7.1990247975    0.4933644883    2.6905187237
   6.2382520429    1.6529676859    2.6343779995
   3.9231443984    2.2854224441    2.3048527068
  -2.7370224512   17.0400659152   10.5199549215
   6.8515621496    1.2608491807    6.5885584047
  12.0883172831   15.0796436347    8.8778258636
  13.6088311094   17.5540437518   10.4101222033
   3.5502098333   15.8511697677   11.8550786780
  12.9044866631   18.3630881632    4.4282423210
   7.1069086225    2.6082565912   18.2691763722
   7.5275549137    4.9679496268   19.1573700645
   7.7118276506    3.9659204744   18.0607704061
   3.6053032284   15.7000518143   14.3257162460
  11.9352577596   18.7071314265   11.7123380009
  10.0042580148   14.9710449791   10.2120921885
   9.2482031650    3.4320409715   13.3298260924
  12.0568283843   15.7495117435    0.3028526898
  12.0441628937   13.4647502202    3.2553751109
   9.3576406523   14.4092821796   11.4527825007
   5.3593641419    3.1766082495    6.5016061813
   1.4353734256   12.9615990663   10.9818670471
   3.5771645692   16.9409689885   15.0779426147
   0.1666685211   18.5109625999    8.5224218341
  10.2653759278    3.4708703870   14.4408968634
  11.2888258453    4.6022878197   14.1063374581
   5.4131585019    4.6603315598    6.1273367209
   4.3535565989   19.1989445360   15.1254295142
   8.5443004272   12.4123510626   10.7383370539
  -1.4560150828   13.5375240788    8.7179564432
  14.9880841364   11.5444843974    8.6553550538
  -0.6583951228   16.8806436935    6.8645760065
  -1.6654192644   10.5829803295    8.1289343809
   5.6113774730    6.7671520090   15.5335508764
  13.5005743152   15.0297284378    4.5818183489
  -1.4963531216   17.7788462685    5.9341150994
   2.8106326480   13.6465347491    9.0934577831
  15.8308225825   10.1945003145    5.7552555334
   3.6181664330    6.2645411164    5.3845695454
  11.5357375001    2.7441221737   18.3885575401
   2.0028086294    5.5238941995   13.3886576570
   8.8777167315   20.3988536013   18.6125543872
  14.4643120540   13.9432691756    4.9168037005
   6.8340119126    7.4606630450   16.2426209577
   2.6714000517   14.6464527487    7.9244065704
   7.4359071917    7.4159453250    3.9561143784
  -0.5994219587   17.8561558754    3.7538853926
   6.7190193313    9.0174055177   15.9882146757
   9.4606220136    7.7112200133    9.5303743760
   0.3228346020    7.7102383441    3.4177230032
  12.7432099325    3.6375679106   18.6765582130
   2.0834201172    6.0024393003   10.7867973887
   1.2366097014    5.7492265754   12.0714774073
  10.7167123833    5.9200786394    3.0592136502
   9.3432071393    5.9615030523    3.7304540065
   8.6151665412   15.8902622787   16.9986929000
   8.5623302027    8.4121828015   10.5140253274
  11.9427724946    9.2302609901    3.8688878557
   8.4184593322   17.6308627947   11.8148834654
  -1.3385936966   13.0898348391    4.0758195755
  14.1054431985    6.9942295467    6.0886276119
   7.1468638692    8.6563105036    9.9255892330
  12.7695096425    9.6534764685    1.7533604769
  11.9111070614    6.2580137080    1.0554253116
   2.7637471316   14.3163525082    5.5029898220
  12.5542862041    8.6495739073    5.1887247958
  15.8627825882    7.1112120033    3.3483104938
   7.9556717493   18.4702939101   13.9437548750
   9.0194155824   13.7460834256   18.0581094050
  14.7809534903    8.2076453354   14.7070975222
  15.8158908909    8.2867895525   13.5691553828
  15.7356879673    6.1242099231    2.2534352233
  14.9902097748    3.3160689682   11.0355662595
   8.6291925858   12.7063842440   19.0186028317
  14.9329838323    4.9396576890   11.2089459274
   8.6507816775   19.2887449528   14.9549807665
  14.2403458914    5.6446299141   10.0452261131
  15.6892248469    9.6049174626   12.7231815796
  11.0159235870    1.0831760545    7.1376527627
   2.3717142537   10.2936329762   15.7225067633
  -1.8189519963   11.5364791126   19.2532684788
   0.8067472237   13.6039443928   14.9370711707
  15.5297721982   12.0872857597    0.7267393590
   4.4892905091   10.7872598860    7.3432591859
   4.8413930953   10.9211895725    4.2087065844
   9.1453005989   17.2061247804    6.0341952143
   7.9349403084   18.1387427804    5.9442736758
   1.3442419617   12.6261548207   15.9324492175
  -0.8295298607   20.0293842923   13.1334595155
   0.9195226639    1.6623554669   12.4100674119
   0.6515080939   18.2545028972   12.6590895926
   1.3780469168    2.1115883634   10.0855915044
   9.0310996194   11.0250005303    2.0231930746
   2.4761047072   10.2120116255    8.2872610434
   5.5961935472   10.3007647071    6.4054027333
  13.6152555319    1.4268132719   14.6228786022
  -0.8128692618    8.9158634612   18.4682022008
  16.6444675989    4.7707573985    0.6644319016
  -1.4729107499   13.2391777304   15.5564126068
  -0.3719136937   10.9660125080   19.3667225501
   9.6370497315   16.7969027793    3.7311818466
   8.2426884291    6.8679005586   13.6455811026
   7.0054790407    1.9526299311   17.0535661706
   8.1326031249    6.1278066966   18.9398680793
   9.0959984753    4.5882520224   12.5853919621
   7.9595768332    1.8786740449   18.9998354593
   8.6217461894    3.1772317747    0.8543087976
   5.8743988207    2.7029971100   18.8522836011
   6.2040435319    5.3437613109   19.3915559685
   8.0640247284    3.0295396677   13.8354677227
  12.0273033711    4.4036009794   12.9333720159
   9.7045611193    2.5040880037   12.4400749841
  12.2191059687    4.7302326869   15.0482027138
   4.3388049117    7.1463355158   15.9176673386
   5.6870887660    5.4436804356   15.5975406110
  10.6524974572    5.9405376527   13.8601100724
   5.7070454160    6.9843974879   14.1213977695
   2.8491734973    4.5054696710   13.4122024508
   7.8581879057   19.6898465843   17.9755851680
   2.7411406381    6.6865833516   13.5570501631
  10.7091369324    7.9032267967   10.0368774729
   1.2646267648    5.6346558363    9.7288565805
   6.7633323589    9.3040414695   14.6451286401
   7.9816008460    9.3968155313   16.5180947097
   1.1756972276    5.3173501093   14.4705791821
   9.4895400965    8.0722229327    8.1746382059
   9.4452668848   18.7096619278    0.4955045339
  13.5874420696    3.3160573274   17.6887995616
  10.0292317957   19.9932355209   18.1368094435
   3.0792007268    5.0663616126   10.7772159081
   9.1120489242    6.4353637988    9.5140077431
   6.3528282393    9.2059185862   10.9863212051
  14.0765923603    1.8369882959    0.3259787921
  12.3931561207    4.9087961870   18.7130207416
   5.8042850148    9.7935196144   16.5833210511
   2.6658326129    7.2095830274   10.5480613054
   6.5422060495    7.5560461565    9.4988128005
  15.0295966795    9.1051559674   15.7176563908
   7.2233964097    9.5391426652    8.9171282062
  13.7785955188    2.6910510615   11.1074152742
  13.4731644016    8.5431640894   14.2035260817
  14.5221798106    5.0932883429    8.8322163050
  15.4071629513    2.9774736374    9.7495531634
  14.6471258256    6.8746693951   10.0573507360
  14.5913327356    6.9820539140   15.1939564078
  -1.4308254179    9.4333364432   11.5258670672
  15.7756887982    2.8465816768   11.9687756080
  -1.3632325388   10.6000061277   13.4079082702
  12.8812931773    5.5074780722   10.1780646984
  14.3975509901    9.9934800071   12.3722861099
   0.8899071367    1.5309100355   18.4301850003
  12.1045571762   13.0955336503   16.3439176667
   1.8811528181    2.1027312465    4.7493271897
   5.2758984260    6.5662587559    2.0881012003
   5.7144165234   16.8882619840    8.4490666844
   9.8697855928   11.9319247635    7.7697796322
   5.5712424755    6.6534577791    0.3290129195
   5.0739278637    2.6689116962   15.4367891392
  16.2622731689    4.3001675947    5.3475919099
   0.1255360983    2.4908810034    1.8387504115
   0.9430287274   17.7913887869   18.0726538267
  -0.1624547245    1.4839512024    0.4083200386
   6.2358357309   14.1701008730    7.6156806787
  -0.1015423081    3.9967360073   18.3890874244
   0.6995475382    0.8969645198    2.0129256249
  12.3100166448   11.4210205373   12.2876920593
  -0.6667289199   19.6107369817   17.1317013000
   6.7292744612   13.7425136030    5.9539757293
  12.6357670275   15.2461314858   14.9280036579
   5.7103782455   10.5205447031    0.9948373489
  13.4734353157   12.7387347975   12.2344550510
   2.6780396235    5.3146169511   19.0242182225
   2.0986884759    7.0502942667   18.7415368981
  11.0615891517    9.8845991626   17.8410354413
  12.0983762555   10.7312431975    6.8203998335
   0.9289272111    2.1132262222    6.2094008526
  16.8677641974    3.3919152635    6.5711401184
  10.3908009101   14.0585014102    6.7980313562
   4.7597560110    3.3870388724   17.0735311241
   4.8545211537   19.7801857937    9.1743391740
  10.9674233521   15.0506299884   15.7036877296
  12.3816618653   10.9518074924   14.2809161929
   1.3832175557   16.1481228561   18.3098065892
   2.5771952009   17.3495203141   17.7069946538
  11.2920778815   16.2959342249   14.2754032242
   7.0635903217   17.7436450842    9.0616408294
   0.3214151830    3.1859456866   16.8751994814
   2.7750394102   16.7172494627    2.1661605338
   0.7171331590    8.2891747127    6.4739319431
  13.1004099709   11.7916042516   16.8973405936
   2.0082147637    3.4917149085    5.8831093846
   6.3327583538   16.2343214178    9.9413763949
   8.7473881267   11.3925188542    6.5423778170
   3.8393889404   10.4821002103    0.8632100746
   6.8491278764   12.6088896382    7.3099443256
   4.1537591171   11.1414948350   19.1184574466
   3.8075811669    6.4773036161   18.4410282394
  11.8831563545   13.1383121581   11.8784746895
   2.5133558914    1.8612619364   19.2164182330
   3.4758581596    3.5037190840   15.8003116326
   0.9427378260    4.9033157245   17.1753234030
   1.9108928279    1.8940416610   16.0887629119
  16.6402300916    1.6651966046    3.8754504347
  15.5834662670    2.7398023619    2.6970281011
  12.3963674734    9.7844545971   16.6226784103
   3.1954067760    7.6297632516    1.9032279779
   3.3356362011    7.9641012568    0.1655059476
   2.0295078718    7.3169932168    7.3963519801
   0.7258054969    4.8941001322    7.3918667778
   1.5572971799   17.2020928774    1.0213905062
  12.3574480039   11.6435711951    5.2252340491
   4.1715483153   19.8559380583   11.5595742498
  12.1367337308   12.5600508133    6.7001742095
  10.8290132297    9.3497247986   16.0913155423
   9.0798381893   13.9751311906    5.4468457695
  13.7457043578   11.6766347554   14.6292160585
   3.8592903272   18.2412980031    8.9763718358
   7.2366533856   14.8286512501    3.3321945631
  -0.9284016650    5.3730493542    7.3572764530
   0.3231277673    7.1523780426    7.8668024507
   5.4370586661   14.4201237904    1.2929767628
   6.2561412918    2.8862810257   10.9205664215
   0.8877571640   14.6760059586    0.6752930467
  12.9674840880   17.9197529307   17.4660462682
  13.9611176539   16.6488307529   16.6584793248
   4.4333547245   15.3001730709   18.6967419229
  13.9305774689   15.5567980112   12.6105276333
   8.4576624260   13.5245805926    3.1463466771
   4.5846443212    2.8852194727   10.2406534330
   2.8524941153   18.5859955535   11.1209608594
   5.4241152551   12.5004505115   16.8384823391
  15.0154641599   14.1544488583   12.0891807382
  14.0797628766    0.5569879588    2.6811925381
  13.9921638190    1.8964987909    3.9055252438
   4.6384263296   16.8708576284    4.3399058233
   6.0819517533    1.0613192352    7.3288179292
   4.2638504112   19.0653318124    1.6546444385
   0.6299928375   15.4844043562    2.3265000681
   6.1918367095    1.9492344009    3.8227843068
   2.8660065928    1.8064217403    2.2813849709
  -2.1090328337   17.5869658946   11.2460471331
   1.1693265630   12.4318463073    2.2128621331
   2.1807588054   12.8001485430    0.6733440408
   6.6523216696   13.0899281354    3.6136287993
  12.3973001978   14.8491861930   17.7066142803
   4.8297317302    2.2389183528   11.9035271596
  13.3365331426   15.7096509209   18.8603774664
   6.3214380448   14.2183847589   16.7488226043
  11.8831081674   14.1423470866    8.3473905981
  13.0584253769   16.6171944748   10.6212887130
   5.4209479067   12.7305690634    1.4623570673
   2.8459446068   15.6562189491   10.9849277629
   5.7519988084   18.2721189063    4.6287980442
   4.3681238336   15.0555083203   11.9661164384
  13.1499270684   15.0339702315    9.1061434920
   4.1247802042    3.0564063093    1.5590414515
  -2.1095181687   15.7723176481   12.7979217964
   6.1746746840   15.5251339299   18.6183230078
   2.9037635016   12.2490508482    2.2057983889
   7.7937079014    1.1699977297    7.1138687415
   6.7936605063    0.5399721036    5.7039886421
   4.4372739092   14.0189278922   16.6818390767
   7.3904502927    4.3185362926   17.0826886623
  11.7055961719   19.7338592260   11.5954030132
   3.1655810247   14.8847088290   14.9128966311
   4.6122834339   15.1975504356   13.9990192717
   9.7246021491   14.2800446241    9.3730341963
   3.9827752804   16.8484153408   11.7427124291
   5.4871429001   17.4783997696    2.9858210876
   8.2866006021    0.9125701439    2.7253382183
  -2.1325414275   17.2969724751    9.5637925985
  13.9342996446   18.8968396899    4.5100191237
   6.6487919577    2.3728922043    1.9920880800
  12.9143984897   17.9252851953    3.4200043628
  12.8700219349   17.6332076409    5.2560230830
   3.9444447332    2.8995893177    3.2052409550
  11.7814247588   15.9776815732    8.2145142508
  13.4834792469   18.0224837748    9.4526680534
   9.8203048810   14.8103331467   12.3744682176
  -0.0935937659   18.8913462682    9.5295075908
   1.7747022081   11.9188359307   10.6982674267
  11.8739170189   13.8924492834    2.2907699854
  11.0698836568   13.0144441665    3.5045549712
  11.1492216372   18.1694484740   11.0680021886
  12.8667137033   16.4938912932    0.2490594841
  11.0654146806   16.2727524346    0.4373409664
   2.0509072842   13.3489580275   11.8169662170
  11.7563172194   18.3206080366   12.7643943087
   0.3828137949   12.9792520527   11.2692515159
  12.8374876494   12.7575857569    3.1519590400
   4.5598751215    2.6709401365    5.8696673881
   9.4682279320   15.8160442967    9.8875061739
  -1.9864753167   13.8742856853    7.8003445203
   9.0062770629   11.5935220972   10.1702166124
   5.1082944030    3.1017731226    7.5434290950
  12.2176777468   15.0941405086    1.1847241299
   5.8464412047    4.8424006178    5.1171339517
   6.0534420998    5.2374676022    6.7965789646
  14.4578439653   11.9239713435    7.8615305976
   5.2760622501   19.6654830667   14.7078073941
   0.0175530257   19.2898829459    7.7709129784
   1.2210973503   18.1663709861    8.4935785841
   8.3034589018   14.9161410140   11.4004456867
   3.9426362396   16.7115620945   16.1159078472
   2.5099933109   17.1273558132   15.2908056534
  -0.4493623626   13.1120049817    8.4224479249
  -0.8226662731   11.2626154711    7.7734296926
  10.6962709991    2.4583001506   14.5858031102
  13.9422195823   15.6187106051    3.6678551204
   4.6323230135   18.9976971749   16.2032966618
   8.1655962051   13.1872238707   10.0850308409
  15.0320603179   10.9857900646    5.5188633512
   3.3999623120   19.7405676843   15.0088773569
  -0.9433165364   18.7749588137    6.0076281836
  -2.4983506166   18.0253623756    6.2873096604
   7.5806827593   12.0810878943   11.3224758495
   2.7498910143   12.5820688229    8.8609766312
  -1.2500693765   14.4752686633    9.2802280449
  13.2299621643   15.8975058624    5.1622643052
   3.7929686428   13.7438071220    9.6409913662
   0.3762888262   16.5501667506    6.4850304914
  10.6003913403    3.0941991679   18.9796946265
  14.3205749845   11.0944434404    9.3678862247
  -1.2665965234   15.9023782317    6.8738678886
  15.6358846447    9.4303198586    5.0268339065
   4.1936114879    6.3571809322    4.4700442337
   7.1239421510    8.4555661747    3.7516159540
   3.7458655940    7.2115127616    5.8757475834
  -1.4203205091    9.8525751478    8.9099758774
  13.9222976056   13.2044065788    5.5735193331
   0.3113270769    7.0997648295    4.3509422506
  -0.9083605979   10.6545394976    5.6545743008
  -0.8582442400   17.6878740105    2.6670701881
   0.3784827186   17.5476981306    4.0268156522
   1.7746626783   15.1093976828    8.0083985713
   0.5716211026    7.0538932749    2.6605156450
  15.3373795461   14.3513863396    5.3239451924
   3.5461021883   15.2601879375    7.7734616627
  11.4666908919    6.6470280021    3.5370100120
   6.6525941349    7.3385512045   17.2549156465
   2.5488725253    5.9793778558    5.2606283465
   1.0326781237    8.5434723924    3.4272656348
   6.7555137822    6.7257896266    3.4338619580
   8.0785757484   16.8455409362   17.2301813971
  11.1363473191    4.9035351918    3.2173578667
   7.3301539742    7.1868270485    5.0711627117
   0.8806902277    4.7217042864   12.0493715292
   8.1156258243   18.3990066759   11.1171313261
  11.2637337637   10.0664196520    4.1176416528
   8.3135314517   15.6284892970   15.9326212108
  13.5541472666    6.7050142465    7.0347022242
  11.3229452196    8.3881451170    3.4467352275
   9.2156677772   17.0788908522   11.2764792878
  -0.4988295118   18.8930743262    3.9238064919
  12.1457187924   10.5541565056    1.4307568377
  12.7015572054    6.6996625535    1.6451521905
   8.7749900522    5.1535668980    3.2093459356
  -1.2248356389   12.7791082545    5.1135306158
  12.2915960977    8.7754849355    1.3375870714
  12.2608735597    5.2809233988    0.7735441950
   9.6607546563   16.0761649689   17.1744054333
   9.3042342731    5.7936105326    4.8059558878
   7.6725085356   16.8661465926   11.8805195726
   1.9394958255   14.9065950564    5.1369661411
  -0.8798514631   14.1327819211    4.2291851638
   9.0264742086    9.4639968729   10.6013150513
  14.7386058207    7.7873272290    6.2882021352
  -0.7709171338   12.4578534735    3.3816018951
  14.8788804753    7.4567836853    3.5782052767
   3.7810103195   14.9492063549    5.4562499586
  14.7447981593    6.2051275624    5.6857379873
   7.1292693388   19.1094630952   13.4089775848
  16.0441335380    6.6366993081    4.3892167082
  11.7429433258    8.3514130203    5.8227377664
  13.7446797424    9.6526731216    1.1739968364
   2.9764920640   13.5056001024    4.8257680678
  13.2069286503    9.3773394603    5.6361074488
  11.7717222467    6.9483308203    0.1125559351
   9.0867530385   13.2774916932   17.0587525977
  -0.9511431696    8.3340178924   13.9874423469
   9.2092594083   11.7653988423   18.8995114350
   7.3464567912   17.6370430935   14.3333686291
   9.9276682907   14.1288874499   18.4832769507
  14.9708041829    5.4353138089    2.6378985306
   9.3397967221   18.8274434492   15.7307665330
  15.2469559437    6.5296243606    1.2455410720
   7.5012404231   12.5756304882   19.0526567876
   1.8653189564    9.8054006486   16.4706190816
   0.7442131364   14.5710055825   15.5290454927
   9.9833774287   17.8664801469    6.1220021747
  10.1405244663    1.7174959024    6.8689381426
   5.0270592217   10.9740925340    8.3236783991
   3.8643304055   11.3238526849    4.5717890524
  11.4835702370    1.3729889904    8.1330890979
  16.0005419146    9.5984276633    0.3596485639
  -2.1139544062   11.2513976258   18.2134875626
  14.5089354653    5.1862838754   12.2177049639
  15.7361618278   13.1427218903    0.5636609773
  14.6690773433   11.7914759808    0.0666324842
   0.1070326268    1.0929920840   11.9870435578
   2.6309472106    1.5481775522   13.7280558282
   0.1054802480   17.4545545286   13.1834858808
   0.7213272199    1.2818363683    9.8796149436
   7.8928750086   19.8470899525   15.5127021833
   4.1933347926   11.8199489853    7.0164208343
  -2.4351096667   13.5999919372   15.0961046386
   9.7898090889   17.8984129208    3.7528473721
   2.9042437460   10.3576669846    9.2853879383
   2.5287483317    9.5373511455   14.8840544867
   8.0136514691   18.7182012763    5.0766006295
  -0.2371120087    7.1986964780    0.0000647890
   1.5079613945   13.7091759561   14.1021355983
   9.0615286971   11.7180395235    2.8718416341
   1.9212670959   11.1285910974    7.9673507723
  11.3280239124   19.6806060959   14.3494649433
   4.9807587896   11.5786135287    3.3573483515
   2.3454399943   12.9107699137   16.3200296916
   1.5444967749   18.4318964328   13.3363985928
   2.4851161426    1.8862480057    9.7953173886
   8.8716614882   16.5513589002    6.9009264041
  -1.5284842793   12.2308885647   15.9463417322
  15.7306594191    3.9841447848    0.8137435783
   3.3188583640   10.6749544400   16.1086355454
  15.2774775362   11.9818905650    1.8982228050
  11.9050320733    1.4011980830    6.6046593460
   4.8796944824    9.8321826444    3.8766932475
   9.7611460616   10.2127031120    2.2980812830
  15.6381937659    6.8624145243   19.2463796736
   6.5050203485   10.2856460118    7.0667583983
  13.8096888344    2.3768264895   14.0896417845
  -0.3044503087    7.9670262759   18.1532088967
  10.6146544448   16.3076891009    3.6944359303
  -1.6940930870    8.9875397108   17.8553573023
  -1.2138743661   19.2144838693   13.9249525136
   0.4193773225    2.2347067602   13.3054807434
   1.0527331026   17.8239080532   11.7231641166
   1.1027947280    3.0956052189    9.5934831584
   0.5411169921    9.1011951018    0.8887395303
  -0.2584714250    4.1671001859    0.4926176541
   0.3312846732   11.8431367702   19.2458528681
   0.6459581559   12.4363342089   16.7756333549
  13.6302197809    1.6742546078   15.6396816364
   9.0451326298   16.4104027075    2.9056309333
   1.6872617429    9.4584562717    8.4031518500
   7.1554109410   17.4418945308    5.9618971523
   5.3916731658    9.2783018009    6.1121092945
   8.0400076129   10.6467117654    1.8515535045
  -0.9483986113   13.7496379356   16.4006127145
   4.8627961791    8.7692926064    1.4670374618
   8.3582366862   14.1772600758    7.2798397413
  12.2597052607   12.8702763849   13.7751410252
   3.7958160707    1.5032721192   16.6179773274
   1.7761466897    3.4268555286   18.2748073045
   0.4770672200    6.3365006795    6.0652380858
   3.9723996875    5.3367521169    1.0074450302
   0.2632430000    3.4944242778    4.7742997537
  10.5081192944   11.5154263525    5.7299841502
   5.4672302681   18.0917617294   10.2286293409
  16.3603396915    1.0870614014    1.9487402768
  11.0980976175   11.3209235180   16.4410636955
   3.0747212268   16.0579345918    0.1623960693
  12.0071056829   16.9610369522   16.0032144855
   5.5828797047    1.1514458578   10.2270778741
   2.3577217112   14.2579491927    2.1855576125
   7.3338066520   13.7168249463    1.6114962324
  11.8445455879   19.2834884738    4.6473331749
   5.4646252560   13.5719819953   18.5212147205
  -2.6219654238   15.6918603148   10.8180974498
   4.0080318374   18.7836700095    3.7665461288
   4.9145041504    1.1757938502    2.2722333387
  11.3658446798   16.0818724992   18.8255927163
   6.6578798133    2.6534805931    6.1399449776
  13.3054871112   18.5670519030   11.3898081815
  11.4918091072   15.0044184745   10.2010631028
   2.8194883635   15.5918529670   13.0518000331
   4.2214254242   17.9945528485   14.4195901324
   9.4200187710    3.9311050233   15.5214561642
   9.2055550919    3.8553996944   17.9125002583
  -0.7189598748   17.2370349731    8.1971389380
   9.4203107632   13.0657922169   11.6146842991
  12.1650219763   14.4996097367    4.2616357802
   1.6757649125   13.9325361214    9.8798635555
  15.5525209531   12.6263694228    9.5185204465
  15.7049826567    9.6822415739    7.0708956831
  11.2036706274    3.0482635276   17.0021674836
   4.0692892853    5.2044130032    6.1858722689
  -1.4580726265   17.2233304772    4.6322608205
   8.8586383388    7.2369150167    3.7132644012
   7.9429653131    6.9014619963   15.6690504941
  14.9984822688   13.1379491583    3.7788910712
   2.7234253738   13.7598363033    6.7858721467
   8.6210564579    7.7796706823   11.7036237047
  13.3102396513    7.3968110262    5.0317265936
  -1.0637925854    8.2442871016    3.2220382213
   0.1552639575    6.6602502968   12.4015738152
   8.0675535257   14.9170287052   17.9714800593
  10.5809700773    6.2013898451    1.6194046486
  13.0415261378    9.6996710503    3.0590730688
   8.9565527936   18.0373832247   13.0450547436
  16.3313070563    5.3095655269   11.2488262741
  15.5245847849    7.1674648414   12.6328635674
  16.8830481455    5.4870229662    1.8253872668
   1.5962250352   11.3655341661   15.1353325696
  12.2334966938    1.1638762155   14.3212655695
   5.8792763820   11.1373253052    5.2227291764
   7.7436525625   18.9924127265    7.1349747123
   9.5619256098   11.7864460267    0.9420291576
   0.0560607327   10.0357786038   18.4104677458
  -0.0221539615   19.4730748979   12.2326071067
   1.4248996332    2.5555648193   11.5066694632
  -1.1392196319   11.4974618549    0.2434070809
   9.0299294412   16.2770931025    4.9216775356
  -0.4622174633   13.1925653866   14.4777741852
   3.4810918424    9.8232501254    7.3895017946
