B2 C140 Ca1 F48 H298 O66 
1.0
1.7880951617339978e+01 1.0749446082455345e-15 -1.1619146481018096e-17 
-3.0338478682305730e+00 1.9265872561794747e+01 1.9160629840630139e-16 
-9.1120735232705141e-02 1.2763844783981086e+00 1.9379816668963951e+01 
B C Ca F H O 
2 140 1 48 298 66 
Cartesian
  10.6090435262    3.6373488142   16.6768986901
  -0.7858449718    6.3318506232   11.9746626460
   0.2989971294    1.6114735230    1.4968215987
   7.1901027467   13.7073874235    7.5041303967
   4.6866274336    6.5461024632    0.9450918187
  12.8651167675   12.5860360588   12.4421082080
   4.4934235946    2.8921657542   16.5222427428
   2.5313152165    1.7710066272   18.0465000323
   1.6740936558    2.5349863578    5.6128846898
   2.8587993263    1.2086026448   16.7142520321
  -0.1402705964    3.8834846104    5.9670106462
   3.2054066269    6.4688198448   19.0527962079
   2.4197891399   17.5333612593   18.1571399985
   1.0499581416    3.5689912451   17.1931251091
  12.2541957315   15.9028345802   14.8319298651
   5.4084746695    9.9723765907    0.8785545225
   6.0611361367   17.1311425403    9.4718453983
  12.2968065622   11.7674549854   16.0031753409
   9.7014344203   11.8745447143    6.8413039529
   9.5050042017   13.3540311274    6.5811375575
  13.0215090899   11.7493617518   14.6916948150
   4.0005420171    7.9577454738    0.8598467818
  12.2608242356    9.4580680207   16.7894442332
  12.0473814753   11.8057427450    6.4183728496
   0.1040281399    5.0018164137    6.9832398785
   0.7460390314    7.3434900296    6.8369830467
   4.8984632289   19.0226215272    9.6707577503
   2.1578312570   16.3445246064    1.1419885702
  15.9788631013    1.7391018535    2.7568759206
   4.0283556728   19.9501882282   10.5463498146
   1.3432474664   15.0898696554    1.5131973763
  13.3948433542   16.8014506892   16.7617187996
   5.4429527553    2.4409331036   10.5575817265
   7.1646496451   13.9855136063    2.9313872063
  14.7988644916    0.8054647819    3.1681506041
   5.9155862551   13.7749141276    1.0549702213
   5.7588992357   14.9257417965   18.8352879877
  15.0508443891   15.2110557777   12.0524339456
   1.8941744046   12.9110867961    1.9497969581
  13.0812858450   15.7742776388   17.7927220936
   6.1398238257   13.2374092510   17.2079237320
   4.9711352651   17.7943538129    3.7775135534
   7.2176296759    0.3987034818    2.5369625816
   6.4348298722    1.6136470532    2.5565583763
   4.3975839549    2.5774453871    2.1220970711
  15.0684135794   16.9252510054   10.3461046044
   6.9376903089    1.4367898270    6.8384742279
  12.4680924062   15.0693632853    8.7449919780
  13.7214799022   17.6039287148   10.2396523675
   3.7247749492   16.1821050003   11.9179583036
  13.1110627960   18.3624867964    4.4149612576
   7.9689551482    2.4822777450   18.1901498801
   8.2361323063    5.0608427406   19.1106141364
   8.5476585037    3.9862943660   17.9302886937
   3.9847482732   15.3353535856   14.1802206672
  12.1087375394   18.8235951059   11.5765963738
  10.2967738776   14.9781866998    9.8348149490
   9.8186330300    3.4200900908   13.1536128123
  12.1238696341   15.8390022036    0.0104489447
  11.9304346383   13.3592676190    3.3533492125
   9.7635555306   14.6525737933   11.1848053489
   5.5058597510    2.9733374226    6.2057022258
   1.5725299784   12.7924854198   11.0824658869
   3.9896646819   16.6461890446   15.0143100129
   0.2757174256   18.4868645888    8.5867733805
  10.8186684759    3.8254149853   14.2510718669
  11.8515045819    4.8385052211   13.8630757960
   5.4013568969    4.3809045453    5.7686993072
   4.6812023817   18.8340979609   15.0134967397
   8.7323286955   12.5242900594   10.7385149795
  -1.7110611461   13.4004424791    8.6916316823
  15.3685473612   11.2220852838    8.8961052236
  -0.5216704835   16.9677700543    6.9745417538
  -1.3704590321   10.4923568162    8.1110329439
   6.1474483106    6.6055916911   15.4938477578
  13.3759598416   14.8335447825    4.4238498956
  -1.5993470856   17.6694521181    5.9259638874
   2.9841159634   13.6200572303    9.3902048103
  16.0939556805   10.1633699769    5.7410202330
   3.9833579617    6.0943206275    5.2833289562
  12.0795810874    2.6264504178   18.2224006507
   2.3274319553    5.5696625432   13.3156725400
   9.2287533658   20.3696740103   18.5377941483
  14.5103486052   14.0814483828    4.9972545180
   7.4026193104    7.4329592860   16.2031243766
   2.9117684521   14.4202812608    8.0638439701
   7.5447399062    7.4056660287    4.1420983570
  -0.5587912105   17.7543107556    3.6874350791
   7.2774497781    8.9935612226   16.1197155873
   9.8331215839    7.5368662167    9.4699988859
   0.6658839277    7.6485065777    2.8780497223
  13.3666363279    3.4152924876   18.5768577356
   2.3412789446    6.1580638994   10.8544408727
   1.5117940427    5.6297018470   11.9394799658
  10.8534740217    5.9299083182    3.1041508861
   9.4946986427    5.9809407555    3.6030663105
   9.2106284794   15.6072241793   16.7542244583
   8.7966639398    8.3131305511   10.3780644117
  12.2069059778    9.4315961298    3.7014129950
   8.5782438390   17.8456425832   11.8682759091
  -1.3872507932   13.1534245820    3.9490096313
  13.8230029876    7.0457016940    5.9772373066
   7.3789556071    8.6573127134    9.8888008681
  12.3681215168    9.9683158033    1.5192856080
  12.1643351984    6.2803017942    1.1415893429
   2.9540716593   14.4377380119    5.7485043891
  12.7112595579    8.8761853993    4.9835157330
  16.0560723450    7.1561549774    3.0637647464
   8.1366589317   18.6154939711   14.0592112489
   9.7778966173   13.6893306300   17.9932991067
  15.1361290441    8.0808287599   14.4245255261
  16.1939397236    8.1061300099   13.3145037339
  15.6423780553    6.1880624992    1.9224254399
  15.2535580341    3.3579803122   10.9717724239
   9.3034961340   12.7249047330   19.0596509483
  15.4101219147    4.8799185061   11.0839312751
   8.9878069691   19.4188713935   15.1166153609
  14.6570044523    5.7149826122    9.9552363785
  16.1507070432    9.4401660321   12.5517027189
  11.5413506280    1.0313436761    7.1046464846
   2.6035336583   10.1155801752   15.6010229958
  -1.4686832930   11.5114067068   19.3207584952
   1.3694515349   13.5804129065   14.9395625481
  15.2625412255   12.0375207633    0.7502592685
   4.7207911806   10.8202508089    7.2223110655
   4.5442936045   11.0993239098    4.2876161896
   9.5846491785   17.6155039429    6.0437562853
   8.1048964097   18.2304838600    6.1714558007
   1.9053264454   12.3310125107   15.7046978050
  -0.6419003670   19.9827488671   13.0321701570
   1.0837787540    1.2950740672   12.4440531599
   1.0915864149   18.3594867126   12.5812414713
   2.1179134503    2.2699238581   10.5962343481
   8.8845348303   11.1803182430    2.0055977136
   2.6957549457    9.9614551834    8.3752842698
   5.6993767754   10.3433630741    6.1325346405
  13.9652203497    1.4737628576   14.6426921008
  -0.3952404618    8.7786642720   18.7390522793
  16.5223669976    4.6354577398    0.5012006923
  -0.9816942352   13.2209546750   15.4263024942
  -0.0556980002   11.1311630798   18.9752760281
   9.8951536573   16.7258202962    3.9558349850
   8.8178276411    6.9061938097   13.5031857103
   7.9478037184    2.0178523226   16.8658745402
   8.8944901284    6.1075126086   18.6796610167
   9.1606815562    4.4777054147   12.4721404168
   8.7652855329    1.6242067431   18.9202033154
   8.8439694566    3.3608278002    0.9023749232
   6.7113487527    2.4072225375   18.5913138365
   6.8793156847    5.2815432914   19.2251532472
   8.7023172088    2.7255405514   13.6697817305
  12.4448001898    4.4723174828   12.7636256874
  10.3684284409    2.6404788323   12.2631823243
  12.7492201926    4.9963046635   14.8308800720
   4.8139791076    6.9527277983   15.7280773256
   6.3059187017    5.3558017996   15.8188115586
  11.3292570737    6.0962527661   13.6817744795
   6.2259843932    6.6513778913   14.0709354867
   3.1197284326    4.4592177680   13.2525191604
   8.1420094679   19.7429547999   17.9098982545
   3.1925311379    6.5685037379   13.5885218352
  11.0897125168    7.7785543402    9.9664797344
   1.5965848909    5.6344449722    9.7762958470
   7.0951538336    9.3777164002   14.7720660460
   8.5361306649    9.5162120555   16.5053409437
   1.3929954459    5.3312450195   14.3452540414
   9.7699551676    8.0798373062    8.2262468735
   9.1285713522   18.7979289621    0.4676234802
  14.5332997276    3.3171542561   17.8372637618
  10.3245087668   19.7585515104   18.0892223612
   3.5593895792    5.5382911192   10.7412603584
   9.7335685118    6.1520583080    9.3662337588
   6.5584942648    8.9392485065   11.1020593923
  13.8534561578    1.6330049423    0.3953857418
  13.0253342152    4.7456891298   18.5403255192
   6.3790462748    9.5485239613   16.8415978610
   2.3603151411    7.5501750861   10.8690245096
   6.7299594569    7.6475147610    9.2489681175
  15.1853739311    9.2016485317   15.1694466300
   7.3179846683    9.7757615521    9.1728965814
  14.0034627195    2.9198465327   11.1999968061
  13.8281149749    7.8442491913   14.0009460954
  14.7701867157    5.2210273617    8.6636229037
  15.6694193733    2.9498199171    9.7097249430
  15.3879271920    6.8650795600    9.8097769676
  15.3375359008    6.9937314331   15.1924012374
  -0.8667565111    9.3700341974   11.5504366180
  16.1401440020    2.7725655164   11.8550436815
  -1.1516577909   10.4035081464   13.3023482767
  13.3578210034    5.7931399464   10.2139869444
  14.9249430407    9.7067148673   12.1050642624
   1.6213418949    1.2720964917   18.5447910714
  11.5357341410   12.5589063989   16.0704378833
   2.2737332251    2.0917039172    4.7356136431
   5.0727574885    6.3606357967    1.9939008481
   5.1576006192   16.7471379818    8.9404478968
   9.8038622484   11.5577127072    7.9064205164
   5.6070664821    6.4159524862    0.2567778377
   5.4618800017    3.0669622734   16.1638202316
  16.8078712811    4.2178972414    5.3671544429
   0.1648695838    2.6388135548    1.8473988915
   1.5483675994   18.0516729415   17.9776489873
   0.4517797290    1.5728187191    0.4768224529
   6.6299940882   14.0133687519    8.3923739623
   0.4510697084    4.4765419623   17.4294560488
   0.9751631583    1.0970280503    2.2344351650
  12.2351002692   11.8114125201   11.9380642545
  -0.2071216478   19.3724377419   16.9235639697
   6.9095612087   14.2620903438    6.5477218916
  13.0156295619   15.7424741768   14.0406715941
   6.2892650514   10.4058270668    1.4088033084
  13.9584353734   12.4094247431   12.3082534198
   2.4370729265    5.7136978259   19.1615933079
   2.9254011015    7.3701584856   18.3874021851
  11.8286549200    9.0652168837   17.7373739013
  12.2755800778   11.6066659600    7.5183164665
   0.9901853329    1.7003609715    5.8751261254
  17.2887249042    2.9902800910    6.3265220324
  10.4205689691   13.8976981442    6.7248263074
   4.3802833029    3.3055846316   17.5324076006
   5.7961429436   19.5269349407    9.1611693923
  12.2278000629   14.9918818938   15.4005178475
  13.1270366281   10.7625038249   14.2564289082
   2.1401950858   16.4838980096   18.0011283406
   3.2055356238   17.9360895072   17.5134811986
  11.2134994909   15.9760120585   14.2750381777
   6.6033591153   17.5059931215    8.6403780804
   0.2810429821    2.7754722913   17.1667291168
   2.7216312256   16.6351049744    1.9810102652
   1.0515259174    7.7922488051    5.8726692707
  12.9766048856   11.9185829253   16.8640232753
   2.3737959431    2.6953868464    6.5136834347
   6.4710051740   16.1652720341    9.9448515998
   8.7284932248   11.2650136642    6.5382582411
   4.6912925050   10.7457529906    0.4697263824
   6.9379279301   12.7041396312    7.3881170815
   5.6976161725   10.7343894687   19.3343840116
   3.9778860631    5.9605331419   18.6061336740
  12.6841547482   13.5092621984   11.8911691380
   3.4893372151    1.6228187648   18.7793256815
   3.7873484984    3.4246343984   15.7594597112
   1.5195302367    3.6981842911   16.3280481406
   2.0835595175    1.3984039976   15.8863425541
  16.7315908058    1.9768287157    3.5125964436
  15.4115680149    2.5702382165    2.2382264776
  13.2604980092    9.7027630463   17.1434325039
   3.0297349795    7.8938389717    1.3945638036
   3.7314512770    9.6807737507   19.2604708825
   1.4853244778    6.9677435300    7.5844490742
   0.9500897930    4.9311247546    7.6623305669
   1.3953647133   17.0959987848    1.0921674109
  12.6917126942   11.1784265930    5.7160660519
   7.6819672037    1.4736734361   10.9368471957
  12.3169067626   12.8926756778    6.1070092966
  12.3623224355    8.7444758867   15.9804888626
   9.0892341485   13.5599398637    5.5664501881
  14.1281322815   11.8129435056   14.8141141736
   4.3038280138   18.7290669228    8.7670863779
   6.4921273942   14.9013425379    3.1233221883
  17.1004867905    4.9163309772    7.6228084506
  -0.0007289143    8.0331170085    7.3276043254
   5.4224435315   14.7284229653    1.3833970923
   6.3459365928    3.0179126847   10.8680946813
   0.9077210365   14.7388649304    0.5743415641
  13.5989514286   17.7403996471   17.3164855555
  14.3316413877   16.6014721091   16.1961673360
   4.7720705131   15.1737539059   18.4528582436
  14.0171494960   15.2700281328   12.3662505385
   8.1275346065   14.3690355502    3.2647646070
   4.7680592152    3.0960740299   10.0025645955
   3.6639434153   19.3634820599   11.4365016804
   5.7839256830   12.2281077659   17.0917713233
  15.4101335448   14.1623374796   12.2949867379
  14.5063391258    0.2878809274    2.2803940471
  13.9085439824    1.3132017510    3.5469088560
   4.7068816247   17.4416057945    4.8052990166
   6.3713005191    1.3832661109    7.7290795635
   4.0026146912   18.9400000049    1.6139685548
   0.6718001798   15.5325072952    2.2042693262
   6.6779231771    2.0667601261    3.4928453834
   3.3613045202    2.3343799066    2.1187919415
  -2.2806179776   17.5904454635   11.0171520630
   0.8339944131   12.6847317590    2.2304184341
   1.9370698177   12.5404712182    0.8538331465
   6.8071037803   13.1383133173    3.4719208931
  13.0677091613   14.7945279729   17.3133844913
   4.9303149815    1.9537111442   11.3434937338
  13.8331125946   15.6919797279   18.5536412109
   7.1163711361   13.4309386189   16.7916924788
  12.2224389021   14.1371176066    8.1408825648
  13.0455886059   16.8000425929   10.3288552978
   5.2436410696   12.9854833176    1.4042568004
   2.9013175403   16.1533972150   11.2008033342
   6.0440419214   18.1455351047    3.6769997426
   4.7033042748   15.7733129127   11.5704292472
  13.5583553140   15.0837961791    9.1073659449
   4.7294450655    2.9591895963    1.1235768005
  -2.2253614789   15.9511392578   12.5980088562
   6.5359664764   15.4700711491   18.2743123216
   2.6124320763   12.2833527187    2.5813827722
   7.9560819499    1.1653041868    6.9828574641
   6.4443956445    0.7477975706    6.1854504612
   5.4247389097   13.9083657566   16.6223121871
   7.9481748715    4.2929353400   17.0628794546
  11.9622817051   19.9117385321   11.5058043628
   3.7464846103   14.4401274193   14.6935711017
   5.0152850155   15.2020702446   13.8630154960
  10.0395786524   14.3668438126    8.9979464146
   3.8992039508   17.2683777145   12.1369242953
   4.6953132427   16.9403831072    3.1136085676
   8.3519050230    0.8126946078    2.4312676681
  -2.2034142626   17.0324715966    9.4954971544
  14.0614115276   18.7201635800    4.0030890516
   6.7178239780    2.2420777730    1.7065095922
  12.7790695687   17.4574385404    3.8489321410
  13.2571496769   18.1365585677    5.4492415976
   4.5939441408    3.4030140160    2.8982496863
  12.2293777889   15.9406420830    8.0174120432
  13.6802247229   18.2768094919    9.2908866465
  10.3096500469   15.3960854581   11.9033562815
   0.2892868711   18.3108137225    9.6257543507
   2.0118203641   11.8082711636   10.8107675340
  12.5872266851   13.5453228066    2.5334719291
  10.9420644519   13.2694619240    2.8171189107
  11.5880513939   18.3541066670   10.7694637994
  12.1587697039   18.0277731919   18.7277394351
  11.2320647937   15.8464188188    0.6726263202
   1.9523208011   13.1197115500   12.0239786738
  11.8455209719   18.3736397436   12.5817959415
   0.4832753111   12.7501541102   11.0408269906
  12.2553890762   12.3949309959    3.7458212360
   4.9784001442    2.2880142582    5.3888009665
   9.6363480348   15.8532720244    9.4841453052
  15.3751482800   13.6156034868    7.9229935358
   9.2637321412   11.6409932655   10.3986785971
   4.9342924703    2.7839100191    7.1865407082
  13.1804942810   15.8169618845    0.5296327760
   5.8744993350    4.3187960272    4.7820670097
   6.0298220459    5.0711835106    6.3508587064
  14.6709449780   11.4809792622    8.0768982410
   5.5236464717   19.4615827237   14.5498544420
  -0.0622782671   19.4976541357    8.4949205512
   1.3119656828   18.4070445005    8.1621280361
   8.8475017678   15.1443169584   11.2622492554
   4.2091935977   16.4053125184   16.1703017509
   3.0518277733   17.1318908544   15.0511505256
  -0.7182069062   13.1471559078    8.2369173600
  -0.7678236589   11.2678692753    7.5974589142
  11.4548544357    2.8481104588   14.3580158994
  13.7008026482   15.4597098284    3.6177618651
   4.9125675127   18.8232169815   16.1317270136
   8.4914415126   13.1275333153    9.7859709197
  15.6119493346   11.1533083953    5.6297298293
   3.6415939848   19.2605902153   14.8447642646
  -1.3094661234   18.7025971702    6.0450459724
  -2.5835202057   17.6128530023    6.3773869877
   7.8937787177   12.1113569558   11.2058836454
   3.2279586894   12.5415640621    9.2379849587
  -1.5884539639   14.3069453381    9.3134240083
  13.2260869598   15.5840740262    5.1650636712
   3.7285740302   13.9962687162   10.0768053578
   0.5155862084   16.8080878185    6.7629725321
  11.2919550584    2.9991276347   18.8857449761
  14.8528874865   10.5978358383    9.6212462390
  -0.7439202066   15.8325315771    7.0422221902
  15.5338770027    9.4204067477    5.1013189760
   4.6915661428    6.4110326966    4.5480100631
   7.2115541420    8.4823752514    4.2743929890
   4.3200203906    6.7339734672    6.1063297026
  -0.7840523551    9.8155401934    8.7856693322
  14.0469198498   13.5189464229    5.7544522879
   0.9091593019    7.0847001527    3.6473250496
  -0.6815828592   10.2461035715    5.3495380285
  -0.5512783531   17.0520221415    2.9478466374
   0.3997826859   17.7913708319    4.2222588911
   1.9265051999   14.8941057124    8.0799975887
   1.1168025325    7.0771025476    2.0243420821
  15.3053627761   14.7537192772    5.4933217010
   3.8303834506   14.9613886824    7.9227163878
  11.5578229354    6.4872685461    3.8153919854
   7.1335911521    7.1559353595   17.2849784526
   3.0078555951    6.1679954087    4.9526018672
   1.0694289321    8.6026259917    2.9499860775
   6.6747797226    6.8800626045    3.6160456466
   8.2811691921   16.1917646757   16.7053926015
  11.2206336729    4.8602178845    3.1239147790
   7.7013895606    6.9799794802    5.1086990006
   1.0894057230    4.6937538500   11.6323800393
   8.4652593821   18.9409783222   11.5568253573
  11.8531312819   10.4280032270    3.8302708937
   9.1917289524   15.0909234076   15.7326164924
  13.1052730216    6.9960690426    6.6785155228
  11.4370155060    8.7143987082    3.3069469448
   9.4306531142   17.4490584421   11.2504355196
  -0.7056153744   18.7882177258    3.3755017174
  11.5256544790   10.6503645129    1.7418033936
  13.0047033389    6.7746801930    1.6357660173
   8.8318259567    5.3184320951    3.0622603170
  -0.9052655843   12.9431733363    4.9338080967
  12.1058683462    9.0944027833    0.7806324451
  12.5831348342    5.2454862900    0.9855616215
  10.1472501666   16.1813527993   17.0173095375
   9.5257511390    5.7398403144    4.6297776006
   7.6685168129   17.2574899413   11.6061507318
   1.8831391744   14.5249578415    5.3677807853
  -0.8198663621   14.1182882421    3.6591524508
   9.1031911564    9.3956682185   10.2822616830
  14.6462214302    7.6613950441    6.2482660322
  -1.2319571104   12.4106921652    3.1430782729
  15.2253523332    7.7259701645    3.5211838543
   3.4020648811   15.4206346091    6.0102204447
  14.3872865073    6.1851077564    5.6750449829
   7.6494735290   19.4146975202   13.4059337015
  16.2795932886    6.5803567655    3.9921311514
  11.9596194614    9.0507985787    5.8535945455
  13.0836266281   10.4646696530    0.8646504851
   3.4835854297   14.0703060179    4.8333272031
  13.5537626933    9.4207809224    5.4527680773
  12.0729257858    6.6728358317    0.1067953406
   9.8700484330   13.0230547563   17.0893038313
  -0.6969434500    8.1830036654   13.7550433177
   9.7104803871   11.7132576875   18.6255309538
   7.2958654813   18.1057960100   14.6661719324
  10.7748497842   14.0493170963   18.4109461602
  14.7497410821    5.7177687299    2.3557961315
   9.8137736846   18.9532074842   15.6369237218
  15.4562824960    6.5851360194    0.8829988126
   8.2223476883   12.7176661262   19.0994708415
   2.2466381851    9.8987264317   16.6334731960
   1.3994477231   14.4512445534   15.6629553944
  10.1824585675   18.5168725485    5.6409191572
  10.8837801985    1.6132467787    6.4317074786
   5.2002189085   10.9164565640    8.2810483152
   3.6349059937   11.1790942296    4.8384441591
  11.6026518297    1.5780166511    7.9743673459
  16.1034297775    9.5503815145    0.7443223849
  15.7469927868   11.4462761120   18.4107709540
  14.8488481468    5.0701434167   11.9762455494
  15.2154120702   12.9289529497    1.4967165517
  14.4291210122   13.6155040326   19.2538315677
  -2.2948162992   19.7382668931   11.7037859313
   3.1318617225    1.3854598070   13.5796694715
   0.5782162829   17.6071520089   13.1363513440
   1.2407482462    1.8471079189    9.9151459374
   8.1823455698   19.7159707256   15.8666712782
   4.4098358325   11.8381089651    7.0108807407
  -1.8443347157   13.7897765369   14.9863072013
   9.5147917789   17.6225899402    3.5361542869
   3.1368475215   10.1894542137    9.4024117359
   2.6559447615    9.2062981775   15.0707933793
   7.8145034440   18.7576279827    5.2546482432
   0.2227654682    6.8221317164    0.0866836948
   1.9959321874   13.8765510190   14.1092960042
   9.3374046451   11.0969566258    2.9542520588
   1.9490392714   10.7478968941    8.2251510360
  11.4020879546   19.8202294582   14.4662023976
   4.5563365158   12.0397684065    3.6904105329
   2.8909725453   12.4433293317   16.1946453663
   1.8264625641   18.8369690116   13.3174595154
   2.9830700900    1.6229675661   10.7865037080
   9.6812810646   17.5598168470    7.1047045660
  -1.2789747488   12.1544688926   15.4312061928
  15.7997666311    3.7943538068    0.5369943286
   3.6349843085   10.3671034153   15.7589055091
  14.7852688871   11.2484187374    1.3426056974
  12.5779131684    1.0156708224    6.7172779551
   4.7870678031   10.2271596940    3.6371591292
   8.5906029094   10.1635429557    1.6891720352
  16.1736575128    6.6206538421   19.0576605977
   6.6924549429   10.1902937572    6.5831623956
  14.2687339353    2.3449918976   14.0689536352
  -0.5497001390    8.1427579777   17.8919076817
  10.9690971038   16.5983826237    3.5970188803
  16.4819127020    8.9852044998   19.1454630367
  -0.9279245588   19.2292895937   13.8247665716
   0.3504377829    1.3560568305   13.2445843228
   1.6681666464   17.9037884551   11.7326104165
   2.4906456918    3.2508876190   10.3982855608
   0.5100210642    9.7102505923    0.6064380853
  -0.4161376748    3.9514782451    0.2267453716
   0.3954861101   11.9776902341   18.4083585665
   1.3661514059   12.0443576955   16.6736420482
  14.1358866120    1.8513249616   15.7778064152
   9.3465002891   15.8820751307    3.4838149033
   2.2268507118    8.9984017939    8.4118541655
   7.4273647447   17.3523263293    6.1689627964
   5.1124695672    9.3448574338    5.9513676738
   8.0448632892   11.8786072714    1.9455774214
  -0.6439051003   13.4251029920   16.4169334308
   4.7622175273    8.9304430167    1.6648251941
   8.7089055854   13.7700253557    7.6245913169
  12.4329467489   12.6668685899   13.7797148247
   4.2057732915    1.4522848641   16.4700064077
   2.0439872497    3.2716611597   18.2703293562
   0.1131961872    6.1480258597    6.2088331583
   3.7778429459    5.4744983171    0.9898294956
   0.9791931245    3.6409340112    5.1545274081
  10.7498861641   11.3983865976    6.0261641004
   5.4421188251   17.9719713253   10.3523464287
  16.8183761281    1.1065196630    1.7606122015
  11.5205364964   10.5684021953   16.4754193452
   3.0676391867   16.4398949123    0.0820764564
  12.3722421600   17.0040403484   15.7950368404
   6.0576722944    1.3439884251    9.8172366008
   2.2414102272   14.2505239242    2.1886092486
   7.3016202341   13.6964029256    1.5241821138
  12.0661249165   19.3561286551    4.3654105580
   5.9975315651   13.5304031054   18.5967787898
  15.1324388832   15.5946786500   10.7282183781
   4.1275010827   19.0030308854    3.7903811416
   5.0394537153    1.3830044599    2.4929911497
  11.8908392531   15.9592442550   18.5168045568
   6.8607532465    2.7019776367    6.2411692746
  13.5228268867   18.6035157788   11.3426557008
  11.7160459250   15.1504352241    9.9486009691
   3.2480602253   15.3118158761   13.0177454157
   4.9436525934   17.4870175450   14.5132791824
  10.1235993067    4.0739275773   15.5151756817
   9.8658605207    3.9189954271   17.7975675986
  -0.6639024035   17.5054553134    8.1887969854
   9.7299416182   13.2362440481   11.5135308743
  12.0790825232   14.3992742193    4.2948046264
   1.7217995207   13.6830709472    9.9225079381
  15.7003047140   12.3882871270    9.6121766451
  15.8946638009    9.7213264465    7.0687405380
  11.7541573784    2.9510289406   16.8782124132
   4.0542397609    4.7474780437    5.6640210628
  -1.5128041493   17.3414515322    4.5290303091
   8.7803100664    7.2348259558    3.3467744271
   8.5789997944    6.9847888675   15.6028021702
  15.0843131776   13.3097637723    4.0546130506
   3.0328996807   13.5552130176    6.8819050553
   8.8384007516    7.8013937484   11.6682741605
  13.1916496935    7.5662104294    4.8753139361
  -0.6988990062    7.9967216543    2.6847725737
   0.5298708317    6.6796080041   12.0968268574
   8.9072677753   14.7156378436   17.7715653600
  10.9257764671    6.4560950569    1.7848433147
  13.1778496339    9.6615436044    2.6423052543
   8.8788249397   17.7087126118   13.2802328757
  16.7611386475    5.1742517656   11.2597285896
  16.0477010139    6.9274843364   12.5023316749
  16.7351787491    5.3880755085    1.6511268514
   2.0140627919   11.1476258148   14.8353593523
  12.5554383673    1.4216982026   14.4591607651
   5.8175647187   11.1202067884    4.9304943645
   7.9309588324   19.0360610542    7.3789722017
   9.7930540394   11.7478975888    1.0225838031
   0.2446026758    9.9297457151   18.2746278037
   0.0554692714   19.2662515194   11.9940934753
   1.2960294655    2.5084217897   11.8840929586
  -1.3176272182   11.6224528172    0.4095186544
   9.6416485194   16.4652898071    5.3339917795
   0.0276375715   13.5076588402   14.5009254687
   3.6466862258    9.8571110339    7.3378488494
