B2 C140 Ca1 F48 H298 O66 
1.0
1.7884479509426374e+01 -8.2843587561271037e-17 3.5866773530062535e-17 
-3.0439212778672244e+00 1.9277987858494310e+01 3.9784075467382025e-17 
-1.0480359738197989e-01 1.2681267250996919e+00 1.9389585248176274e+01 
B C Ca F H O 
2 140 1 48 298 66 
Cartesian
  10.6017767455    3.6284677475   16.6825375181
  -0.7850650001    6.3322083566   11.9711276362
   0.3070103235    1.6097343663    1.5093309070
   7.1643080380   13.7160615781    7.5101120790
   4.6853015566    6.5518428613    0.9423561493
  12.8450950351   12.5851625158   12.4502801743
   4.4745698483    2.8862914139   16.5392485561
   2.5156277484    1.7574425894   18.0542858436
   1.6844960682    2.5356731775    5.6119677189
   2.8596960881    1.2113172192   16.7314034141
  -0.1521856581    3.8742693015    5.9772960604
   3.1897611342    6.4666424700   19.0628343702
   2.4008121413   17.5444198985   18.1595514418
   1.0383680502    3.5508480112   17.2085414718
  12.2446015112   15.9160044045   14.8358541324
   5.4103181453    9.9776861184    0.8822498676
   6.0420051719   17.1332530712    9.4759553606
  12.2757557869   11.7665228606   16.0064285317
   9.7028421441   11.8693032154    6.8385656674
   9.4921569115   13.3584493521    6.5908728899
  13.0028085582   11.7582682560   14.7042736683
   3.9961256780    7.9640817333    0.8624619044
  12.2440221818    9.4518482678   16.7990992723
  12.0349557339   11.8074762828    6.4240793257
   0.1035502509    4.9989876776    6.9825516153
   0.7377659254    7.3417522475    6.8446926799
   4.8863479327   19.0208101648    9.6746227774
   2.1454651130   16.3573320087    1.1478618394
  15.9667770123    1.7391321153    2.7563945528
   4.0207316303   19.9635306913   10.5478945330
   1.3456149676   15.0960227747    1.5141496896
  13.3837967078   16.8102635537   16.7780760389
   5.4331374448    2.4316578629   10.5616184729
   7.1421784023   13.9890732658    2.9190009625
  14.8002183317    0.8071284807    3.1746148413
   5.9033587936   13.7886462166    1.0544174409
   5.7385206397   14.9378589582   18.8384302949
  15.0308431652   15.2123312435   12.0623118543
   1.8995864641   12.9153999058    1.9566794139
  13.0636266793   15.7732562151   17.7979154519
   6.1227906340   13.2378611406   17.2232013206
   4.9534883449   17.7936328896    3.7801510477
   7.2241478856    0.3945166783    2.5341561618
   6.4406956769    1.6094154120    2.5593478206
   4.3924546203    2.5833498786    2.1303787928
  15.0546104602   16.9238785040   10.3514286268
   6.9328649915    1.4427392307    6.8370717812
  12.4570723679   15.0814990499    8.7402579631
  13.7078107763   17.6074363682   10.2478218028
   3.7129718242   16.2023789660   11.9204713506
  13.1067033093   18.3706894993    4.4231359946
   7.9657288384    2.4775597983   18.1929725495
   8.2183967348    5.0589574659   19.1152074295
   8.5369223674    3.9792197650   17.9459516355
   3.9691453572   15.3309691342   14.1767760333
  12.0929893613   18.8350729220   11.5937930818
  10.2810117426   14.9904377059    9.8431714447
   9.8048483116    3.4210960789   13.1631486727
  12.1104241652   15.8571978429    0.0096951343
  11.9238878248   13.3603166203    3.3605129788
   9.7425312148   14.6661212808   11.1872777060
   5.4931122777    2.9700845564    6.2057235260
   1.5557920841   12.7939265677   11.0819894825
   3.9757174074   16.6419791509   15.0406264151
   0.2637108171   18.4879108317    8.5953218563
  10.8146185336    3.8301144901   14.2519385200
  11.8464076613    4.8339955709   13.8628029013
   5.3884794044    4.3773374519    5.7648927157
   4.6687092611   18.8301381531   15.0248764709
   8.7233799540   12.5295002706   10.7430076216
  -1.7267197136   13.4094047330    8.7033922449
  15.3606973019   11.2168704716    8.9074614156
  -0.5242613148   16.9707345325    6.9738857016
  -1.3826932496   10.4971376710    8.1046031413
   6.1357346693    6.5994454254   15.5125462149
  13.3696841824   14.8379927970    4.4195678943
  -1.6135375065   17.6803949900    5.9281821991
   2.9789921883   13.6228680150    9.3851249491
  16.0890136726   10.1608825125    5.7460298463
   3.9790370321    6.1011064360    5.2906461289
  12.0732727082    2.6212948201   18.2316593723
   2.3133565465    5.5662343296   13.3238817595
   9.2104162775   20.3865096515   18.5570117721
  14.5038788480   14.0889109985    5.0003885525
   7.3875458333    7.4352330802   16.2035157812
   2.9005111407   14.4255708102    8.0730493348
   7.5413795429    7.4055239451    4.1443403308
  -0.5733491494   17.7651253412    3.6843466139
   7.2729553282    9.0002157122   16.1317596810
   9.8278565471    7.5347960268    9.4744566483
   0.6662276164    7.6512534187    2.8763504183
  13.3540637034    3.4139889559   18.5840208209
   2.3302007221    6.1602298376   10.8716236503
   1.5028551512    5.6253463202   11.9571088431
  10.8561682707    5.9364921417    3.0978747282
   9.4841091576    5.9682998402    3.5973106243
   9.1940434923   15.6048343807   16.7647987313
   8.7959439058    8.3096378657   10.3802073035
  12.1910359022    9.4394881406    3.6968271740
   8.5630483650   17.8564025718   11.8759097880
  -1.3961462591   13.1613317623    3.9463543730
  13.8135139181    7.0431872715    5.9805775656
   7.3718084415    8.6565987700    9.8929869901
  12.3631047127    9.9821981056    1.5129493342
  12.1698999679    6.2833342582    1.1445420922
   2.9442088957   14.4473987288    5.7561775082
  12.7020250154    8.8784504427    4.9885202229
  16.0528078235    7.1574459558    3.0667843227
   8.1074292581   18.6236293778   14.0707826787
   9.7612885250   13.6859754914   18.0026238204
  15.1151475607    8.0797974525   14.4271665614
  16.1961110678    8.1017570592   13.3220716630
  15.6388714827    6.1904974916    1.9161971702
  15.2427904286    3.3544488320   10.9700807671
   9.2909177507   12.7222429469   19.0794734205
  15.4089156756    4.8819439758   11.0918205554
   8.9702076189   19.4359513029   15.1202248329
  14.6515665717    5.7153626260    9.9541532065
  16.1495729656    9.4341486152   12.5619143885
  11.5378349423    1.0317012340    7.1122246952
   2.5885860982   10.1107146717   15.6185492702
  -1.4908026271   11.5159102714   19.3308290038
   1.3463886240   13.5826196816   14.9487580009
  15.2500019542   12.0438713294    0.7598343541
   4.7220793277   10.8202631710    7.2141103060
   4.5379153689   11.1041355973    4.3024211981
   9.5718149395   17.6264562015    6.0436689673
   8.0997188044   18.2341453437    6.1818967805
   1.8891019143   12.3213661844   15.7073554536
  -0.6763251367   19.9815510013   13.0323072822
   1.0801453316    1.2843039337   12.4568871559
   1.0739641497   18.3649048630   12.5950847881
   2.1074124604    2.2835798094   10.6144883817
   8.8849804534   11.1808521808    2.0094589578
   2.6835948955    9.9581522039    8.3841802646
   5.6841211275   10.3435513821    6.1318673836
  13.9441710633    1.4733741813   14.6523531575
  -0.4119170890    8.7814296650   18.7579162237
  16.5154966318    4.6375761635    0.4928270275
  -1.0028599129   13.2270567907   15.4286420261
  -0.0748573348   11.1406583380   18.9927299938
   9.8888085831   16.7323545528    3.9608790877
   8.8111386012    6.9002969828   13.5119878963
   7.9404098790    2.0101013436   16.8775698999
   8.8872519698    6.1062588763   18.6815550568
   9.1502195376    4.4778198665   12.4819918542
   8.7530346411    1.6151488484   18.9311761528
   8.8445448415    3.3636073069    0.8997586980
   6.7090907511    2.3979517713   18.5979093625
   6.8673699859    5.2690577197   19.2323705029
   8.7008427495    2.7124005431   13.6810367206
  12.4341701849    4.4774063322   12.7722940956
  10.3693143588    2.6425797434   12.2648125421
  12.7415633717    4.9924356333   14.8422932333
   4.8069839964    6.9562630439   15.7337075778
   6.2966708234    5.3514779100   15.8312131886
  11.3133837351    6.0963232738   13.6839219181
   6.2123643404    6.6411037338   14.0845858116
   3.1092486314    4.4558156817   13.2580513797
   8.1155084378   19.7534442090   17.9212569106
   3.1727967679    6.5584005781   13.5919918277
  11.0768455316    7.7813015763    9.9631546134
   1.5913258935    5.6351725599    9.7889108726
   7.0776061593    9.3775018089   14.7835798195
   8.5152491275    9.5227482903   16.5169051684
   1.3742106986    5.3312900255   14.3514249254
   9.7681186150    8.0838434458    8.2267443557
   9.1172433527   18.8015263528    0.4717600342
  14.5172789308    3.3101147593   17.8469115790
  10.3075972568   19.7516083085   18.0985203415
   3.5464337201    5.5483732131   10.7479891291
   9.7229203332    6.1553959332    9.3685057835
   6.5575945433    8.9376896214   11.1043510078
  13.8500941998    1.6385227701    0.3893734814
  13.0114316300    4.7417839404   18.5532821691
   6.3715962554    9.5460868154   16.8469585872
   2.3415935221    7.5516337396   10.8777122445
   6.7228294148    7.6501862225    9.2404967568
  15.1673290756    9.2028271850   15.1743805752
   7.3086251078    9.7844782131    9.1827138983
  13.9890172935    2.9137351573   11.2003847051
  13.8182164431    7.8386974804   14.0039177201
  14.7627164652    5.2142306119    8.6666140215
  15.6629612506    2.9466055107    9.7144786366
  15.3817871518    6.8666025170    9.8237394456
  15.3334624034    6.9851025290   15.2067293961
  -0.8772468453    9.3704136531   11.5601988062
  16.1333198239    2.7686286297   11.8660388295
  -1.1624149963   10.4078630011   13.2958600848
  13.3497748298    5.8011329133   10.2217186908
  14.9103904615    9.7017293302   12.1111403734
   1.5796127845    1.2547343719   18.5514222528
  11.4855186645   12.5506299793   16.0955952727
   2.3036132123    2.0662344846    4.7642539565
   5.0503744292    6.3662711670    1.9974005502
   5.1598120211   16.7468877950    8.9358629498
   9.8101519493   11.5332865607    7.9081193059
   5.5791830925    6.4109808601    0.2333584839
   5.4396759794    3.0482429101   16.1922097184
  16.7969650427    4.2014386695    5.3597247840
   0.1561316652    2.6516001080    1.8571894535
   1.4979182248   18.0746832716   17.9819443273
   0.4682642162    1.5708862555    0.4581596927
   6.6419466080   14.0097147672    8.3937569499
   0.4509621774    4.4912749735   17.4122362588
   0.9824879097    1.1057302849    2.2206833455
  12.2313086267   11.8022020818   11.9194880178
  -0.2369296057   19.3791248647   16.9134633555
   6.8843382564   14.2621918657    6.5608328959
  12.9969830096   15.7409620250   14.0306574794
   6.2872402988   10.4167620124    1.4253102145
  13.9455858674   12.4061565469   12.3212711192
   2.3902216610    5.7158949474   19.1709995339
   2.9138820520    7.3595287752   18.3833162495
  11.8285173434    9.0474592876   17.7484772587
  12.2710996366   11.6203682814    7.5327436956
   0.9975510068    1.6889657137    5.8598325659
  17.2801698789    2.9777349124    6.3418805504
  10.4049737357   13.9095882087    6.7107149700
   4.3533722976    3.2906801905   17.5340989816
   5.7948402745   19.5323406687    9.1734635281
  12.1876786619   14.9873033590   15.3896447510
  13.1206010517   10.7434383474   14.2341598441
   2.1255290526   16.4986675496   18.0013751574
   3.1758360255   17.9403974077   17.5091532243
  11.2004063641   15.9791109058   14.2799104666
   6.5891896292   17.5273485816    8.6420371929
   0.2504764228    2.7744922884   17.1873730994
   2.7199030785   16.6576962585    2.0009487818
   1.0296942294    7.7949569717    5.8748584527
  12.9543279302   11.9053449076   16.8974010262
   2.3658403472    2.6826757295    6.5305104655
   6.4625499922   16.1896533915    9.9465549770
   8.7315928359   11.2803764359    6.5294282405
   4.7196397376   10.7457487168    0.4544610791
   6.8956020468   12.6814259913    7.3931442159
   5.6919354362   10.7299415500   19.3546545396
   3.9673727537    5.9566303874   18.6173066189
  12.6552395108   13.5237831983   11.9255936381
   3.4647602101    1.6330296945   18.8036429135
   3.7794829086    3.4119439297   15.7573761662
   1.5074440024    3.6794591179   16.3093580017
   2.0925247805    1.3739668874   15.8989038900
  16.7413134861    1.9842816885    3.5222870051
  15.4015699286    2.5704273721    2.2352855003
  13.2640789878    9.7030661053   17.1904860766
   3.0267617123    7.8878263508    1.3760525600
   3.7226379333    9.6722830597   19.2661180041
   1.4839230889    6.9968936457    7.5816551359
   0.9680704264    4.9422764146    7.6667040186
   1.3793592594   17.1160803188    1.1014025923
  12.7004556214   11.1759326995    5.7352460583
   7.6905054838    1.4741609005   10.9389618810
  12.2894330975   12.8908530112    6.1003134984
  12.3756055746    8.7435059960   15.9839071247
   9.0899277151   13.5708939368    5.5790170044
  14.1130508624   11.8224427603   14.8280693680
   4.2920717370   18.7656667558    8.7531408258
   6.4638990867   14.9062634674    3.0971071750
  17.1032396869    4.9129247716    7.6426236800
  -0.0252416316    8.0324571979    7.3285691177
   5.4215021171   14.7309967404    1.3643239516
   6.3593671986    2.9994161851   10.8667259324
   0.9070671676   14.7332849045    0.5577445457
  13.5721106509   17.7324051536   17.3080684195
  14.3170297773   16.6030854860   16.2041685027
   4.7371418908   15.1814467785   18.4409190362
  14.0231774539   15.2716057645   12.3753304517
   8.1190763524   14.3916837356    3.2612894027
   4.7673686067    3.0901904676    9.9758330645
   3.6634935097   19.4042873437   11.4297179023
   5.7526145655   12.2391311601   17.1047396928
  15.3826243366   14.1827725174   12.2680218935
  14.5163131462    0.3032503448    2.2749566807
  13.9017850669    1.2860812356    3.5510696724
   4.7183144164   17.4384734673    4.8241519340
   6.3556976874    1.3888166913    7.7426817176
   3.9767555478   18.9554413909    1.6242334441
   0.6555074656   15.5198442169    2.2003108796
   6.6847021297    2.0801856443    3.4767796260
   3.3437967397    2.3527103232    2.1089889140
  -2.3053263004   17.5699286617   11.0288684751
   0.7954146391   12.6943038627    2.2036232450
   1.8932676182   12.5539342609    0.8486770983
   6.7888200319   13.1430921588    3.4679939687
  13.0449154249   14.7806271053   17.3032738710
   4.9187243913    1.9525391941   11.3316851314
  13.8320009748   15.7109741165   18.5505598648
   7.1117507828   13.4047498671   16.8107184564
  12.2004278385   14.1350323219    8.1614297247
  13.0321585683   16.8068547630   10.3349121993
   5.2394026709   12.9979192867    1.4129904995
   2.9003960642   16.1658898171   11.2265305553
   6.0561769436   18.1612813491    3.6631237556
   4.6941030241   15.7807255841   11.5813532182
  13.5463787123   15.0865767041    9.1260398596
   4.7202751702    2.9481306511    1.1074348881
  -2.2308268831   15.9627598045   12.6229390274
   6.5281599307   15.4704790000   18.2780164737
   2.5871183823   12.2780694099    2.5904414867
   7.9469183220    1.1741329296    6.9872031784
   6.4221103582    0.7524881259    6.2217134127
   5.4100960418   13.9082407495   16.6264561314
   7.9424983672    4.2862523911   17.0804602849
  11.9532675868   19.9091757187   11.5092598522
   3.7234560448   14.4449853196   14.6951847711
   4.9949236553   15.1963369779   13.9023860367
  10.0379132729   14.3665555130    9.0382985411
   3.8808082413   17.2792195779   12.1461240640
   4.6800275562   16.9376447232    3.1377508381
   8.3672961878    0.8214570300    2.4174181994
  -2.2115197738   17.0420304803    9.4727961792
  14.0286551503   18.7193406628    4.0004776812
   6.7202724008    2.2689825612    1.7035641322
  12.7757131959   17.4725177971    3.8581446352
  13.2477059580   18.1378029665    5.4463113228
   4.5942900679    3.3908831027    2.8910287719
  12.2219235807   15.9138963785    8.0293497838
  13.6682034354   18.2839048339    9.2936223234
  10.2777089086   15.3798994345   11.8917536608
   0.2939243959   18.3162166710    9.6311833263
   1.9926374941   11.8087592273   10.8239759001
  12.5673698985   13.5485693298    2.5295542798
  10.9433678023   13.2862426431    2.8148976009
  11.5845810210   18.3642883107   10.7472282609
  12.1311556361   18.0613967364   18.7490989382
  11.2313981144   15.8445252524    0.6976978473
   1.9451495382   13.1231768505   12.0115271168
  11.8327491075   18.3909228607   12.5805135388
   0.4542718680   12.7342156802   11.0345935066
  12.2326189555   12.3893664535    3.7344870737
   4.9925468414    2.2912915716    5.3746693591
   9.6038105903   15.8841086399    9.4857990274
  15.3619615009   13.6005279317    7.9384057751
   9.2295591812   11.6291534376   10.4013428807
   4.9348911168    2.7745714245    7.1712547631
  13.1883713738   15.8116894399    0.5128290029
   5.8572230947    4.3269350042    4.7674794093
   6.0219447474    5.0833442048    6.3606927033
  14.6610951284   11.4795318494    8.0707503162
   5.5232565918   19.4683053663   14.5352965448
  -0.0806366246   19.5328378132    8.5005971679
   1.2958395404   18.4142051794    8.1717697559
   8.8194383188   15.1420202294   11.2626125024
   4.1988526532   16.4135289999   16.1560532122
   3.0533042104   17.1360181883   15.0523043832
  -0.7428570442   13.1440521577    8.2501132910
  -0.7557062246   11.2547419892    7.5974834957
  11.4570819728    2.8335970088   14.3681479213
  13.6884760901   15.4354456020    3.6249507156
   4.8910478407   18.8219433092   16.1494743351
   8.4916974419   13.1422273413    9.8065601754
  15.6151968566   11.1649003990    5.6176143571
   3.6252875611   19.2780833921   14.8359593904
  -1.3150728710   18.7191494005    6.0423758091
  -2.6089846038   17.6041763263    6.3784338256
   7.8650938941   12.1204787261   11.2295262874
   3.2231472183   12.5601271222    9.2528646131
  -1.5960016418   14.3388995330    9.2881917333
  13.2086550151   15.5967358426    5.1803551895
   3.7135939514   13.9895162473   10.0797698285
   0.4992679819   16.7931905919    6.7562559187
  11.2943614812    2.9881313883   18.8697974694
  14.8347952187   10.5717157188    9.6315232231
  -0.7259194955   15.8583111039    7.0594507815
  15.5266911901    9.4201753284    5.0986975838
   4.6627659618    6.4072854606    4.5287867018
   7.1894307543    8.5015996513    4.2777462355
   4.3268052216    6.7122498815    6.1100962195
  -0.8029594515    9.7992567511    8.7566146177
  14.0226004883   13.5375393045    5.7745881788
   0.9124275578    7.0826824610    3.6536428315
  -0.7151319019   10.2435884332    5.3523633584
  -0.5455330000   17.0484230567    2.9370260655
   0.3831325436   17.7974771897    4.2297647898
   1.9254967898   14.8857580253    8.1142562181
   1.1115969076    7.0769047030    2.0221322244
  15.2884828499   14.7878724376    5.4848144500
   3.8245442035   14.9536988864    7.9131431850
  11.5576462906    6.4751115825    3.8363317925
   7.1078536635    7.1492490941   17.2980805543
   3.0106369912    6.1596255045    4.9591724597
   1.0796321044    8.6112011492    2.9331739099
   6.6500199376    6.8866528715    3.6289190398
   8.2637347879   16.1678855464   16.7012888545
  11.2373931441    4.8858864891    3.1267876591
   7.6837724061    6.9895284768    5.1027442018
   1.0875757037    4.6800618594   11.6441685493
   8.4457130865   18.9602832242   11.5746687904
  11.8443207971   10.4494019596    3.8120453729
   9.1869818952   15.1165445928   15.7383743182
  13.0647766147    6.9862406806    6.7133785667
  11.4495835743    8.7289543628    3.3251813252
   9.4437086265   17.4586970398   11.2662261272
  -0.7175263843   18.8140957353    3.3775324387
  11.5023710039   10.6540509235    1.7501194757
  13.0165774083    6.7764455328    1.6553536317
   8.8331184816    5.3020039034    3.0617237448
  -0.9352600359   12.9751443735    4.9507369878
  12.0859933600    9.1088687104    0.7676102099
  12.5835272533    5.2470536771    0.9882573913
  10.1289457906   16.1909099237   17.0417471053
   9.5093528300    5.7726213274    4.6435227746
   7.6298145535   17.2557353097   11.6076613728
   1.8654658816   14.5403598769    5.3630485989
  -0.8534024253   14.1122334271    3.6420106115
   9.0992258337    9.3833099507   10.2998304659
  14.6427850222    7.6454634160    6.2615074737
  -1.2420283617   12.4204290425    3.1456197610
  15.2161951454    7.7327508542    3.5174236752
   3.3908224252   15.4073914064    5.9815289124
  14.3779314559    6.1840659867    5.7056797803
   7.6392325968   19.4166365091   13.4387274826
  16.3115182988    6.5545151016    3.9836361635
  11.9845760706    9.0427540467    5.8841903151
  13.1231361203   10.4613603321    0.8779444864
   3.4788474276   14.0849249843    4.8547019553
  13.5784660361    9.4249132477    5.4396423430
  12.0490734202    6.6748116990    0.0932151861
   9.8755440560   13.0204586259   17.0997050407
  -0.7149821170    8.1941521110   13.7601713337
   9.7140634651   11.7044611398   18.6325188899
   7.2757681900   18.1082805703   14.6880948243
  10.7704847189   14.0555205652   18.4304179104
  14.7514279100    5.7112715723    2.3637165488
   9.7760997530   18.9553348796   15.6618099494
  15.4745847451    6.6003027746    0.8855641640
   8.2048110633   12.7435699725   19.0801250051
   2.2541620970    9.8952364751   16.6482783250
   1.3690959122   14.4424995153   15.6744505616
  10.1603529828   18.5181745389    5.6535304750
  10.8924601744    1.5987678145    6.4233873541
   5.1707536638   10.8901425340    8.2790555977
   3.6201586609   11.1664418505    4.8623969402
  11.6135219329    1.5855504017    7.9863437897
  16.1192785325    9.5834382610    0.7545745450
  15.7338696541   11.4337077483   18.4294310190
  14.8147221331    5.0800629293   12.0079725339
  15.2273958854   12.9350564146    1.4843168717
  14.4436821541   13.6219524478   19.2706084352
  -2.3231967441   19.7621741799   11.7027079144
   3.1208851560    1.4006299712   13.5626256806
   0.5572094219   17.6091092636   13.1442010785
   1.2504270886    1.8458038540    9.9161875169
   8.1696366087   19.7232128298   15.8416380835
   4.3964149773   11.8366211740    7.0326947821
  -1.8619604455   13.7671391384   15.0182506541
   9.4963397732   17.6325354048    3.5294485772
   3.1351565275   10.1818814924    9.4196472892
   2.6374077521    9.2139331512   15.0671949883
   7.8134335364   18.7814849579    5.2471157304
   0.2295801887    6.8153236279    0.0926949721
   1.9919551624   13.8768820179   14.1306396960
   9.3468299167   11.0984867123    2.9467270769
   1.9679790660   10.7563639241    8.2279522635
  11.4074706835   19.8458635950   14.4475748063
   4.5486806052   12.0584860086    3.6597869995
   2.8353931652   12.4337312544   16.2082212089
   1.8034397170   18.8528294262   13.3208139927
   2.9569026476    1.6158449590   10.8085644855
   9.6855836102   17.5715146330    7.1146269096
  -1.3031530179   12.1548981344   15.4037502642
  15.8176716343    3.8151617523    0.5518825138
   3.6273321751   10.3466453186   15.7766939145
  14.7672032324   11.2378756318    1.3029370433
  12.5908085729    0.9981384823    6.7360569199
   4.7360772183   10.2258195685    3.6607333995
   8.5691740780   10.1802296417    1.6891107547
  16.1601938189    6.6098001037   19.0866794279
   6.6948626814   10.1752450884    6.5950370419
  14.2533145699    2.3280197514   14.0844456169
  -0.5722032099    8.1410069974   17.9177236275
  10.9749585555   16.6299396531    3.6056185612
  16.4572178004    8.9718906368   19.1797562654
  -0.9226425313   19.2484014756   13.8234738002
   0.3582598043    1.3512612498   13.2796197868
   1.6749205944   17.9106652805   11.7252035688
   2.4944231560    3.2344502356   10.4149616861
   0.5164369240    9.7110693624    0.5863393056
  -0.4305259809    3.9422099911    0.2227892865
   0.3881446516   11.9815980116   18.3993721446
   1.3599170066   12.0573911098   16.7084977045
  14.1374736698    1.8455923268   15.7810065742
   9.3390796196   15.8974411517    3.4794790032
   2.2144305180    8.9842695678    8.4383937823
   7.4052188348   17.3638779081    6.2000253424
   5.0973527136    9.3525870888    5.9500146860
   8.0380739552   11.8806388545    1.9842474746
  -0.6736823417   13.4310262971   16.4298049001
   4.7521665768    8.9377006660    1.6601614407
   8.7026730283   13.7786375783    7.6337709066
  12.4195141596   12.6594557607   13.7912545440
   4.1848735787    1.4448833361   16.4707683775
   2.0300433875    3.2703269479   18.2818412603
   0.0989154796    6.1648992013    6.2132355240
   3.7656643074    5.4833355342    0.9939097157
   0.9764100987    3.6408473604    5.1620268890
  10.7480795855   11.4029401553    6.0403156527
   5.4166265645   17.9836809503   10.3638073557
  16.8340803173    1.1069795213    1.7562412438
  11.5033597536   10.5661741507   16.4828424224
   3.0626924722   16.4513515818    0.0814540775
  12.3499864807   17.0067830807   15.7932610347
   6.0673197463    1.3507899594    9.8148658162
   2.2362238008   14.2677071024    2.1937796101
   7.2986558499   13.7045190832    1.5307257108
  12.0553437816   19.3696831265    4.3560149586
   5.9737054422   13.5386564019   18.6083297617
  15.1156816965   15.6008288241   10.7335231352
   4.1127790556   19.0130457834    3.7864787943
   5.0386748728    1.3863023727    2.4966622281
  11.8808550546   15.9611615347   18.5286114034
   6.8547430366    2.6957315372    6.2537655147
  13.4969510366   18.6058794205   11.3405996025
  11.7079618058   15.1484648119    9.9414355045
   3.2338935385   15.3033980115   13.0277534833
   4.9297604445   17.4924582563   14.5201108058
  10.1093380964    4.0682569197   15.5210669658
   9.8574482714    3.9063983335   17.8047333194
  -0.6773633155   17.5247088543    8.1962501244
   9.7192153386   13.2354571486   11.5164566332
  12.0814461024   14.4008365141    4.3005940849
   1.7029613369   13.6889691766    9.9216904108
  15.6866121198   12.3860439362    9.6170396045
  15.8891046530    9.7206361131    7.0723799289
  11.7537582672    2.9416621874   16.8852181866
   4.0496567575    4.7456126897    5.6607036686
  -1.5264350296   17.3538822436    4.5318537881
   8.7803981450    7.2447416045    3.3494999671
   8.5661049344    6.9823218381   15.6102669678
  15.0783046837   13.3161698262    4.0585458580
   3.0292702929   13.5690463734    6.8957253452
   8.8275464794    7.8052462829   11.6801456127
  13.1806746713    7.5742294732    4.8707752946
  -0.7056740700    8.0069233628    2.6734637592
   0.5156514519    6.6816497798   12.1055964619
   8.8932624236   14.7215437792   17.7795900092
  10.9348467616    6.4584897982    1.7909672574
  13.1686925414    9.6676940671    2.6442176756
   8.8600662281   17.7104142616   13.2913674344
  16.7550863104    5.1671181861   11.2621156510
  16.0413319568    6.9262406668   12.5117442053
  16.7265683975    5.3882053757    1.6460230658
   1.9945826962   11.1449491940   14.8335742967
  12.5526736528    1.4112513435   14.4730073653
   5.8115074281   11.1251131672    4.9285051755
   7.9153229327   19.0434622241    7.3781822537
   9.7858240039   11.7563736014    1.0177092611
   0.2241830009    9.9246430593   18.2758638818
   0.0410324139   19.2624235375   12.0087311199
   1.2831024406    2.5005417155   11.8887681779
  -1.3370569888   11.6281417926    0.4135794363
   9.6379987982   16.4722901819    5.3395378558
   0.0105988823   13.5173235173   14.5082492034
   3.6376275319    9.8608048903    7.3359690734
