B2 C140 Ca1 F48 H298 O66 
1.0
1.7863233419571035e+01 -1.4838173448594041e-16 -3.0970712454288329e-17 
-3.0400611454804660e+00 1.9284692882440506e+01 5.4389136863986023e-16 
-3.7415402507099482e-01 1.5832510082583233e+00 1.9390767851547540e+01 
B C Ca F H O 
2 140 1 48 298 66 
Cartesian
  10.2381058223    3.8938806378   16.7976151187
  -0.9388183970    6.5017391229   11.9797632402
   0.0854524234    1.5936977024    1.5000854889
   7.2169455088   13.8066639443    7.1874164889
   4.7278377699    6.5322434399    1.0196275836
  12.7250957848   12.7632948024   12.4285988200
   4.4212011123    3.0512460907   16.3205178316
   2.2777089526    2.0986200949   18.2447390281
   1.4978955138    2.6766105840    5.5247242024
   2.6966572697    1.4678153229   16.7896148263
  -0.5536929439    4.0474522031    5.8053519258
   3.0543319790    6.6720259804   18.9992734927
   2.1326885262   17.5064991754   18.1896028102
   0.7607713372    4.0205666384   17.3239708250
  12.0022687778   16.0341724698   15.0273072237
   5.0674718062   10.0948216797    0.7720159750
   6.1427069979   17.2313187518    9.4539932758
  12.3156950129   12.1783257976   15.9817619534
   9.6658517237   12.1614976782    6.7954185653
   9.4719723802   13.6596904421    6.4990442870
  12.9513899558   11.9892756378   14.5414242390
   4.0040550491    7.8722860094    1.0376728697
  11.8196374404    9.8934456350   16.7392524956
  11.8420066749   11.8612727245    6.2412789039
  -0.0711015542    5.1738678235    6.8068679469
   0.8611018290    7.4265457650    6.9440961108
   4.6008149093   19.1615502656    9.6268098204
   2.0803012970   16.4611095557    1.1148433018
  15.9884243541    1.6990440371    2.9423947106
   3.6515662850   19.7837655466   10.7460202830
   1.2142823897   15.2161317870    1.5386515394
  13.0894452739   17.0480790652   16.8248492351
   5.3623692169    2.5991045565   10.7271600365
   7.4821335069   13.9893097127    3.0682735119
  14.6684207834    0.9035377605    3.3470158515
   5.8685626273   13.6503455988    1.1106235548
   5.5485007332   15.0359606921   18.9796603637
  14.9794611210   15.4340589259   12.0269356223
   1.9839927608   12.8595297647    1.8164162005
  12.8541695801   16.0735962138   17.9236600381
   5.7558444734   13.6645295297   17.0353450088
   4.9128774692   17.9544285514    3.8933030830
   7.2231899113    0.5036752157    2.7019956939
   6.2866861750    1.7398536342    2.6199913110
   4.2388203226    2.4466154843    2.1000800083
  -2.7812006219   17.2252213081   10.4549255086
   6.9934166828    1.2137692660    6.6517197124
  12.2844138750   15.2299909709    8.8396404328
  13.7042958528   17.8133746636   10.2587259545
   3.5787598890   16.2093226104   11.9045067852
  12.9458789585   18.5887659735    4.3208055266
   7.5669136666    2.8709739468   18.1286914373
   7.8265822280    5.2959267504   19.0494142406
   7.9865023397    4.3154218690   17.9499475875
   3.7820213710   15.7238789970   14.2294021708
  12.0337904563   18.9984126922   11.6055315273
  10.2039145791   15.1131364031    9.9703431210
   9.5002248383    3.5211212484   13.1808740505
  12.0835995989   15.8497101292    0.1141081330
  11.9519027102   13.5709201590    3.2815864788
   9.6355881209   14.7819355649   11.3422161315
   5.5093104017    3.1628649693    6.3853047337
   1.5118730119   13.0075220559   11.1530247950
   3.7080865176   16.9808354916   14.9313773394
   0.1017753904   18.5412489729    8.4951407706
  10.5474460028    3.8885515193   14.3659031998
  11.5904386679    4.9716679671   13.9882390149
   5.4592216965    4.6496182609    5.9656243119
   4.4056356836   19.3188874415   15.0407296369
   8.5769511067   12.5611132943   10.6815424152
  -1.5439379923   13.6025661148    8.6878120484
  15.1041485948   11.5075247105    8.7248805634
  -0.6434883707   17.1266858349    6.8777426865
  -1.6973500892   10.7057757556    8.1191454249
   5.8924737790    6.9096072277   15.3795618196
  13.4186099776   15.0176798257    4.4621273373
  -1.5491558440   17.8711796049    5.8916814633
   2.8094088064   13.8114611310    9.3064873352
  16.0501075700   10.4005614542    5.8425651466
   3.7327382561    6.2901349521    5.3156532696
  11.8609741956    2.8810480355   18.2117684707
   2.1686029892    5.6892871330   13.3440431051
   8.9800194596   20.6348518422   18.4182182246
  14.4556009851   14.1079470848    4.8920912109
   6.9868011319    7.6439493819   16.1462988993
   2.7691954680   14.5590900209    7.9567285939
   7.5005700182    7.3946816813    4.0770743338
  -0.7008675883   17.8936239891    3.8070176584
   6.9916134415    9.1737566904   15.9339469302
   9.6366152107    7.7132027536    9.5336334782
   0.4323618919    7.6682067135    3.2031226212
  13.1831007679    3.6439794892   18.5470790842
   2.1948462047    6.1707291555   10.7358945255
   1.3173052382    5.8210131265   12.0162881809
  10.7322521420    5.9867280630    3.0579915816
   9.4110717388    6.0361279485    3.7081147641
   8.8653296968   15.9641101772   16.7372374632
   8.6798826234    8.4749593235   10.4785261288
  12.1809702055    9.4135606073    3.7629752058
   8.5245795349   17.9064151974   11.8709952485
  -1.4377019463   13.1992140812    4.0625699422
  14.0818429720    7.1865221838    5.9859481918
   7.2055949350    8.7251743464    9.9272902911
  12.4875630244    9.8355683563    1.5741108930
  11.9667857065    6.2950965562    1.1405761172
   2.8431443439   14.5545371630    5.5272753383
  12.6702071522    8.8065158138    5.1271798451
  15.8961756618    7.2338619873    3.2397979420
   8.0101706315   18.8189114005   13.9061451200
   9.3704608977   14.0122619956   17.9495342973
  14.9631145183    8.2910664348   14.5370407987
  16.0001355556    8.3209646655   13.4361336150
  15.6279753699    6.1417210787    2.1786065672
  15.2645617020    3.4571399312   10.9882997598
   8.9722124110   12.9761814857   18.9369633466
  15.1913050081    5.0045832647   10.9932525403
   8.7229815167   19.5435406171   14.9309201117
  14.5373877054    5.8105049285    9.8591456257
  15.9194581423    9.6488662569   12.6288728975
  11.1773486986    1.2080136470    7.1095190824
   2.4318842208   10.5294763077   15.5653256753
  -1.7139295508   11.7379964650   19.1778880952
   1.1061930046   13.7955781332   14.8785984437
  15.4081483012   12.1189228112    0.7005768380
   4.5541134638   10.9895545830    7.3123641497
   4.7373452415   11.0670266012    4.1248844455
   9.2993730655   17.5233572959    6.0277626868
   7.9862658318   18.3386844252    6.0426583436
   1.6801514551   12.7178863743   15.7779884341
  -0.7923485880   20.2099248209   13.1032518072
   1.0437663731    1.5807430179   12.3646329677
   0.8980999020   18.5775862310   12.5336749024
   1.8178591506    2.3407316480   10.1857632634
   8.8828387539   11.1518037540    1.9748284590
   2.5506202159   10.2358104310    8.2962131699
   5.6214274121   10.4836392276    6.2999350693
  13.8385062560    1.5719094156   14.6365017883
  -0.6214838758    9.0594989559   18.5183072784
  16.6276907637    4.6981170611    0.5554936707
  -1.2012621475   13.4521248827   15.5109494482
  -0.2356446597   11.3242955639   19.1364075203
   9.7216095071   16.7982719553    3.8135250660
   8.5173239972    7.1654741915   13.4615187811
   7.5326800849    2.1894064286   16.8830471390
   8.5074687327    6.4499110806   18.7641950748
   9.2398398583    4.7539776355   12.4794818249
   8.3504710554    2.0814821636   18.8760000717
   8.6831137662    3.1591003571    0.8084720383
   6.3483067673    2.7722959837   18.6429293445
   6.4243437101    5.6285844774   19.2803844236
   8.3426676530    3.1071323266   13.6706651490
  12.2398612333    4.5349020025   12.7579959183
   9.9727828323    2.6074057750   12.2708176581
  12.5817220520    5.1271366063   14.9289934048
   4.6341877387    7.2210481737   15.7350521366
   6.1046292639    5.5501994721   15.5823678393
  11.0366785274    6.1499013853   13.7432580393
   6.0164748948    7.0741435349   14.0452874635
   3.0091935449    4.6247182127   13.3171692781
   7.9786397637   19.9133385842   17.8926488603
   2.9439786608    6.8825019614   13.5893562308
  10.9065387599    8.0051795477   10.0359738074
   1.4867031386    5.8895540557    9.6270839303
   6.9514253665    9.6255189564   14.6812513501
   8.2749204448    9.6296562718   16.4023784868
   1.3899721098    5.6019066365   14.4903043592
   9.6508324014    8.1572779494    8.2630468108
   9.1633163487   18.9639699087    0.4064524270
  14.2174077979    3.5604571193   17.6592540614
  10.1961860327   20.2608069547   18.0191090263
   3.3204149549    5.3984685510   10.6722983329
   9.3785130702    6.3486646775    9.5379900690
   6.4616460799    9.3096434156   10.9529418669
  13.9526749398    1.8071162542    0.4394755298
  12.8246586201    4.9260956462   18.6460154281
   6.0797069228    9.8246178120   16.6613228446
   2.6298690211    7.4124669923   10.5034828277
   6.4883912050    7.6872241787    9.4521782245
  15.1921282083    9.3246709689   15.3433791963
   7.2617829185    9.7079384736    8.9876494656
  13.9472265589    3.0443308814   11.2089303241
  13.6034764646    8.5163279532   14.0373100693
  14.6348548631    5.2164779364    8.6240680163
  15.6201200282    3.0561447355    9.7397216258
  14.9587350260    7.0928009654    9.9423660402
  15.0341035343    7.1236417160   15.2310517179
  -1.1218785912    9.5348288203   11.4700950825
  16.0728612715    2.9346723430   11.8601741194
  -1.4433677323   10.6275812735   13.4735370423
  13.2460674803    5.8572715536   10.1286446347
  14.7781327545   10.1542302798   12.2108657575
  -1.5800622639   20.7931048406   18.5147316534
  11.8670873897   13.2128961314   16.0965212869
   1.8430474536    2.1955500915    4.6018205927
   5.3475929405    6.3938089882    1.9215955614
   5.3528434386   16.9920554379    8.6943537169
  10.0169894488   11.8832836189    7.8031548969
   5.5123203959    6.7399516900    0.2331280489
   5.3360322239    3.0713190812   15.6272778628
  16.5442120517    4.3927409571    5.1713353093
  -0.0228171999    2.6665396689    1.7757281418
   1.1281599045   18.0728851493   17.9926348687
   0.2557814672    1.5822727204    0.3813835391
   6.4487271223   14.1662669168    7.8692135459
   0.0412001357    4.4719178994   17.9365258516
   0.8178570027    1.1869115248    2.1457161732
  12.4103421123   11.7610162077   12.1398551333
  -0.4098617746   19.6455246945   16.8337184710
   6.9206629280   14.0462471775    6.1797583350
  12.9226826400   15.7681944415   14.4629600759
   5.9650460929   10.6318202444    1.0736180928
  13.7543733173   12.9046898681   12.1971348730
   2.6982086362    5.6011164401   19.1361886753
   2.4346334342    7.4706947143   18.6166656773
  11.4352036024    9.6758914948   17.7420123684
  12.1783086603   11.3428805249    7.1944608028
   0.9845691092    1.9652376374    6.1607307383
  16.7901179179    3.1142510611    6.2301433725
  10.3455291095   14.3664714142    6.4817539922
   4.6437869119    3.5331381272   17.2906354962
   5.1790778635   19.9210652413    9.1342771628
  11.8894036593   15.2313992392   15.8073648042
  12.5914410218   10.9891906674   14.2182424912
   1.9442861025   16.3977125889   18.1778141242
   2.7916204297   17.8543632278   17.4286851401
  11.1701562761   16.1868579511   14.4064105753
   7.1073493115   17.4669798644    8.8973983856
   0.2230156080    3.2416918762   16.8019957224
   2.7092698257   16.7683878000    2.0160307888
   1.1768672301    8.0346732530    6.0691849275
  13.2575450395   12.2196931029   16.5343204859
   2.3843439761    3.1386668214    5.9412924913
   6.2302485138   16.3557427121   10.0336762608
   8.7695555825   11.6272243981    6.7291130633
   4.1156394287   10.6624946862    0.9008170802
   7.2123791991   12.6674995890    7.2324130483
   4.8125200524   11.2899002364   19.1523977388
   3.9587769591    6.4696495566   18.3561385856
  12.2304887569   13.4968248527   11.7922678988
   3.0340587979    1.8021198139   19.0092129152
   3.6295584863    3.7003292641   15.9561787094
   1.2490348603    4.8007993044   16.5278792266
   2.0333646784    2.0051141132   16.1076869324
  16.7639795419    1.5717560812    3.7352996439
  15.7446567756    2.7078618785    2.7266609497
  12.9872086488    9.9633364661   16.6985232767
   3.0507947386    7.9484221739    1.6345385666
   3.2929237740    9.8433464846   19.3760894341
   1.6338061001    7.0902647958    7.6864838463
   0.8252550011    4.8154048871    7.4756001994
   1.4504041768   17.3842421068    1.0021976750
  12.3658516447   11.6886520238    5.3595996602
   7.3612860836    1.1773408152   11.4342006207
  11.9003026583   12.9166444283    6.4507239556
  11.4037513785    9.0901221238   16.0685793424
   8.8549270469   13.7652132651    5.6267200147
  14.0022959808   11.7780331392   14.4764911502
   3.9573981673   18.5740639531    8.8854629446
   7.1190913203   14.9055582061    3.4894680513
  -0.8515134164    5.5151218076    7.5346344335
   0.0766177142    7.9577649047    7.5492687914
   5.3430806595   14.6130556156    1.3332994069
   6.3017460417    3.2945275966   10.8064275017
   0.7669986899   14.8290816682    0.6180400183
  13.3426140518   18.0576508810   17.3274039255
  14.0907852428   16.7883823326   16.2817113113
   4.6355409760   15.3225102517   18.4540711645
  13.9177859686   15.5727298420   12.3310938817
   8.6152152396   13.9126617703    3.2018944990
   4.5469668874    3.2301466542   10.2381153591
   3.1592962150   18.9950071471   11.3459417339
   5.6836612232   12.5717202826   16.8364860597
  15.2534002769   14.4306223660   12.1999822291
  11.5465169996   19.4165055800    2.4805678892
  13.6477734832    1.3283849610    3.5253380244
   4.5012901385   17.1596757414    4.5352206530
   6.2962943320    0.8884501510    7.4683036051
   3.9291758354   19.2263661589    1.8056598849
   0.4114228916   15.4251083863    2.3232981441
   6.3937484436    2.1479366906    3.7138462906
   3.1265339065    2.1354156811    2.0314632486
  -2.1574909297   17.8167283054   11.1773902134
   1.1410675020   12.5433027080    2.4101165207
   2.1859042623   12.5549416652    0.8117034819
   7.0626887416   13.1024741859    3.6109246722
  12.7814277479   15.0199874284   17.5038071418
   4.9488650762    2.4674453206   11.7929528857
  13.6525946385   15.9871455868   18.7024726906
   6.5851697855   14.2631564976   16.5361769989
  12.0694899430   14.3221076969    8.1854865850
  13.0076289425   16.9378393388   10.3058122969
   5.2341610714   12.8268811093    1.6142789050
   2.8825057338   15.9784956878   11.0062955800
   5.8747883537   18.2909408108    4.3159684478
   4.5522479232   15.6206200006   11.8928833653
  13.4047381412   15.2469066209    8.9972674698
   4.6380309947    3.0884482157    1.3048900205
  -2.2862857223   16.1688429688   12.6290443714
   6.3445572399   15.6876078572   18.5713066785
   2.8468491056   12.4861020306    2.2946449501
   8.0068254658    1.2844342761    7.1008181798
   7.0080556738    0.5909915097    5.7338794192
   4.8383450041   14.1538645126   16.7000453209
   7.6105916138    4.7275437930   17.0239759201
  11.8336951271   20.0608095970   11.5549964574
   3.6835602227   14.7119747776   14.6937872398
   4.8071856452   15.7588002896   13.7052274654
  10.0855430342   14.1977450827    9.3424184874
   3.8576095945   17.2485066064   11.8289920692
   5.1766270017   17.4981022700    2.9319973565
   8.2531006407    0.6286950749    2.5673552536
  -2.0866384453   17.2489591922    9.5011800003
  13.9823423128   19.0367563728    4.1225100874
   6.6282162827    2.4467661898    1.8172205589
  12.6236192010   18.0153431488    3.4576631621
  13.0122394759   17.8932508798    5.1690209276
   4.2911288462    3.1269712697    2.9461715973
  12.0015133425   16.1869673973    8.1554421390
  13.6580085561   18.3331856176    9.3540648716
  10.2436072541   15.2453623883   12.1124073305
  -0.1322477195   18.7624854195    9.5484479938
   1.9678844318   12.0905539020   10.7773357305
  12.2870147408   13.9376250623    2.2495402340
  10.8838736713   13.2330561306    3.3115252464
  11.3252313061   18.4052166237   10.8540311186
  12.2598485195   18.2862934901   19.1684870277
  11.0480673264   16.1850157857    0.1941053076
   1.8484850675   13.4114239694   12.1264822183
  11.6837755124   18.5718744565   12.5584324020
   0.4399810751   12.9692565912   11.2607651725
  12.5883907277   12.6877979987    3.4934206962
   4.7848655588    2.6513296081    5.7623647379
   9.7370441803   15.8376186874    9.3783167902
  -2.1460753988   13.9628746001    7.8769893945
   9.2109774424   11.7640225102   10.2685719968
   5.2111622960    3.0776012518    7.4020791053
  12.3921420243   15.6122892065    1.1222778754
   5.7946785519    4.8085347920    4.9028736676
   6.0389450288    5.4120768052    6.5681942157
  14.3414509496   11.8090659168    7.9896067021
   5.1806905771   19.8087252199   14.5868582143
  -0.2784127449   19.4643175742    7.8801028428
   1.1522455784   18.3295628057    8.2646758690
   8.6105338067   15.3693476490   11.5503811384
   3.8888476689   16.8620343613   16.0292327396
   2.5931439279   17.3646092766   14.9866073537
  -0.5070805144   13.4232512938    8.3416264034
  -1.0496222064   11.4316529712    7.5922149040
  11.1362062769    3.0184966293   14.4831553742
  13.7711938133   15.7297251501    3.6092561004
   4.7589619453   19.2536392517   16.0415661648
   8.2529156584   13.1295705085    9.8571839066
  15.2293315638   11.1739464717    5.6518500324
   3.4709477088   19.7684300415   15.0418449096
  -1.1394645247   18.9187239224    5.8359014226
  -2.5233309847   18.0761434075    6.3654521370
   7.6884463646   12.0973385753   11.2670426777
   2.9518243306   12.7125078227    9.1801183677
  -1.4954024487   14.3998487475    9.4266820841
  13.2466932266   15.7175262323    5.3272282607
   3.6691809703   14.2223930464    9.8965899153
   0.5033329979   17.1675527714    6.6551191714
  11.1288140456    3.3208324193   18.9718691250
  14.6249082649   10.8995640895    9.5149378115
  -0.9884389628   16.0696280128    6.8187497893
  15.8333962452    9.5837604068    5.1620438148
   4.5029458575    6.6501392807    4.5741955494
   7.1066260752    8.4474470246    4.0485827946
   3.6513583958    7.1065581194    6.0730528268
  -1.1556263880   10.1406240053    8.9193661732
  13.8820987738   13.3783710180    5.5288945574
   0.4651876677    7.0363984131    4.2333369702
  -0.7855029366   10.7897184192    5.7620863242
  -0.7871761077   17.5139267598    2.7225751024
   0.3713754191   17.7407532746    4.1525023637
   1.8458757925   15.1353439749    7.9987760331
   0.7512556023    7.0337534469    2.4130598299
  15.2216078781   14.5894703085    5.4329448759
   3.6855317183   15.2651435527    7.8522046405
  11.2753069901    6.7916948156    3.5930012642
   6.6180615033    7.6018256252   17.1711843054
   2.6632777878    6.1680506809    4.9270023437
   1.1477069231    8.5782531563    3.2767801893
   6.8242996342    6.7769492414    3.4841764164
   8.3345977362   16.9062438479   17.0024454462
  11.2702445610    5.0772190138    3.0556590701
   7.6253772307    7.0096518417    5.0907906827
   0.8794814131    4.7660287847   11.8557452892
   8.2883613317   18.7425388582   11.3028840317
  11.5604136291   10.3735546394    3.9897282284
   8.5637584959   15.6413806680   15.7555103489
  13.2838089487    6.9699906444    6.7645273288
  11.4157982186    8.7413385942    3.2552094282
   9.2375422362   17.4218971417   11.2020743949
  -0.8126859925   19.0174551465    3.8203751305
  11.7623510604   10.6415845218    1.6390734136
  12.6382758278    6.8553384290    1.7230733624
   8.6664347744    5.2684962285    3.3205274836
  -1.1353682768   12.7414501497    5.0334878444
  12.1389453013    8.9639803740    1.1907814292
  12.3509936339    5.3587685160    0.9320568822
   9.9301357405   16.1396230731   16.8324443795
   9.6408464558    5.7444051677    4.8456510926
   7.6539243754   17.2632731849   11.9157596094
   1.8095115315   14.7970880388    5.2884798227
  -0.9374496984   14.2012145802    4.0899078191
   9.1174009413    9.5387985121   10.5197649951
  14.6728978241    8.0741139091    6.2562915231
  -1.0369501852   12.5396182368    3.3130387104
  14.9679807470    7.6999523709    3.4157638273
   3.4675704237   15.5372164766    5.7266953298
  14.7581967796    6.3067932476    5.7349324100
   7.3548928290   19.4650436805   13.1684509803
  16.0835770041    6.9223584700    4.2679359498
  11.8130795731    8.7700803890    5.8502651329
  13.0837932284   10.2473962039    0.7384114446
   3.1981262964   13.9320282318    4.7155889064
  13.4896905611    9.5026011063    5.5208990294
  11.9378886543    6.9332679328    0.1983676958
   9.4370425553   13.4457773514   17.0689329021
  -0.8657207124    8.2622183464   13.9436951202
   9.4552759787   11.9926898141   18.6821602747
   7.1910954466   18.2109559961   14.3151234600
  10.2862317267   14.5643981010   18.2115259706
  14.7928836763    5.4896315543    2.4478285756
   9.5380354789   18.8764363007   15.4183164817
  15.2385949041    6.5429240343    1.2109383336
   7.8695341745   12.8512780528   19.0196432310
   1.9051637398   10.0425498625   16.4394063375
   1.1266282915   14.7878316066   15.3333398454
  10.0756690530   18.1678220657    5.7435079088
  10.3116626581    1.8637828446    6.8188702502
   5.0236377687   11.1354100279    8.2942423408
   3.6712495581   11.2030316786    4.3694158551
  11.5275455473    1.6142886372    8.1100293430
  15.9091290552    9.4963944866    0.3424549274
  15.7519381865   11.6977083018   18.0858049659
  14.6590251502    5.2472092035   11.9649087127
  15.6628019999   13.1047344642    0.9278294598
  14.5040455055   12.0773936129    0.0486092448
  -2.6005723507   20.1071977844   11.9160352229
   2.8436469045    1.5831156699   13.7737311637
   0.2568152452   17.8604140888   13.0070234428
   1.1260794969    1.6325876403    9.8415741061
   8.1344184509   19.9770617981   15.6693856925
   4.3062655999   11.9772015257    6.9102118237
  -2.0382355786   13.9701304559   15.0453893131
   9.5672299884   17.9046541279    3.6185746023
   2.8660734902   10.4854459075    9.2825706322
   2.6949183317    9.6146153952   14.8589067119
   7.9251304595   18.9519071277    5.1397375140
  -0.1239094014    7.0235225320    0.1508746886
   1.6744440420   13.8709417556   13.9262586866
   9.0410465593   11.8099114689    2.8822210764
   1.8815374148   11.0513452039    7.9616015475
  11.2832343260   19.8057730377   14.4559091728
   4.8009217481   11.9584417671    3.4714502078
   2.7830058739   12.9096134572   16.0515420888
   1.7530654750   18.7193904251   13.1876158356
   2.8496907699    1.9227901337   10.2685684817
   9.3398774493   17.1254921208    7.1141969877
  -1.4327939766   12.4111790331   15.7904816099
  15.9061277805    3.7631526434    0.6129630461
   3.4415072203   11.0612650250   15.9034239239
  15.0425683450   11.7960381753    1.7581813414
  12.0839808248    1.3815397762    6.5130145956
   5.1519198120   10.2642343926    3.6422945770
   9.2371230425   10.1114755327    2.2646704877
  15.7946211279    6.8693165325   19.0253115694
   6.7009540385   10.5333485078    6.6849154053
  14.0928683089    2.4181942028   13.9677844354
  -0.3366167141    8.3015670233   17.7358535697
  10.7182921268   16.4591600175    3.6433348190
  16.1689095759    9.3244732416   18.3287586449
  -1.2831500795   19.4382808161   13.8110265996
   0.4829486852    2.0009212937   13.2829573551
   1.2584796520   18.0019101352   11.6267382848
   1.8798110132    3.2985568468    9.6006837211
   0.4722522882    9.5351120023    0.7844130194
  -0.2102550744    4.4447816576    0.3714028652
   0.3489733711   12.2242936979   18.8404249302
   0.9322968034   12.3914668645   16.5526195048
  14.0011025561    1.9445684708   15.6169798703
   9.2299423744   16.0678500640    3.2174343573
   1.9462284895    9.2857260653    8.2756425020
   7.1944986947   17.6100359700    5.8999704173
   5.2211140800    9.5530062683    6.2062798916
   7.8113896826   11.2134512239    1.6467723139
  -0.7782091483   13.8699662081   16.4772597641
   4.9516456441    8.8344225679    1.5716293008
   8.5121985170   14.2568680458    7.4914556066
  12.4622691211   12.9725780955   13.7455377469
   4.0814053020    1.7214018063   16.4939928898
   1.9550003453    3.5263605710   18.1021181969
   0.4623913422    6.2804668920    6.1310326003
   3.9384945507    5.3547860985    0.9245297082
   0.6041218665    3.7119404695    4.9884127045
  10.5248659917   11.4623416636    5.7869409586
   5.5389849630   18.2060773472   10.1680246633
  16.5227123614    1.0166536843    1.8091021945
  11.3753631178   11.1799982237   16.3989296427
   3.0479452728   16.2663658952    0.1036840863
  12.0777764729   17.2165620642   15.9033523366
   5.7503116081    1.3814812877   10.1314543276
   2.1507588198   14.2256936647    2.1172997772
   7.2102431783   13.8269424844    1.5871409715
  11.9550515342   19.5308688655    4.6236210006
   5.8542932482   13.6966225010   18.4830753053
  15.0901045173   15.8212263495   10.7001465007
   3.9935894233   18.9690046116    3.8950533758
   4.9688359977    1.2658784302    2.3730918533
  11.6315507452   16.2932731727   18.5986811200
   6.8128187751    2.6237567072    6.1923569083
  13.4376229732   18.8263036857   11.3076849919
  11.6161094970   15.2552573277   10.1388732086
   2.9318696178   15.7791452291   13.0062766544
   4.5581805121   17.9751119263   14.3733510299
   9.8464252373    4.3127944603   15.4933632461
   9.4569509743    4.1235336985   17.8881275856
  -0.8144943148   17.4589054478    8.1691752610
   9.5300372843   13.3738083466   11.5703660539
  12.0673060774   14.5670192279    4.2458849987
   1.6072854215   14.0066203003   10.0481306103
  15.6937867562   12.5964915693    9.5266525386
  15.7727073860    9.8196409848    7.1188555836
  11.3570868671    3.2017333309   16.9581686838
   4.0150306365    5.0520475041    5.9705294946
  -1.5687715872   17.2356848471    4.6234304306
   8.8367485442    7.3056996480    3.4629862507
   8.1182019580    7.1098958512   15.6141529905
  14.9888510965   13.3337572590    3.8643474278
   2.8218471559   13.7320277997    6.7051019871
   8.7687771121    7.8937872448   11.6665711724
  13.3025111328    7.4822114934    4.8869873453
  -0.9396811348    8.2437969601    2.9589941371
   0.3531916570    6.8027882760   12.3293452740
   8.4052452137   15.0671093441   17.8071903918
  10.5970253829    6.3672992658    1.6623605657
  13.2408288308    9.7351404518    2.7695812015
   9.0232953878   18.1916460816   13.1668337895
  16.5260898979    5.3788036059   11.3387291807
  15.8360898161    7.2740051383   12.5203378167
  16.8169537726    5.5035361607    1.6970072534
   1.7528781635   11.5313887052   14.8982348256
  12.4222537009    1.4199745664   14.3476107931
   5.7391697629   11.2386845775    5.0997938699
   7.7789887537   19.1549804024    7.2379606164
   9.6641405161   11.7498388314    0.9680580861
   0.1228387651   10.2680574207   18.3277890448
   0.0016910450   19.6058550478   12.0702524372
   1.3559204794    2.7258854661   11.5978071383
  -1.2582053969   11.5173874078    0.2540073489
   9.2351281058   16.4150312014    5.0858574616
  -0.1928399444   13.5067912340   14.4577341086
   3.5786566245    9.9567673631    7.3815218380
