B2 C140 Ca1 F48 H298 O66 
1.0
1.8951895100474427e+01 4.2415996475449912e-16 6.2651026275969195e-17 
-2.8018399720686946e+00 1.9785168976693804e+01 3.0122407960498923e-18 
-4.7930476542964712e-01 -1.0737711035536604e-01 1.9269885961546080e+01 
B C Ca F H O 
2 140 1 48 298 66 
Cartesian
  10.5576176218    2.0984062420   16.5980156153
  -0.9144242800    5.4322359355   11.8011946857
  18.7327334001    0.3314803295    1.1155114519
   8.1609579638   14.4138104713    7.2474986165
   5.6430248725    6.7388429042    0.8034341896
  14.5488300189   12.9585446204   12.5377654621
   4.0545020942    1.7906598878   15.8803771820
   2.6902883976   -0.0506907412   18.7260225843
   1.2043893195    2.9694875127    4.1208968643
   3.4513962233    0.1222381866   17.3986899669
  -0.3635683500    3.2136637738    5.8901939963
   4.1604864728    4.7314495366    0.5500262097
   2.5854009636   15.8103216870   17.7105580422
   1.3713354694    1.9251060745   18.4436109940
  12.7123617946   14.9332107292   15.4255888588
   4.6231188085   10.1628121269    0.3400866967
   6.2210744147   16.2485869262    8.9081428495
  14.2754608651   11.4576862621   15.7441787517
   9.3049581115   11.5649597168    6.6973963352
   9.9359868351   12.9269625602    6.6362241039
  14.0261663884   11.5375792825   14.2896327415
   4.5763427692    7.8028064884    0.6549795187
  12.2577734102   10.8075285533   16.8328304059
  11.4313130546   10.3693107580    6.7364909004
   0.2007436474    4.3370089041    6.7065083324
  -0.1529436455    6.8075265754    6.6478667285
   4.9271546747   18.1670891380    9.2959121681
   2.5403247748   16.1351747872    0.7539908940
  17.3643107573    0.6716257572    3.0709450903
   4.0048348418   18.7648589985   10.4208836639
   2.2313302660   15.0807637359    1.8405369382
  13.9450258266   16.1451640013   17.1955751387
   6.0292762605    1.1619011065   11.0158382661
   7.6049062558   13.0359097779    3.6491583395
  15.8966263608    0.5477072109    3.4696000192
   6.1561869030   13.7187286253    2.0312839611
   6.1117053626   14.2509918342    0.5919955278
  -0.8559526796   15.1339839000   11.4240793978
   3.3039141943   13.8119326112    3.4777105477
  14.2834141480   15.0019275380   18.0120459777
   5.6228696062   13.6453069163   17.6155242395
   4.6338402416   17.5193147496    4.3102515722
   4.7627152038   19.5821898431    3.3633597848
   6.9217250418    1.2131322580    3.4503479825
   5.0156518448    1.9743427880    2.1986670030
  -2.1093242800   17.0530907085   10.9485099894
   6.4183781367    0.9904037127    7.1007767878
  13.3914242485   14.2977401519    8.6641885307
  15.4157844611   17.2050427033   10.4744274324
   4.2015592475   15.2811509840   12.0204287565
  13.6518456445   18.2107877897    4.1791351287
   7.6219782742    2.3877956830   17.9266238637
   8.8018644433    4.3943913960   18.6968497129
   8.7354606222    3.3049390031   17.6840409473
   4.1507381439   15.4585063320   14.3622234281
  13.4007846225   18.0643544197   11.4118652627
  11.6930702036   15.3498231290    9.8871663572
   9.9221693420    2.1840283701   13.0204003621
  14.2294267579   15.6145200324    1.0534394312
  14.0773035331   12.7918473386    5.5321775324
  11.0360553677   14.7664473001   11.1794795138
   4.7736047591    2.6652769050    6.5308839824
   1.7085545573   12.5105210735   11.6667612149
   4.1916166713   16.9334109397   14.6398759414
   1.0333853879   17.9502360167    7.9005018328
  10.9799360871    2.1329315483   14.1736317482
  12.1439058326    3.1078493364   13.9105493842
   4.8739209405    4.1038199568    6.1079743958
   5.4096815713   18.9747978643   14.2209187796
  10.2602335316   12.4941004607   10.3843123397
  -0.6918153384   13.2643073096    8.4027846986
  16.9537686866   11.1939023328    7.8451911004
  -0.8962059236   17.2713235819    6.6853857881
  -0.9448065872   10.4406485663    7.0087422770
   6.4056638915    6.1239820699   14.5894186786
  15.2674619260   14.4346473926    4.4680166541
  -0.7033282059   18.3769247252    5.7117242863
   3.0639727047   12.4964030277    9.6878227097
  16.8450055587    9.9188274875    4.9468328097
   3.9779903311    6.3483426440    6.3316425860
  12.0748075441    1.0284206620   18.2417342193
   2.5950572783    4.6697010993   13.1579614434
  10.0873373413   19.5257640071   18.1861661988
  16.5259829073   14.5372480615    3.7137966350
   7.5271033701    6.4467306085   15.6649005456
   3.5361041524   13.4491635926    8.6691889054
   8.9212224997    7.4000934491    5.5728993040
   0.2403713621   18.7911073415    3.5428424841
   8.0833209759    7.8436549015   15.5448035180
  10.6728394267    7.2963340762    9.8294977258
   1.1929542523    6.1429577744    2.6247344242
  13.0975191202    2.2384277453   18.4922357667
   2.2112172545    4.7786050653   10.5911203696
   1.4533812833    4.6671484254   12.0044747033
  10.8168557658    4.9686853455    3.5106208505
   9.6387750075    5.5550664887    4.1237531676
   9.2972450554   15.5774984870   18.2219483539
   9.7243638945    7.7652657028   10.9276224491
  13.6724412344    8.0872079265    3.4278102245
   8.7129510849   17.8131672626   12.1439099203
  -0.6494557390   13.2321412034    2.9399749887
  14.7641598959    5.0386364050    5.4525614881
   8.1730450799    8.0392306773   10.4239612023
  14.7740667300    9.6441983783    2.0348331918
  12.4596619662    5.2708276605    1.7817912297
   2.7127862247   14.7827668983    6.8700915727
  13.8158795218    7.1173502247    4.6194512169
  17.8034449104    6.4357655949    2.8005153736
   9.0077477901   17.4282775534   14.6205902713
   9.5052545488   13.2667566555   17.9505405103
  16.1411084152    7.4488934203   14.2496122697
  17.3952523767    7.3020409906   13.3043718197
  17.0003953540    5.7010462915    1.7526944410
  15.6372494413    2.8361907885   11.3645720331
   9.3084902582   12.0235447496   18.6949043613
  15.9987258447    4.2484812447   11.0524059616
  10.5405598071   17.8048116550   14.6446692030
  15.7153393556    4.7102706187    9.5968492599
  -1.0641326642    8.5856879494   12.4868309878
  10.7458928286   18.7862961851    6.9888562806
   2.9448464810   10.2609575284   15.1908850208
  -1.4225415410   10.8076669446   18.9945896560
   0.9420932868   13.2597764557   15.2439282497
  16.8325884088   12.9372101046    0.1358156853
   4.7814298113   10.2388226085    6.5060386650
   6.0953807101    9.2261207658    3.6265240695
  10.0023100285   16.6449709698    4.6978448773
   9.1902182143   17.7268576301    5.4290461088
   1.9013398111   12.3067612956   16.0033279280
   2.7770715731    0.4607629607   13.0101035040
   1.4633926333    1.0848720013   12.7286538339
   1.1537395356   18.1400714599   12.5265340336
   0.5598652934    1.2654437681   10.4807734343
  10.2585872393   11.0091442652    1.5701374884
   2.5115990476   10.0397459417    6.3929232414
   6.2027855285    9.7521445024    5.9697057525
  12.3124305654   19.3533148615   14.5311761162
  -0.6971339488    8.0334097624   18.3558257286
  17.2044880986    4.1183187308    0.0687959409
  -1.1538949615   11.9641843671   15.1342684713
   0.3450161901   10.2166763514    0.1185690370
   9.6916827318   17.6184836208    2.4562961486
   9.6989796924    5.7713385254   13.6099151202
   7.4905577982    1.6763047272   16.7246524464
  10.0020669974    5.0239414841   18.5544936257
   9.3510021056    3.5584285341   12.7666318366
   7.8968569682    1.4898316300   18.8242881702
   9.2930988087    3.9563266028    0.6752023753
   6.3885703886    2.9982713314   18.2061263479
   7.8538159053    5.3338110072   18.5693979385
   8.7681514388    1.6580053524   13.4066507268
  12.5600247692    2.9651343638   12.6290451540
  10.2423457575    1.6834787906   11.8369790467
  13.1877591856    2.8640492918   14.7414467007
   5.2490001613    6.8071407609   14.6224942819
   5.8918527796    4.7740620712   14.8074437848
  11.9489618687    4.5111922634   14.0286877023
   6.8582945169    6.1724293593   13.3026254635
   3.6941356794    3.7816101207   12.8974585553
   9.0853792786   18.6202526147   17.9387078622
   3.0728248419    5.9269692881   13.3195672627
  11.8300043140    6.7728085983   10.4203564106
   1.3740619388    4.9705989956    9.5957206373
   8.6342812311    8.0538301675   14.2892663358
   9.0970524672    8.0053786977   16.4994309818
   2.0543481849    4.2429844872   14.3090033561
  11.0785756139    8.3023185008    8.8993582079
  10.9639491457   19.3308752043    0.1317252950
  14.2150400468    2.0933341404   17.7368796149
  11.0512565668   19.3828301451   17.3009905910
   3.0153744047    3.7821751214   10.3703536163
  10.2509558952    6.2672495680    9.0620658467
   7.4668042358    8.3596830362   11.5507413400
  14.0287819578    2.5368189105    0.5084145004
  12.5591636499    3.4393467992   18.2128584256
   7.1195251270    8.7813992192   15.6835472871
   3.0247810469    5.8892673971   10.7510686205
   7.6984201960    6.8858436063    9.9945852458
  16.4538472963    8.6258534596   15.0207451850
   8.0284220965    9.0801136446    9.4743249764
  14.3513635910    2.5493790348   10.9509662778
  14.9903463856    7.5449759585   13.6806688527
  16.2623557001    3.6832606993    8.7892777710
  16.3554447007    1.8218267749   10.7736977448
  16.0031076776    6.0086226100    9.2270870318
  15.9938914743    6.4117758680   15.0794039048
   0.0353577277    8.1258006476   11.7669444731
  15.6690107090    2.6224523384   12.7055665892
  -0.7641517066    9.6833236054   13.2582248860
  14.4112012179    4.6511629717    9.3544636726
  16.9981443896    9.0192709420   11.6526771146
  -0.9251246000   19.0048537579   18.5447941154
  15.1193887980   12.1908421254   15.9399607609
   1.3300442419    3.0755949040    3.0198848584
   6.5239444332    7.0724096063    1.3821044306
   5.8775982907   16.2203525697    7.8715884005
   9.1197027827   11.0725076283    7.6478653643
   5.5675591508    6.3993640322   18.9596821134
   4.4253973314    2.7214363297   15.7131101037
  17.5066665020    3.1283773999    6.2057379296
   0.4838399605    0.9178640743    1.6849308047
   2.5090296363   16.8437948375   17.2933104998
  18.5385987898    0.9318344480    0.1353702546
   8.2161843053   15.4664955307    7.4547030562
   0.8037893050    1.3992933103   17.6334267639
  -2.5344677957   19.1999977483    0.7475156662
  13.6459185830   12.5584524159   11.9556466915
   1.4501286137   19.1680158669   17.2708104263
   7.9703244399   14.3671040839    6.1556437717
  13.6848105475   14.7184003558   14.9704145777
   4.9212953391   10.8655284454   19.1909963752
  15.4402284596   12.4564955330   12.1072237955
   3.8750250937    3.9286009170    1.2450716066
   3.2798393628    5.3814191122    0.3791839230
  12.6580756031    9.7675029438   16.8969813939
  12.2220942534   10.1976644890    5.9712691932
   1.3389586601    1.8623820917    4.3199004795
   0.1524903709    2.2958460126    6.3867844613
  10.9997136404   12.6746605294    6.8781969898
   2.9887887226    1.7070023545   15.4406692426
   5.8104199305   18.7677009875    9.1520336850
  12.4894498221   13.8516438107   15.7685226341
  13.0312796537   11.2832204501   14.0460887289
   1.6824137635   15.2519332227   17.5230437343
   3.4055021824   15.3443602641   17.1363879456
  12.0622957922   15.3010340859   14.6921056332
   7.2218715454   16.7664611562    8.9837071846
   1.9063688214    2.6220313601   17.9320407817
   2.8272618029   17.0582613748    1.2756770513
  -0.9439972724    7.5417862831    6.4425905540
  14.6465839545   10.4665928425   16.0690614324
   1.9458817511    3.4528193088    4.7977063528
   6.3410710118   15.2453808215    9.3359071584
   8.4067964295   11.3585950806    6.1370919041
   4.5543358273   10.1330624323    1.4235824939
   7.3833890519   13.9596774342    7.8523809041
   3.2455803795   10.1913177013   19.0382041449
   4.0812779643    4.2805185864   18.8911802686
  14.5457955645   13.9843121658   12.2516611132
   1.1561256490   19.3676751204    0.1763114943
   4.7755767278    0.9378988839   15.3579369148
   0.7462999519    2.3989180855   19.1104252475
  -0.0545305313   19.6795221394   16.6006285258
  18.0974179457    0.3188477022    3.8346167614
  17.4956456291    1.7121087111    2.8032798175
  11.3511143399   10.7978362817   16.0065238700
   4.1601826742    8.1969046689    1.6291932680
   3.7511206210    7.3804957459    0.1448020982
   0.7420050777    6.7416272233    6.1043862256
   1.1574494850    4.7977648393    6.3477471260
   1.5899571354   16.3170289538    0.1183864618
  11.7728233046   11.1232814690    7.4447125456
   4.5888127455   18.7802701026   11.3097388419
  11.1177367274    9.4048884585    7.2109055332
  11.7707460309   10.9257137447   17.7451949809
   9.9689577843   13.2023625023    5.5406923123
  14.7578368814   10.8128990739   13.6695276996
   4.2599612475   18.0634368679    8.4151489044
   7.8627579580   14.0518180133    3.8782533387
   0.3934852710    4.0882285844    7.7740116898
   0.2712672094    6.8728741987    7.6193242617
   5.8413520025   14.5368145943    2.6983492558
   6.9117884234    1.3975082840   11.6163395158
   2.1185542055   14.0131575239    1.3480757721
  13.9181707553   17.1324842740   17.7258594033
  14.7734955222   16.1476692117   16.4041821696
   5.2146746014   14.8597651280    0.4215865169
  -1.6098442678   14.8802797518   12.1246379752
   8.4333927999   12.3842010296    3.6354540331
   5.6184718867    2.0180558769   10.4732765503
   3.0932154610   18.0649809106   10.5438573695
   4.9163086011   14.5023813317   17.5438765142
  -0.5292188401   14.2014226708   10.9553666981
  15.5252380312    0.6442976476    2.4598555659
  15.7746363837    1.6025853338    3.9831596355
   5.6943106027   17.2901700975    4.2686604084
   6.6175217253    1.3978157251    8.0421236644
   4.3391209607   19.0345641536    2.4588328029
   1.3595918680   15.3097210631    2.4135724755
   7.2251190661    1.7871472168    4.3113890449
   3.9518509357    1.7191706653    2.1222591670
  -1.9077357912   17.0509544520   12.0286713582
   2.6655609320   13.9848066923    4.2797211877
   3.1067721893   12.8253956394    2.9254937979
   6.7723609045   12.5411637212    4.1752418083
  14.1769864964   14.1916698919   17.3453396389
   5.4001842599    0.5968140712   11.6714908783
  15.3120626119   15.1929382769   18.3824377916
   5.2133542411   12.9371365216   16.8845393729
  12.4723358726   14.3311101742    8.1633284894
  14.6897415977   16.3368750426   10.1169020587
   5.3754341128   13.0432013606    2.2705851054
   3.5065341795   14.9777648542   11.2654216772
   4.3249125538   17.2356138993    3.3359933367
   5.0668521957   14.6343011704   11.9188481803
  13.6363276421   13.2677505658    9.0420032539
   5.6871545156    1.6287363956    1.3986390733
  -0.0348257914   15.6269919637   11.9871659859
   6.9927852695   14.8941093340    0.4176095759
   4.3214390414   13.5333818253    3.8570830105
   7.3123099649    0.5179453138    6.8660865424
   5.6045719157    0.2387199762    7.0428853254
   6.6595880409   13.9826624237   17.3717324940
   8.4741929057    3.8802027731   16.7560776509
  12.9417280714   18.6287567950   12.3037043101
   3.5276137910   15.0864240419   15.2450333127
   5.1731307869   15.1302674504   14.3568252061
  11.3313739981   15.0534661740    8.8485146138
   4.4559130856   16.3700154287   11.7981966319
   4.0830774091   16.7968508338    4.9548415984
   5.8317230200   19.7081747010    3.2623798593
  -1.6953497911   17.9764136225   10.5802573035
  14.3137454570   18.2390923745    5.1536374817
   7.2775151799    1.8511865585    2.6268616359
  14.2672605968   18.1826380610    3.2239205593
  13.1659953069   17.2197893443    4.2292403202
   5.2139736984    2.9995104113    2.4732281242
  14.2952446101   14.5974602754    8.0813525146
  15.3650854356   18.0638647246    9.6603464938
  11.5680193461   15.2395021976   12.0662099556
   1.3090854778   18.8155461341    8.5942626135
   1.0412474902   13.1657958436   12.3495203884
  14.0889838353   11.9602508312    6.2480180231
  14.1203701924   12.3179576115    4.5533507748
  13.3017503996   18.7991798770   10.5636406555
  13.7767473379   15.2086934772    1.8859831663
  15.2776003348   15.5599577645    1.3713017278
   1.1398957917   11.5306829376   11.5664606906
  12.8310064038   17.1999250615   11.1860290214
   2.4092164907   12.2609610450   12.5495797893
  13.2391838961   13.3706325358    5.6599131188
   4.1115891481    2.1382567920    5.8709027992
  11.4303524167   16.3860228476   10.0578513706
  -1.0834146879   14.0778753939    8.9987829891
  10.3626744879   11.4777433901   10.8951438399
   4.6130550860    2.6616893143    7.6562573176
  13.9267758847   16.6672391258    0.9198147107
   4.9932294261    4.0391252207    5.0035320232
   5.8440076249    4.6108384334    6.3712856012
  16.3739642070   11.8049830741    7.1773713184
   6.3013539071   19.3452149682   13.7012550281
   1.4556527805   18.1177369238    6.8773224117
   1.5425963884   17.0596449889    8.4325852184
  10.0039646592   15.0892643408   11.2923212770
   4.0530712693   17.1934471500   15.6860492073
   3.4072627882   17.4342436220   14.0049965651
  -0.8487393732   13.4399722178    7.3630836926
  -0.2772345777   11.1597034489    6.4822560908
  11.4421106097    1.1000027125   14.0218006042
  14.5615945866   14.0217750291    3.7735697548
   5.3021063694   19.5563630691   15.2248594781
  10.7938872596   12.6296739597    9.4376995707
  16.9200169977   10.9739484922    4.8105512466
   4.3936363891   19.2446178544   13.7143531740
  -0.0520961895   19.1854559442    6.0561430165
  -1.6936369994   18.8135190547    5.5574920362
   9.2456590191   12.9327027067   10.2933384436
   2.5513209610   11.6320385244    9.2295918296
   0.3696704075   13.2899060685    8.6559835422
  14.8874895986   15.4055449745    4.7568907259
   3.9491964750   12.0907781812   10.1610380923
  -0.2615967663   16.3889463839    6.2493586244
  11.2536100374    1.1275369401   18.9361926165
  16.4425218481   10.3773535616    8.3651691401
  -1.9050206295   17.1219982184    6.7581132347
  15.7466420008    9.5847757613    4.8761980457
   3.2758227393    6.8567262692    7.0681241382
   9.2992794155    8.2675764022    6.0722741907
   3.8048428791    6.5626140701    5.3114895855
  -0.4672188337    9.8455079721    7.7702596403
  -1.5441657713   14.8761378955    4.2922347800
   1.0714651640    5.9558011075    3.7268188804
  17.4915738457    9.4444709832    4.1860504273
   0.0353105001   18.5157581233    2.4403117873
   1.2822074643   18.9599656780    3.6534744661
   3.6675813681   14.3431468009    9.2599198268
   1.1627342636    5.1599280393    2.1665582924
  16.2697795345   15.2108102038    2.8814578821
   4.4543627599   13.1039039897    8.1688358439
  11.6490985945    4.7023626314    4.3210243175
   7.0488300091    6.3760186658   16.6399709066
   5.0680525830    6.5848983743    6.5736334789
   2.0827600494    6.7165396884    2.3527063925
   8.3557943415    7.8520138187    4.8227836724
  10.3742263630   15.4533478491   18.7079239076
  10.5096619356    3.9348097716    3.1428438332
   8.3698026229    6.7092541202    6.1760557027
   1.1000794929    3.6874003267   11.9721516427
   9.1474427046   18.8273913938   12.3650351333
  13.0094901062    8.9329613883    3.8373200384
   8.7507235558   16.4354766391   18.6202076553
  13.8269890042    4.6589450185    5.8739803471
  13.2103884063    7.5258464844    2.5753173443
   9.5706819393   17.2820926144   11.6178083884
  -0.3476838807   19.6942218761    3.7459671108
  15.5326966715    9.5874220925    1.1641876854
  13.4798834152    5.4341362277    2.2834418109
   8.8624677912    5.7352414071    3.3783117597
  -0.1304301154   13.3304623614    3.8925476539
  14.9996031985   10.5250902352    2.6478072107
  12.4219520939    4.2178584684    1.6526160940
   9.4649089373   15.7658190110   17.1959632353
   9.1616949748    4.9055658250    4.8735159193
   7.7829698891   17.8286229468   11.4553682945
   2.2992962881   15.5706401158    7.5747076864
  -0.4051195799   13.9797152779    2.2249926274
  10.1603740220    8.7551083116   11.0764861398
  15.1874258946    5.6012777241    6.2519798227
  -0.4534414695   12.1773861747    2.6241809010
  17.2435442562    7.3132793360    3.1450133657
   3.7038347950   15.1300860065    6.6159663844
  15.5621183613    4.3277801652    5.1088414583
   8.4096937904   18.1972564577   15.2165566374
  17.9793052555    5.7395304151    3.6868576188
  12.7976045686    6.8778872556    5.0369832845
  13.7307794195    9.5514768143    1.6641448006
   2.0182092514   14.6500486679    6.0620991305
  14.5202451183    7.6313856755    5.4058841691
  12.4521436601    5.6820935506    0.7642948408
   9.1304767221   13.2118069619   16.8945826216
  -0.6694388515    6.8659997187   13.8650731785
   9.3667809774   11.0881921723   18.1032313007
   8.9577802057   16.4595794648   15.2422035605
  10.5970653386   13.6275128706   17.9622319557
  16.0641121805    5.1958053904    2.2197608260
  11.1176930963   17.0330803128   14.0145762262
  16.5172311742    6.4646579008    1.0319301138
   8.2109113342   12.1065712628   19.0117382410
   2.9581368897    9.7861360239   16.1081983695
   0.4825190047   14.1412931838   15.9083270471
  11.0443999242   16.8675872114    4.7637380995
  13.3366195235    0.1123707294    7.0403694194
   4.8778141568   10.2648976544    7.6262342636
   6.3743273334    9.6582732948    2.6735479804
  11.2351616330   18.6473128754    8.0322166200
  17.1701841017   10.4663969436    0.3105532198
  -1.5891619299   10.8891270952   17.8923724847
  15.5749063475    4.8574858241   11.8068650316
  -1.8588615362   14.0377704241    0.1789341019
  15.7512646515   12.6475827995   18.4571140600
   0.6467757066    0.2353992427   12.6943454099
   3.5634083297    1.3375114239   12.9096972018
   0.7226665856   17.6410387292   13.4405122579
  -0.3670038160    0.7170828037   10.8217027453
  10.8183828505   17.6107825165   15.7142137773
   4.5888732380   11.2882791650    6.2159524809
  -1.8356925957   11.6972005536   14.3314275405
   9.3952681765   17.2379039332    1.4455775552
   2.4483976756   10.3861739343    7.4936188963
   1.9690866018   10.0144010790   14.7242976402
   9.2596929509   18.6734342959    4.9547724839
  -1.6116481046    8.5298752755   18.0794019596
   1.5475985422   13.8696806709   14.4687599940
  10.6392843944   11.3605306193    2.5150678012
   2.4145859546   10.8292024524    5.6298108469
  15.5484520469    0.4597767706   14.1011649256
   6.5198901612    8.1794848985    3.8436698314
   2.3835364507   12.8648175294   16.8548329553
   2.1312918167   18.5552145852   12.8559305422
   1.0701279490    0.4556606097   10.0212411232
   9.8592001597   15.5875581081    5.1138512225
  -0.8631936606   11.0270979907   15.7532978056
  17.0803884704    3.0510201082    0.5560330399
   3.7475581552    9.9823162853   14.4948964355
  16.2655510140   12.5793878754    0.9436752804
  11.5353380416   18.6392181947    6.1779133646
   4.9808319433    8.9764981067    3.8002064980
  10.5713505022   10.0509917559    1.2535942628
  15.8586819276    4.5652255047   19.0513354606
   6.8128316054   10.2505279727    6.7105314354
  12.3449574205   19.5742955575   15.6240707374
  -0.3376679105    7.6356850146    0.1302504443
   9.1511350738   18.4625669504    2.8078914379
  -0.3569835570    7.3024089750   17.7118325047
   2.5737751836    0.1026747873   13.9922026790
   1.2166795847    1.7506781601   13.5727922178
   1.3176452412   17.4569007563   11.6468383562
   0.3257970751    2.1475512592    9.8562642543
   0.3478545020    9.8565243797    1.1237697928
  17.4162521751    3.8634770585   18.4705470696
   1.0731672787   11.0346981358    0.0549307417
   1.2923281116   11.5639535974   16.4765206077
  13.0133525278   18.4301883677   14.3898365265
  10.8402953193   17.6752309736    2.3349233030
   1.7022961121    9.3947791545    6.1229993689
   8.2256618429   17.5414504313    5.5821091396
   6.2921470930    8.6458590279    6.1278365641
   9.1625807746   10.9951184222    1.7061611305
  -1.6752919573   12.6800702525   15.7895544360
   4.7082362990    8.7904237800   19.2260907198
   9.4970860483   14.0424280970    7.4456972618
  14.4310532088   12.8761192417   13.9184060758
   3.9187056140    1.3971828427   17.2651783816
   2.1927320676    1.1335123635   19.2667028834
  -0.6892752233    5.4996489464    6.4638455080
   5.2351436439    5.4651204228    1.2946764322
  -0.1301648202    3.3345048178    4.5256076676
  10.3114468775   10.8960618388    5.9227852629
   5.3399123237   16.8806720718    9.8048547746
  14.8450503357   19.7008099551    1.8945126615
  13.1952088343   11.8714706278   16.5900477241
   3.0454412623   15.8131121393   19.0439955455
  12.7508894543   15.9487528486   16.5317730837
   6.4799981612    0.3194238103    9.8904271269
   3.5434967506   14.8671802899    2.5418221429
   7.3979723738   13.0671943855    2.2239343825
  12.8339815280   19.2813302192    4.3396243244
   5.6351800662   13.0947700977   18.9219177889
  -1.4000588212   15.9206156584   10.3924470300
   4.3546292214   18.8995340351    4.4901558213
   5.4931729320    1.1505540093    3.4127459813
  13.4183052062   14.7172357383   19.1372643900
   6.1305393542    2.0218280221    6.2334635174
  14.7374419587   17.7822058998   11.7001533946
  13.1058453602   15.0938809190    9.7807850020
   3.4988506366   15.1416808345   13.2114055862
   5.4989526635   17.5687253701   14.2755237727
  10.2420428650    2.5417674773   15.3598964966
   9.9765168464    2.6103796018   17.6535711171
  -0.4511554055   17.6214894885    8.0123535102
  11.1021066869   13.3169298724   11.2826108914
  15.2748300786   13.6026923807    5.5487464071
   2.2488548377   13.2509889385   10.6014047003
  -1.3737593261   11.9955369034    8.8918091874
  17.3876178549    9.3652281247    6.2113217418
  11.5829590721    1.2202818328   16.9189135477
   3.8057773068    4.8746547390    6.5537634743
  -0.2908387183   17.7760866130    4.4470333092
  10.0009811505    6.7324966698    4.8618679929
   8.6055581840    5.6564490933   15.4462632866
  16.8036067363   13.1896873740    3.2537138680
   2.5928327532   13.4722471038    7.4942613743
   9.6968433608    6.8967060166   11.9092886172
  14.5136800344    5.8764702129    4.3123201431
   0.0805654195    6.9682123101    2.2581827092
   0.3957696773    5.6157938264   12.1519192763
   8.6830036930   14.2591972982   18.5814683200
  11.3487265387    5.8326546898    2.4587470734
  15.0144652701    8.5299096574    2.9222817968
   8.3364969986   17.2227292066   13.3303355474
  17.4114512736    4.4215826854   11.1243912598
  17.0988638908    6.3398315026   12.3440702963
  17.9490466481    4.8186372827    1.0507294619
   2.8540298160   11.7685597920   15.1645663496
  10.9831023223   19.0661451288   14.1624327311
   6.5089290779   10.1997303979    4.6292260660
   9.5515936183   18.0145079391    6.8648503332
  10.6894271072   12.0251253469    0.6219319979
   0.2272751114    9.1140300893   18.4727088352
   0.2890718698   19.2051688596   12.0590652175
   1.3557188967    1.7991919444   11.5357782681
  -0.8454383439   12.2806229164    0.0509633660
   9.4509328274   16.5638257639    3.3785143739
  -0.0067045478   12.6050292026   14.4206016367
   3.7253039766    9.3801076217    6.1493686532
