B2 C140 Ca1 F48 H298 O66 
1.0
1.7789013441795564e+01 2.9214443623717607e-16 -7.9618933638730511e-17 
-2.8496552211075579e+00 1.9251606468590797e+01 2.0153261621997163e-16 
-7.5958151930533391e-01 1.2889058015672807e+00 1.9525873581946129e+01 
B C Ca F H O 
2 140 1 48 298 66 
Cartesian
   9.9235716505    3.5050822161   16.8036346601
  -1.2695605707    6.3141325127   12.1333673741
  -0.1371925152    1.4619299645    1.5248146585
   7.0113072381   13.7089004429    6.9722459468
   4.8401740285    6.4417063449    1.1542867651
  12.5173904497   12.4641230655   12.4591166553
   4.2358029264    2.7106856501   16.1621099457
   1.9174030000    2.0247946416   18.3329725055
   1.3199012727    2.8219066529    5.5011425885
   2.3464428632    1.3769262700   16.9493713113
  -0.5601028397    4.0508243697    5.7972030098
   2.9367525864    6.3376540926   19.1790928935
   1.7839982617   17.0736896953   18.4858381298
   0.5969677342    3.8984664070   17.6914111621
  11.7235499175   15.8046208100   15.1647703374
   4.7447332426    9.9871116046    0.6838010962
   6.2454196070   17.2774704588    9.3587801532
  12.2847206006   12.0850165720   16.1781524389
   9.5521021754   12.0463475754    6.6929155719
   9.4278762176   13.5260749328    6.4261158694
  12.7857286433   11.8394918804   14.7524685834
   3.8822377824    7.7566802702    1.1223895552
  11.1985475890   10.0144261813   16.8410000839
  11.9571684429   11.5648100190    6.1518244593
   0.0228341508    5.2068987030    6.7288668703
   0.9071953317    7.2754923697    7.0209435801
   4.4834527543   18.8412123022    9.6227880853
   2.1925859228   16.4029914614    1.1972043667
  15.8759320566    1.7671772338    3.1740946728
   3.4819947156   19.3293437862   10.8131352179
   1.4521204480   15.1568490047    1.6277895130
  12.9464870983   16.7946118839   17.0830728221
   5.3300340554    2.2494373032   10.9008648341
   7.4418213790   13.7832937461    3.0167483964
  14.5960452184    1.1194347089    3.6276189715
   6.1231711069   13.6183018874    1.0179289555
   5.3992815859   14.8695395597   19.0735649529
  15.0015118437   15.2667946655   12.1473144215
   2.1528886060   12.8859763725    1.8225523706
  12.5310930752   15.8103787053   18.1820017737
   5.3886154077   13.5457060614   17.1457483252
   5.0768273588   17.8270619479    3.8962767119
   7.2038700404    0.4540303130    2.6540641765
   6.2162788343    1.6089854507    2.6493982989
   3.8570160781    2.2188477875    2.3547375831
  -2.7084945644   17.1357580541   10.6006658438
   6.7393535556    1.2613114534    6.5923832798
  12.0681502007   15.0154316517    8.9006421168
  13.6370988564   17.4750718264   10.5156609780
   3.5898987944   15.7460052423   11.9480427203
  12.9719203610   18.3848323165    4.4373687972
   7.0318418157    2.5228394982   18.2871253631
   7.5144786570    4.9374038179   19.2110960069
   7.7525173579    3.8627281416   18.0852308380
   3.5687774220   15.6149962063   14.3056762233
  11.9484750416   18.6055362301   11.7550212650
  10.0276101735   14.9377043338   10.1534114470
   9.1944541671    3.3213361318   13.3001287382
  12.1451754763   15.7274546143    0.3919099004
  12.0563960856   13.4952068859    3.2425175325
   9.3712423807   14.4197707449   11.4577734263
   5.3631242730    3.1713594926    6.4474650563
   1.5249590069   13.0265648610   10.8977753531
   3.5383270306   16.9515987847   15.1384373530
   0.2339222366   18.4492638744    8.5132634349
  10.1558581464    3.4282998551   14.4279853492
  11.2009167416    4.5975642344   14.1281867589
   5.4400299029    4.6901112791    6.1809089962
   4.4169960115   19.1709120118   15.1870919390
   8.5170024737   12.3481183953   10.6999151326
  -1.3680033128   13.5089496307    8.6886991268
  15.1138893406   11.5992939850    8.5963103512
  -0.6830283787   16.8140369429    6.8830189123
  -1.6698994760   10.5364988348    8.1135268752
   5.5474399469    6.7542256529   15.4922128160
  13.4962424881   15.0140262577    4.4816023989
  -1.3933122189   17.8044067289    5.9554043896
   2.8529560976   13.6793802506    9.0370206743
  15.7919321134   10.2180378778    5.7669517611
   3.7120304075    6.2372053011    5.4179689361
  11.4291941726    2.6633237732   18.4404699412
   2.0453858442    5.5241923997   13.3965093327
   8.8205620027   20.3836191314   18.6510218500
  14.5346506991   13.9179350655    4.9440429134
   6.8056180208    7.3343761947   16.2329152882
   2.7215922225   14.6432703282    7.9085067646
   7.4349283181    7.4275972963    3.9874522482
  -0.4637609252   17.9334543345    3.7148178596
   6.8425202471    8.9204852327   16.0152070803
   9.5110643845    7.7423192486    9.4785941046
   0.3751846074    7.7472376802    3.4572845284
  12.7074635651    3.5083100558   18.7482758265
   2.0424821233    5.9528160953   10.8286915240
   1.1747012421    5.6844432955   12.1153662064
  10.7716854207    5.8729674257    3.0629967834
   9.3647910299    5.9426382623    3.7884212185
   8.5747030105   15.8805615938   17.0936329578
   8.5853792128    8.4864804381   10.5658678889
  11.9371104812    9.1475470900    3.9381847418
   8.4434440544   17.5197642044   11.7235400543
  -1.2687528176   13.1163406760    4.0659494341
  14.1861547222    6.9525041866    6.1249521619
   7.2018020457    8.6150512014   10.0335945369
  12.8810267983    9.6058921081    1.7412695791
  11.9164189305    6.2306110513    0.9695009631
   2.8646061221   14.2757014701    5.4934483762
  12.5023593031    8.6292299986    5.3483647817
  15.8856628356    7.0655632737    3.4079905362
   8.0398256108   18.3739176972   13.9413882241
   8.9712722592   13.7251859636   18.0934978593
  14.6914424437    8.2299775557   14.7732054953
  15.8289760407    8.2532219269   13.6154643510
  15.7744576971    6.1112173691    2.2576176430
  14.9656718236    3.3017156517   10.9556099850
   8.5454456879   12.6028480037   19.1094393044
  14.9358964103    4.8306529054   11.2089951538
   8.7399576979   19.3033010405   14.9517178727
  14.1752721995    5.5449393730   10.0573242935
  15.7247255710    9.5757189946   12.7081761083
  11.0957682898    1.0981201435    7.1414034209
   2.3943442796   10.2163078543   15.7875402230
  -1.7688296864   11.3954704377   19.3065857789
   0.7587216804   13.5381785618   15.0562147377
  15.5296957418   12.0744764148    0.6831373289
   4.5770609336   10.7764345418    7.3215550299
   4.8403394045   10.9616908790    4.2717509677
   9.0763068862   17.1878854542    6.0217674013
   7.9426161211   18.1083872432    5.9188786918
   1.3755318584   12.4785839311   16.0223624416
  -0.8286609469   20.0599959667   13.2416530009
   0.9522950119    1.5465704900   12.4771001070
   0.6992901024   18.2482835147   12.6687260942
   1.2939549112    2.0752191588   10.1141624800
   9.1139105047   11.0250776309    1.9633443367
   2.4468705990   10.2284707591    8.3526087487
   5.6795178230   10.2831481399    6.4348320126
  13.5840739786    1.2999292067   14.6641311953
  -0.7410661672    8.8008495655   18.4920906949
  16.5922641851    4.7689655106    0.7100489836
  -1.4679332428   13.1597488756   15.5578814474
  -0.3881596743   10.9136992878   19.4885994212
   9.6516219104   16.8427141135    3.7513956323
   8.2427665469    6.7573861196   13.6261264695
   6.8808588291    1.8770814119   17.1348837242
   8.1725141386    6.0814357260   18.9653143149
   9.0340411567    4.5406738483   12.6165254601
   7.8699945256    1.7767721176   19.0579721547
   8.6577130362    3.1730920702    0.9087434853
   5.8741482944    2.6543570644   18.9273260564
   6.2271063191    5.2183208117   19.3805680263
   8.0441521465    3.0142097366   13.8741430358
  11.9996880283    4.3107872759   12.9648341871
   9.7218403531    2.4225391256   12.4317733774
  12.1970739783    4.6014447488   15.1176415426
   4.3571624301    7.1157845913   15.9608876895
   5.6003137486    5.3719154752   15.6321324081
  10.6199744117    5.8135925665   13.9663247442
   5.6514297425    6.9312261028   14.1714768472
   2.8635331115    4.3940784014   13.4005561030
   7.8818080561   19.6834631636   17.9635931876
   2.7435205250    6.6759614069   13.6029854645
  10.7451519456    7.8366555775   10.0404143354
   1.2916778429    5.6249497112    9.7987088041
   6.7882559445    9.2146728745   14.7021523267
   7.9435710439    9.3848737460   16.4970174974
   1.1569995805    5.2240172725   14.3728008396
   9.4550210529    8.1022998016    8.0992061830
   9.6203369363   18.6912884039    0.4618806267
  13.5126213273    3.3359154489   17.7273789621
  10.0577955464   19.9430945421   18.1853744363
   3.0349841049    5.0337854697   10.8199207114
   9.1506501026    6.4361026901    9.4850750047
   6.3676327680    9.1674183267   10.9177778332
  14.1796969076    1.9307354485    0.2851941358
  12.3719341553    4.9171105312   18.7345780637
   5.7912497359    9.7975164264   16.6029948453
   2.6102541745    7.1048355708   10.5910467909
   6.5951662899    7.5026966280    9.5565325018
  15.0503392939    9.0548622639   15.7974980673
   7.2232340472    9.5289994012    8.9149230122
  13.7805316518    2.5975635113   11.0505039197
  13.4714346087    8.5424110295   14.2332829144
  14.5708752687    5.0723074448    8.9241745233
  15.4354707135    2.9309746685    9.7822243239
  14.5932401158    6.9069268805   10.0153413173
  14.5843541816    6.9134695866   15.1662493707
  -1.4869697404    9.4270726358   11.5035889776
  15.7523649469    2.7933582120   11.9834062974
  -1.3812406813   10.5540356768   13.3725884440
  12.8397945581    5.4142425843   10.2126704228
  14.4343462107    9.9871366310   12.4340559190
   0.9724921317    1.4748980273   18.4591430897
  12.1628084620   13.1052277125   16.6511485972
   1.9285619435    2.2561461621    4.7737320326
   5.3170935174    6.4336616958    2.1615685456
   5.5461411836   17.1867110337    8.5355846008
   9.8460612323   11.8616972258    7.7627673148
   5.5911241069    6.7354121884    0.4191148928
   5.0657222126    2.4387098211   15.4637603146
  16.2542049794    4.4145484021    5.3878439189
   0.1162909190    2.5251488193    1.7679791848
   1.0235824936   17.8084903646   18.2160223557
  -0.0194717140    1.4458705969    0.4196679977
   6.3540121360   14.4458956494    7.5981933721
  -0.3495088234    3.7672803453   18.4276756229
   0.7880834665    0.7538016098    1.8675525780
  12.2427042196   11.3703767688   12.3372434248
  -0.5393446619   19.5335558808   17.1075015156
   6.7006182817   13.8013844937    5.8813098040
  12.5058242894   15.0546170373   14.9617828301
   5.6072465095   10.6378866818    0.7864336345
  13.6265184366   12.7321746958   12.2872122605
   2.6421802442    5.3105160330   19.2063100697
   2.0550914743    6.8945262099   18.8225315588
  10.8151724070    9.7959683255   17.8984886465
  12.1675981391   10.7406981007    6.7637556358
   0.8420080469    2.1983893974    6.2894783241
  16.8866690761    3.2601284263    6.4953029199
  10.3733646499   14.0235679413    6.7109579174
   4.5843598596    3.3320654637   17.0336592000
   4.9009865754   19.7588982136    9.1214886388
  10.8625575200   15.3351838711   15.6826851419
  12.2038919582   10.8877226788   14.4140744110
   1.3904490092   16.0379190574   18.3465177021
   2.5329120914   17.0323555250   17.7135803014
  11.3741373232   16.3038251192   14.2932642711
   7.2517542822   17.5012839049    9.0739803554
   0.2997730796    3.2290432023   16.8276489677
   2.7237298784   16.5817776156    2.0832082667
   0.6169867900    8.2251004006    6.6474449774
  13.1171870461   11.6317186013   16.7490751299
   1.9811310363    3.6366330984    5.9962339445
   6.3033789720   16.2714514847    9.9071542486
   8.5914577490   11.4580155446    6.4390449455
   3.8318419617   10.6694894201    0.8181727139
   6.8650381398   12.7086925746    7.2284020440
   4.1121387207   10.9747675195   19.1305494411
   3.7547419456    6.6183968427   18.5452305820
  11.8254681759   13.0892016911   11.8196488863
   2.3796811897    1.5515707669   19.1966535280
   3.4528911376    3.2941115894   15.8030839578
   0.7917786266    4.8600928093   17.4306838506
   1.8049531293    1.7868356335   16.0736197740
  16.6914816001    1.9014302640    3.8797339195
  15.6458021268    2.8877104316    2.8837796539
  12.2015401286    9.7931434759   16.7471938226
   3.1625933056    7.6756988402    1.9214113628
   3.4470994817    7.8932307745    0.1962576238
   2.0214218464    7.4743500439    7.2175982001
   0.8357633011    4.9279481760    7.3865903621
   1.6185497440   17.3142648122    0.9567687269
  12.3979610669   11.3706464242    5.1064359463
   4.0965736294   19.7486015050   11.5579054353
  12.3291600426   12.4495740096    6.7785218990
  10.5229684420    9.2812412271   16.3127183165
   9.3804726762   13.8116655217    5.2763803570
  13.9557412112   11.7580203280   14.5644132040
   3.8257312013   18.2737929018    8.9268186796
   7.2453799541   14.7919619198    3.4899139643
  -0.8295946841    5.5921398896    7.3588086781
   0.4736300814    7.2576098640    8.0847224589
   5.5898122760   14.4990088755    1.3948169916
   6.3327131398    2.6749459754   11.0997918965
   0.8368284020   14.6604225145    0.8278193502
  12.9722325917   17.8291403595   17.4438961163
  13.9244950733   16.6015321220   16.7909316032
   4.3833812993   15.2775748258   18.9014117597
  13.9266061432   15.5788620016   12.3532839439
   8.3443352232   13.4543552595    3.5183905904
   4.6778465425    2.8541618882   10.3221153746
   2.8369910648   18.5190032910   11.2173327013
   5.4780520019   12.4861581384   16.8949308659
  15.0584690745   14.1372203279   12.1709481846
  14.1506417738    0.8998649889    2.6662146462
  13.8641174717    1.7420040457    4.1749530257
   4.6454204999   16.8937420322    4.3842480928
   6.0695634525    0.9559362564    7.4103932884
   4.4292948376   19.2538021676    1.6577945034
   0.6187622024   15.3242642975    2.3072022983
   6.2269093322    2.0648388220    3.6265834093
   2.9455058994    1.6901528525    2.3323140028
  -2.2983196569   17.7837020178   11.3518650134
   1.2625342124   12.6161972821    2.3418714702
   2.3556530221   12.7920793755    0.7455496543
   6.7334339885   13.0799246465    3.4323200561
  12.4274608518   14.8671372047   17.7272346368
   4.8832646759    2.1429139705   11.9014710307
  13.4007804019   15.8199811993   18.8870332724
   6.2124815830   14.0623343030   16.7130164266
  11.8586222932   14.1215337025    8.2975865172
  12.9084322585   16.5812870145   10.5227047841
   5.5997028966   12.7313485479    1.3588680818
   2.8411466369   15.5917665717   11.1436411539
   5.7767409270   18.2753799154    4.5253259999
   4.3176080688   15.0001404831   11.7266124474
  13.1334812334   15.2288582725    8.9551659388
   3.8196358222    3.0554645021    1.5711839868
  -2.0663933139   15.5871580279   12.8626365061
   6.2310146047   15.4538464997   18.6847621466
   3.0315656963   12.2662647964    2.1516235426
   7.7266390503    1.2579611984    7.0281316727
   6.7249942045    0.6634720301    5.6679327806
   4.4674276960   13.9221574005   16.7357825732
   7.2787202444    4.3619822461   17.1722557263
  11.7182611559   19.7380303478   11.7303721538
   3.1719192352   14.8995417962   15.0686019026
   4.6340400291   15.4221786889   14.1712630960
   9.8009285357   14.2963397494    9.2455286011
   4.0935606654   16.7181321860   11.7292464206
   5.7841274964   17.6200698291    3.0269743276
   8.2344362590    0.7189322059    2.8190443997
  -2.2166485539   17.1309465158    9.6623177617
  13.9499320009   18.7982316566    4.5635233967
   6.4433617951    2.5263895307    2.0189929637
  12.8970378141   17.7324119070    3.5429408582
  12.8454720409   17.6113987305    5.2184120017
   4.0159948014    2.6971102378    3.3590611720
  11.7323376703   15.8847547906    8.4051021131
  13.4146220853   17.9045754681    9.4461372529
   9.8020703871   14.9456542984   12.3899663062
  -0.0951725092   18.7471764077    9.4880596682
   1.7475800777   11.9999455295   10.5652377063
  11.9530377360   13.9462266340    2.2078899766
  11.2649495584   12.8543652756    3.6052477143
  11.3599626858   18.0311707385   11.1306326824
  12.8707039104   16.6013911078    0.3046061773
  11.1431905133   16.2014000592    0.3729762018
   2.0580024474   13.2771101704   11.8726095436
  11.7294405003   18.3313136287   12.8000179802
   0.4534469130   13.0696970112   11.1605831837
  12.9386080087   12.8406837770    3.1959492185
   4.5223827680    2.5670111963    5.9756724531
   9.5562874853   16.0404310310   10.0224588466
  -1.8004097364   13.8080515660    7.6794816581
   8.9847729770   11.6174606272   10.0391275723
   5.2107467734    3.1250523317    7.5799421317
  12.2092693136   15.1792019611    1.3496995254
   5.8319542407    4.9161092653    5.1762902744
   6.1057260358    5.1205144269    6.9500997344
  14.4729169944   11.9398476074    7.6719829647
   5.3856782478   19.5664296810   14.8956812763
   0.1021115993   19.2021209450    7.7898858015
   1.3123473968   18.2448079612    8.5575791871
   8.3654774003   14.6449753142   11.4942063536
   4.1252127383   16.6799190794   16.0506383190
   2.5464788797   17.3271591253   15.3884482532
  -0.3854234110   13.0809084257    8.4191056495
  -0.7147015035   11.0708397009    7.8660145226
  10.8750401440    2.5163839404   14.4983862176
  13.9536334481   15.4531618001    3.6363305305
   4.6438398723   18.8736397031   16.2811837516
   8.2367693832   13.1640373121    9.9491700124
  14.9712410232   10.8756748034    5.5761175774
   3.4948930556   19.9168717335   15.2507247411
  -0.8356517313   18.7402925049    6.0355214231
  -2.4680681739   17.9172075513    6.2008703182
   7.6499647070   11.9919487661   11.2643263948
   2.7416972728   12.6518516971    8.5630892537
  -1.1680364530   14.3478357412    9.3447294201
  13.3769803584   15.7301910952    5.3264696114
   3.7806234109   13.8575404927    9.5447805530
   0.2861470166   16.6844442363    6.4808750778
  10.5794021473    2.9743181765   19.0655465241
  14.4628248957   10.9805206839    9.2224930716
  -1.2797045520   15.9056593272    7.0588660892
  15.6859427413    9.3839852573    5.1246887359
   4.0818490914    6.1721208782    4.3912263725
   7.1418477993    8.4222337895    3.6535041844
   3.7818647021    7.2593063344    5.8431383178
  -1.4721148968    9.9055673199    8.9239931896
  14.1815168403   13.1825694529    5.6704884427
   0.5028666552    7.2114757299    4.3458160794
  -0.9940332008   10.5711199965    5.4975583610
  -0.8768215208   17.6656698827    2.7761879535
   0.5248228315   17.3827488223    3.7940300549
   1.7237788070   15.3148334384    8.0024280363
   0.6355622086    7.1486558490    2.5413642071
  15.4260310589   14.3604027867    5.5596143964
   3.5232504190   15.3871728904    7.9175259057
  11.3599841736    6.6069236929    3.6263749565
   6.5806128800    7.3393939132   17.3901395732
   2.6005221594    6.0971672840    5.3224439516
   1.0227196069    8.5932728614    3.4312410456
   6.9156808088    6.7038852066    3.3161728258
   8.0345327020   16.7934908381   17.3722387870
  11.1575973321    4.8135761012    3.1096679814
   7.1194027433    7.3203391927    5.0881198628
   0.6949485782    4.6785017954   11.9344874316
   7.9654476651   18.3753941693   11.0470274417
  11.1823386676    9.9119530954    3.9806820654
   8.5458509829   15.5840765218   16.0300594302
  13.5978769754    6.7452667671    7.0184954246
  11.3991480591    8.4573104096    3.2528751514
   9.3113673105   17.1328029755   11.1026488964
  -0.3923333113   19.0491338266    3.7917021164
  12.4709507918   10.5947480330    1.4150465791
  12.7168440851    6.7299925458    1.6735070521
   8.7013103773    5.3062666059    3.1652494263
  -1.0360359701   12.5966794402    5.0438364659
  12.2538302501    8.6302625134    1.3742226955
  12.3197285470    5.2043636410    0.5702623805
   9.6026457790   16.1114369611   17.1896794993
   9.5112840577    5.4174736235    4.7692446360
   7.6808374431   16.7162236796   11.9465790174
   1.9749590372   14.9538192276    5.3097925420
  -0.8771336120   14.1286298781    3.8600215074
   8.9828073057    9.4583767594   10.6365722705
  14.8231051111    7.8013892635    6.5498484100
  -0.6595020937   12.4382048770    3.4022241149
  14.7574784968    7.3297371273    3.3901215652
   3.7229888048   14.8758533291    5.3580569630
  14.6980274516    6.0426788181    5.7601324923
   7.2849378576   18.9335601173   13.4414327253
  16.2609262493    6.6610374165    4.3666625590
  11.6977701489    8.3718339476    6.0361277623
  13.8510185791    9.7165227532    1.2263770694
   2.7023250965   13.3493171296    4.8923592810
  13.1746266949    9.3539575293    5.7666833749
  11.8766922940    6.9350340812    0.2171481624
   9.0445210306   13.1474384799   17.0861207224
  -0.9355652261    8.1536884038   13.9665652203
   8.9866406508   11.6388859270   18.9092023297
   7.4164461289   17.5882146108   14.4261884495
   9.9520384434   14.1859832831   18.3435517882
  14.9146473164    5.3907864354    2.4213529493
   9.3823945937   18.7687371318   15.7381583167
  15.4697223393    6.6812533231    1.3144330784
   7.4696232265   12.2716541308   18.9650369935
   1.8991013438    9.6480568336   16.6615057844
   0.7587625806   14.5493209284   15.4291857228
  10.1954540777   17.6029297795    5.9865865440
  10.1996762844    1.7239641560    6.9717690945
   4.8904738792   10.7694048015    8.3909294498
   3.8225559366   11.3452202239    4.5060956175
  11.3627223754    1.2861386654    8.1705306551
  15.9611540931    9.6891705543    0.4726015151
  -2.0616101005   11.5206830429   18.2347961173
  14.5349332347    5.1381789736   12.1614758309
  -1.9418047152   13.1599911242    0.5811462082
  14.6588997761   11.7088666456    0.1271598484
   0.1902777481    0.9371479750   11.9743846279
   2.6246033114    1.5289870292   13.7615058470
  -0.0814241828   17.5375289229   13.0988309330
   0.6731517424    1.1656796791   10.0180755821
   7.8014109471   19.7001472868   15.5099961266
   4.2593340713   11.7762359755    6.9304841122
  -2.4237799763   13.5241346113   15.1797585396
   9.8103403851   17.9070673021    3.8403691775
   2.9223577657   10.4361093055    9.3681434200
   2.6032208022    9.5313596250   15.0259677722
   7.9825435853   18.7580967114    5.0198579458
  -0.2673609654    7.3462865008    0.0096055137
   1.4189649813   13.6771777015   14.1334186102
   9.0925098781   11.6717888763    2.9057336097
   1.9524977968   11.0885663233    7.9093787811
  11.4498856505   19.8204651471   14.3152912143
   5.1732199180   11.4083249726    3.3014908311
   2.2892526984   12.9652109953   16.4034587671
   1.5198201030   18.3616627748   13.4077098227
   2.2154295239    1.7392165668    9.7036292572
   8.8607906552   16.6152383392    6.8740889738
  -1.6618729910   12.1639542979   16.0140525809
  15.7018530398    4.1743909503    0.7823867353
   3.3215639604   10.6078984869   16.1523977139
  15.3976616337   11.9190573756    1.7230744732
  11.9261311391    1.1049765947    6.3757021921
   4.9358305392    9.8308637401    4.1107121253
   9.7853775178   10.2414695407    2.2775019595
  15.6292751915    6.7206691901   19.4385044415
   6.5991466691   10.3635579983    6.9625821795
  13.8921339204    2.1795637609   14.0992441230
  -0.1062060108    7.9788998156   18.0837605236
  10.5487971759   16.2061308594    3.6200592270
  -1.5626032220    8.9601919933   17.7770179967
  -1.2270662207   19.3041143991   13.8909473929
   0.5860288434    2.2150283041   13.2439585937
   0.9528557686   17.7812212979   11.7873763280
   0.7399679773    2.7563425637    9.4009205764
   0.5931118036    9.1298945798    0.8912857077
  -0.2454431440    4.3210600287    0.6184068965
   0.2373580002   11.7877741922   19.4103739422
   0.6083613136   12.2531184716   16.7415971919
  13.7054242061    1.5837321189   15.7666911467
   8.9804155392   16.5250811542    2.8944725486
   1.6649831137    9.4443183403    8.2120712426
   6.9948978381   17.4687481149    5.8558841592
   5.3899067118    9.1644648196    6.1920678685
   8.1480093227   10.5439174140    1.8445809067
  -1.2565640574   13.8827322724   16.3826154361
   4.8591694391    8.7837138337    1.4052224431
   8.3379945910   14.0996850942    7.2096885098
  12.2581328452   12.8162460754   13.8536303285
   3.8012154618    1.5461124772   16.6772478017
   1.7880032857    3.4508950753   18.3447759087
   0.5324998933    6.3953146803    6.0825685410
   4.0289431451    5.3002054877    0.9630125092
   0.1848833358    3.4362993267    4.7364154584
  10.5843880871   11.6133026846    5.7408749732
   5.4538848118   18.1110302499   10.3125933053
  16.3743555938    1.0227103010    1.8814985135
  11.0680241856   11.3565082188   16.4927374807
   3.1569503597   16.0784628229    0.1597072742
  12.0087397924   16.9171430901   16.0006217709
   5.4869340227    1.1032664273   10.1855378882
   2.3988243654   14.2589613863    2.2269473786
   7.4323253333   13.6876483789    1.5964443949
  11.8733568909   19.2574847106    4.5955247995
   5.3762216482   13.5693995977   18.5433526053
  -2.5244618196   15.6472687255   10.8117391381
   4.0462188149   18.7606045559    3.7035554709
   4.9446975236    1.1721982897    2.2787716992
  11.2887829143   16.0156430271   18.8585126989
   6.6299831909    2.6790759431    6.1134580857
  13.3716871964   18.5413239828   11.4224485823
  11.4386934212   14.9872394533   10.2726622134
   2.8401543418   15.5664486270   13.0821241679
   4.2337120960   18.0000384369   14.3798774038
   9.4591191966    3.7783926766   15.5688424927
   9.1486144086    3.7460119574   17.9632675880
  -0.5374082111   17.3382521159    8.2398300056
   9.4647155935   12.9068337704   11.6790730968
  12.2046058997   14.5128905079    4.2498189134
   1.7057981221   13.8631148939    9.8417641026
  15.6063977592   12.6314862278    9.5463339372
  15.7213127948    9.7050139008    7.0659948334
  11.1885429126    2.9487470030   17.0428554124
   4.1358660818    5.1849574336    6.2820497929
  -1.4263694448   17.3233950818    4.6087655335
   8.8101182860    7.3099804662    3.7576923089
   7.9712490888    6.8495436366   15.7282628239
  15.1057570302   13.1416049741    3.7550458544
   2.6910906909   13.7910815255    6.7736558344
   8.5923743304    7.7338369651   11.7519423848
  13.3062240996    7.3336422685    4.9952548155
  -1.0493094151    8.2391074450    3.2942117493
   0.1187284089    6.6415160761   12.3116994522
   8.1272673687   14.8336457375   17.9963312157
  10.6522879435    6.1875386688    1.6670016882
  13.0200414215    9.6621638622    3.1641262171
   8.9740499178   17.9873247838   13.0002987151
  16.2662734784    5.2409235347   11.2443677768
  15.5524324236    7.1328722147   12.7610793012
  -0.8460834548    5.4923886876    1.8716083245
   1.5901838089   11.3587549408   15.2191549785
  12.2007299720    1.1304217358   14.3057136597
   5.9338689212   11.0890174159    5.2469360093
   7.7547570806   18.8665354812    7.1357190417
   9.6026195889   11.8774686825    0.8881058187
   0.0253944988    9.9643106505   18.4106661078
   0.0113475777   19.3647386412   12.2616608350
   1.4510419204    2.5154230652   11.4618711322
  -0.9857793127   11.5000766516    0.2032748005
   9.0151215967   16.3417669166    4.9057317810
  -0.4930022262   13.1695478546   14.4699623310
   3.4833821585    9.7730171279    7.3891636047
