B2 C140 Ca1 F48 H298 O66 
1.0
1.7848017603002297e+01 -3.3388355810386219e-16 -2.0557041850100121e-17 
-3.0140835010282339e+00 1.9277919046288982e+01 -3.1132187424264793e-17 
-4.8095566121012040e-01 1.5928267479342235e+00 1.9424179836927568e+01 
B C Ca F H O 
2 140 1 48 298 66 
Cartesian
  10.1125941869    3.8671118787   16.7614630316
  -0.9956105902    6.5749571413   12.0395621244
  -0.0174383090    1.5986457335    1.5207743276
   7.1925475484   13.7890225511    7.1504365966
   4.7666822650    6.4966949411    1.0198166669
  12.6441424564   12.7536890913   12.3798595385
   4.3983901981    3.0436000716   16.2913900677
   2.2078780559    2.1477467585   18.2958770861
   1.4443056618    2.7096864129    5.5018060434
   2.5733379343    1.4737793705   16.8626188238
  -0.5775492203    4.0451743778    5.7820954477
   3.0201451619    6.6376914430   19.0685529646
   2.0014263382   17.4949376519   18.2761693897
   0.7145601846    4.0572657125   17.3788971437
  11.9271428486   15.9988976272   15.0888516397
   4.9991663973   10.0584013545    0.7574625476
   6.1666895818   17.2419660799    9.3866113240
  12.2696515192   12.2064372291   16.0066156969
   9.6343966185   12.1532019058    6.7816136569
   9.4057670782   13.7131551506    6.5270013333
  12.8804376898   11.9498257547   14.6233528724
   3.9546168484    7.8871188605    1.0643533511
  11.7317213154    9.9404541236   16.7572312972
  11.8321571753   11.8436114140    6.2254583912
  -0.0884893182    5.1466519157    6.7890707364
   0.8403872888    7.4124422095    6.9636112481
   4.5498158773   19.1141473833    9.5888273904
   2.0849328837   16.4416223588    1.1458558481
  15.9521109266    1.6866083453    3.0071246642
   3.6161812580   19.7255405977   10.8500935580
   1.3123560368   15.2269621675    1.5637222434
  13.0635578337   17.0690035939   16.8982683813
   5.3323241985    2.5930827338   10.7662397513
   7.5078272101   13.9582355996    3.0640997515
  14.6587871016    0.8975998315    3.3871690155
   5.8519063779   13.6629616227    1.0565375162
   5.4543797538   15.0584527176   19.0097296762
  14.9227128675   15.4505425785   12.0700209124
   1.9788881588   12.8338784845    1.8107293284
  12.8105394747   16.0483989037   17.9934488150
   5.6639707760   13.7053280326   17.0568694593
   4.9026953047   17.9461996436    3.9310646750
   7.1601390585    0.4841731122    2.7051948726
   6.2546373887    1.6733700316    2.6666642323
   4.1577540067    2.4297186986    2.1413607779
  -2.7279356661   17.2769479155   10.4649243138
   6.9644277734    1.2056158051    6.6518927071
  12.2223448942   15.2075397809    8.8488731455
  13.6943152958   17.7967311145   10.3221377087
   3.5497962904   16.1448074616   11.8885717554
  12.9493610046   18.6136542788    4.3205766351
   7.4515729562    2.8719358876   18.1157751355
   7.6898072840    5.2863146292   19.0858598201
   7.9230059535    4.3361571639   17.9226495215
   3.7419685118   15.7279077755   14.2100048193
  11.9769639382   18.9977964888   11.6227649218
  10.1755750722   15.0134500878   10.0375735622
   9.4122081442    3.5486590184   13.2279301807
  12.0918612388   15.7852496352    0.1815893953
  11.9431311480   13.5940596532    3.2564261640
   9.5823825758   14.7974624212   11.4112683167
   5.4640449406    3.1928612832    6.4312687438
   1.4889212354   13.0782541492   11.1189379735
   3.6087576540   17.0276757629   15.0288310560
   0.0535241362   18.5313869692    8.4882701640
  10.3953819578    3.8887738977   14.4131213336
  11.4574243732    4.9441748896   14.0179910692
   5.4428288413    4.7229709755    6.0155839876
   4.3725046340   19.3330293225   15.0664758396
   8.5090241952   12.5582576103   10.6976443427
  -1.5341544859   13.6190066626    8.7075883712
  15.0512170698   11.5671891972    8.7497986558
  -0.6675418650   17.0498293619    6.8516676183
  -1.7273614255   10.6902913643    8.1564259074
   5.7807590237    6.9473437619   15.3885114233
  13.4575477512   15.0709056599    4.4033692756
  -1.4696624355   17.9058586546    5.8931715952
   2.7998714270   13.8039388192    9.2847465280
  15.9901206609   10.4189123576    5.8304979023
   3.6641374968    6.3261350103    5.3239963062
  11.7390652754    2.8627103200   18.2505444465
   2.0959894452    5.6807573215   13.4002564842
   8.8831954907   20.6881872051   18.4745905578
  14.4243846494   14.0706172263    4.8959754424
   6.8760490207    7.6264566067   16.1705905249
   2.7418815321   14.5531329710    7.9824026230
   7.4983707167    7.3959214899    4.0643070639
  -0.6694102829   17.9132398775    3.8278252512
   6.9939490798    9.1586351956   15.9264647353
   9.5799776855    7.7166240253    9.5651192195
   0.3611709790    7.6641145892    3.3052583192
  13.0777663509    3.6647081499   18.5651829644
   2.1683809928    6.1696827673   10.6977250688
   1.2614364640    5.7976914582   12.0265818362
  10.7358214585    5.9860626885    3.0469437939
   9.3641275051    6.0329261580    3.7588021021
   8.7374583590   16.0100502775   16.8316387284
   8.5974752410    8.5404300909   10.5049321458
  12.1552678221    9.3501944644    3.8158275122
   8.5027465972   17.8685936850   11.8640746434
  -1.4965931630   13.2319790785    4.1230689891
  14.0941305300    7.1778046888    6.0118533516
   7.1485924872    8.7052944887    9.9951778893
  12.5537620460    9.8467824717    1.5677331893
  11.9386661113    6.3177471549    1.1032568622
   2.8578662116   14.5565795755    5.5080041550
  12.6711861729    8.7846799531    5.1408943793
  15.8777389749    7.2640281717    3.2654300505
   7.9655111464   18.8115402875   13.9030688471
   9.2602933718   14.0794781550   18.0062968335
  14.8802331204    8.3080420962   14.5624110104
  15.9122587596    8.3386476577   13.4115718234
  15.6033888466    6.1889980666    2.1946179662
  15.1943496349    3.4520639833   10.9828982288
   8.8205577388   12.9957280999   18.9655641602
  15.1547714718    4.9952247851   11.0762615042
   8.6764263752   19.5749626674   14.9871388142
  14.4647210459    5.7467334876    9.8614948953
  15.8645788207    9.6515485846   12.6520964413
  11.1261655833    1.2794162966    7.1318857355
   2.4157849403   10.5150476299   15.5945257521
  -1.7542585242   11.6800120656   19.1892642550
   1.0293714279   13.7841051384   14.8894579021
  15.3875331894   12.1698009123    0.6936663355
   4.5422750971   11.0006265729    7.3419929428
   4.7494895716   11.0423230970    4.1659198324
   9.2275248312   17.4713514439    6.0932352105
   7.9551158814   18.3378913577    6.0323433268
   1.6238702437   12.6841577352   15.8005979006
  -0.8751058518   20.2501316672   13.1205053200
   0.9529090916    1.6232160670   12.4402270591
   0.8443793915   18.5389476225   12.5418131088
   1.7814228569    2.3667464421   10.1919950065
   8.9199622366   11.1330485253    1.9776499373
   2.4806907358   10.2547780328    8.3095313237
   5.6202734299   10.4995110260    6.3439888059
  13.7777875325    1.5676227109   14.6296716653
  -0.6928948480    9.0610653231   18.5250710028
  16.6096336285    4.6649202094    0.5273609245
  -1.2416848876   13.4393735803   15.5395979747
  -0.3003873751   11.3427968608   19.2262481860
   9.7033646388   16.8179077604    3.7971450231
   8.4291990411    7.1423947282   13.5100993401
   7.3936715648    2.2092147854   16.9456235453
   8.3983290132    6.4485105383   18.7905468131
   9.2158290814    4.7397671117   12.5181685799
   8.2583952239    2.0592825503   18.9331282192
   8.6811300978    3.1396083316    0.8262654314
   6.2182505546    2.7902509190   18.6771207461
   6.2904010935    5.6399084397   19.3136072910
   8.2616608759    3.1257316177   13.7013576500
  12.1692303826    4.5508797771   12.7959762491
   9.8679636722    2.6137490065   12.3067276735
  12.4931630932    5.0929368569   14.9570149534
   4.5828550318    7.2471358774   15.7773836725
   6.0052005253    5.5550222688   15.5918171981
  10.9429580790    6.0906462117   13.7636608305
   5.9400794695    7.0981335967   14.0830687965
   2.9612400370    4.6550279965   13.3358427039
   7.9505128093   19.9234871107   17.9490116553
   2.8807850733    6.8934309685   13.5881741396
  10.8379445164    8.0499860137   10.0175979154
   1.4029794472    5.8335287168    9.6511285017
   6.8404219466    9.6138650153   14.6436328760
   8.1832671302    9.6234632476   16.4335077498
   1.3086646094    5.6031128487   14.5560839432
   9.6301082344    8.1738732200    8.2720192071
   9.1837074306   18.9179354475    0.4111618934
  14.0706411047    3.5489338409   17.6447984485
  10.1378114536   20.2361260455   18.0570938180
   3.2592393001    5.3427888215   10.7098910577
   9.2485882000    6.3597856999    9.5590594755
   6.4435439665    9.3342682670   10.9485134286
  13.9439287243    1.8295637230    0.4196313708
  12.7019495631    4.9864114427   18.6828234610
   5.9777235807    9.8654243711   16.6399706232
   2.6463917634    7.4250035732   10.5129700813
   6.4773823908    7.6950119659    9.4439006732
  15.1325485848    9.3034544096   15.4142053880
   7.2484078975    9.6988216576    8.9598485823
  13.8880373742    2.9910499695   11.2051783660
  13.5868590794    8.5641401786   14.0947426900
  14.5716218436    5.2178193962    8.6607549789
  15.5500060694    3.0872692526    9.7624140996
  14.8760414750    7.0857590989   10.0104332310
  14.9026071247    7.1424837719   15.2525106155
  -1.2076608971    9.5479530540   11.5433373339
  16.0089095987    2.9617604603   11.8981725173
  -1.4509771277   10.6517213783   13.4651755293
  13.1587259723    5.8208805758   10.1274177922
  14.6754362906   10.1452848623   12.2590962156
  -1.7891669783   20.7427444676   18.3976717684
  11.8760367284   13.2625796159   16.1405436790
   1.7253242243    2.3023853976    4.5392545772
   5.3656509885    6.4160397118    1.9252367732
   5.4028338759   16.9885739443    8.6960199344
  10.0921732215   11.9342395044    7.7676447503
   5.5150247939    6.6729044761    0.2622073984
   5.2280760866    3.0150860873   15.6677729982
  16.4407274989    4.4770425831    5.1203624547
   0.0457183668    2.7189666775    1.7156899483
   1.0929885412   18.0584926547   18.0662478294
   0.2780687596    1.5138564724    0.4709617116
   6.4710435698   14.2508064973    7.8486954070
  -0.1515512354    4.5178873324   18.1035497093
   0.8648519795    1.0751028398    2.0343295657
  12.3102211951   11.6967345542   12.2831451412
  -0.4923317751   19.6555954926   16.8040639785
   6.9000340024   14.0483842551    6.0984311311
  12.8959709885   15.7867945248   14.5885770840
   5.8857772350   10.6957795229    1.0577052584
  13.7650274404   12.8969217202   12.1977551518
   2.5805260123    5.6672842294   19.0967756378
   2.3323098837    7.4347951144   18.6412790518
  11.3017802169    9.6657397304   17.7774318888
  12.1582003915   11.2395720538    7.0811660411
   1.0067594275    1.9767589562    6.2320384296
  16.8483512767    3.1681515389    6.3021911739
  10.2599450491   14.3317669444    6.5322207442
   4.6081238130    3.5062770870   17.2495782401
   5.0532426285   20.0188919764    9.1184905827
  11.6432535570   15.2281418227   15.7411712067
  12.3596568270   10.8697830277   14.3138586017
   1.9273185613   16.3692071111   18.1257178168
   2.7902277873   17.7278358265   17.4501670770
  11.0846942152   16.1993703764   14.3498927072
   7.1685845893   17.4576664161    9.0154608162
   0.1475968873    3.3177317463   16.7870426899
   2.7264585764   16.7107023559    1.9559937554
   1.1884596799    8.2011747683    6.2599991939
  13.2478582482   12.1401215357   16.6233769244
   2.3404420611    3.2343944237    5.9031581646
   6.2647944558   16.4420099344   10.2006405929
   8.6456312052   11.6548562424    6.6819733082
   4.1300285003   10.6719627793    0.9579021206
   7.2504111823   12.6803976515    7.2873416859
   4.6257936037   11.3581070103   19.1517459484
   3.8607865972    6.6257823823   18.3789688070
  12.0783393638   13.3997505186   11.6924175479
   2.8114095253    1.6986869519   19.0780899988
   3.5265124621    3.6780506220   15.9992882241
   1.0602397208    4.7875350673   16.7019298980
   1.8583262450    2.0489849785   16.2109454541
  16.7113853724    1.6741291120    3.8149532982
  15.7976869750    2.7947996946    2.8186446434
  12.8364146413    9.9486780672   16.7005858381
   3.1021522247    7.9051199957    1.7131994461
   3.6042966715    8.1795194371    0.0696213719
   1.7380521975    7.1834327532    7.5040295122
   0.7902936375    4.6999863016    7.3475924054
   1.4617977430   17.3719244592    0.9209337023
  12.4615325933   11.6299345215    5.2901105740
   7.2441425638    1.0283998058   11.4507217689
  11.7936029434   12.8732226330    6.5894429092
  11.1802217119    9.1931979161   16.1251725767
   9.0003176005   13.6686914669    5.4734675915
  14.0562721405   11.9433942684   14.5210432684
   3.8766388732   18.6176612786    8.8909981881
   7.1484232324   14.9201028041    3.5374828547
  -0.8742872720    5.5766070679    7.4283386657
   0.1447474172    7.9812716922    7.6604871400
   5.3843330044   14.5572943208    1.4286202103
   6.1942271881    3.3437738646   10.9483940300
   0.7700848937   14.8412234260    0.6495547863
  13.2051149822   17.9871477594   17.3546807437
  14.0154531351   16.8485267184   16.4396923940
   4.5240258177   15.3332300163   18.4476967253
  13.9030061411   15.6346807843   12.3298578183
   8.5601747698   13.8208405093    3.3454135268
   4.5511591744    3.2061466260   10.2898106269
   3.1347230232   18.9345773002   11.3858648036
   5.6521007634   12.6821883856   16.7705355325
  15.2088300951   14.3914663015   12.2474868102
  11.4508162901   19.4395239028    2.5919337324
  13.7006760044    1.4360137037    3.5466238367
   4.4318562522   17.1668238566    4.5490009567
   6.2489216677    0.8645259062    7.4508441358
   4.0773941216   19.2155028787    1.7675242275
   0.4420559371   15.3382576037    2.2371355384
   6.3040169921    2.1522792004    3.5833989528
   3.1626333354    2.0925461431    1.9860622277
  -2.2302704227   17.8659916972   11.2599459606
   1.1165481490   12.5473843332    2.4374492621
   2.2336454212   12.6576674333    0.7218382578
   7.0556702467   13.1549700440    3.5933150808
  12.6085548111   15.0685782976   17.5069149372
   5.0052915612    2.4352558514   11.7643283808
  13.6049159156   15.9765595347   18.7352022455
   6.3838623575   14.2719634464   16.5486492422
  12.0072261576   14.3452336617    8.2075391382
  12.9879666808   17.0063251219   10.3144423750
   5.4099524278   12.8543164391    1.6036493877
   2.9728635457   15.9277424598   11.0523624668
   5.9022799374   18.2379998304    4.4261702560
   4.5150321846   15.6457095576   11.7866303171
  13.3321885298   15.2538501743    8.9862810018
   4.5068851471    3.1146682033    1.3101185575
  -2.2257304863   16.0710180876   12.7112882715
   6.3227272903   15.6595699577   18.6685240247
   2.9603599848   12.5135430212    2.2613792164
   7.9403732482    1.2618011334    7.1340483088
   7.0077910723    0.6099793152    5.7704718125
   4.7312451991   14.2212830408   16.8153223863
   7.5121098824    4.7613030689   16.9805293778
  11.7046362269   20.0722725684   11.7037239104
   3.5523671281   14.8403256475   14.8280304414
   4.7109328172   15.6771097900   13.8385946832
   9.9703642077   14.1724757978    9.4273345647
   3.8104141324   17.2269070192   11.8661385788
   5.2997541704   17.6114408802    2.9384593799
   8.2686144645    0.7324722062    2.6918859632
  -2.2143961664   17.2107348617    9.5651904825
  13.9156135855   19.0035119692    4.2394959947
   6.5451512527    2.4521586467    1.8528124134
  12.6634584801   18.0079727689    3.4224223001
  12.9591654996   17.8930730441    5.0883234622
   4.2252427084    3.0613366747    3.0769041041
  12.0355938699   16.0425103803    8.3152593009
  13.5447879978   18.2300171328    9.2214018095
  10.1062690525   15.2054298044   12.2914621115
  -0.1811676032   18.7061910125    9.5249406791
   1.8720851007   12.1335786138   10.7084157807
  12.2391428244   13.9405630506    2.2764127379
  10.9043239679   13.1535926356    3.4109196550
  11.3315803593   18.4369024892   10.9800949724
  12.1943180507   18.2805112331   19.2360297714
  11.0567857635   16.1780887709    0.1257940070
   1.8292171131   13.4470240258   12.0965304602
  11.6298589308   18.6481207641   12.5897695831
   0.3779090318   12.9720399584   11.3059994919
  12.6254659535   12.7512113028    3.5158293550
   4.6876869664    2.7284513109    5.7877715544
   9.7822617330   16.0237781056    9.4991088202
  -2.0839202847   14.0155908837    7.8116744344
   9.1875579465   11.7900146954   10.3026907393
   5.1885612450    2.9985622649    7.5096318825
  12.2380811189   15.6668203307    1.3021813886
   5.7594973792    4.7184173815    4.9353067767
   6.0645004179    5.4919493770    6.5747230442
  14.3067802750   11.9307234488    7.9349281064
   5.2336442092   19.9408985964   14.5436781351
  -0.2386450547   19.3662750567    7.8180238345
   1.1346819634   18.3003199401    8.3097702769
   8.5970468219   15.1818268151   11.4987251150
   3.9425273009   16.8642930220   16.0373338205
   2.5656730257   17.3663301544   14.9833728560
  -0.5382237827   13.4090567239    8.3507599111
  -1.0786060001   11.3853788143    7.6631704142
  11.1297016428    3.0237575928   14.5323668098
  13.7853163512   15.6780089721    3.6110322591
   4.6747172416   19.2500496508   16.1586461792
   8.0673823059   13.0531198687    9.7568946502
  15.2261074720   11.1457198687    5.6436854307
   3.3041545317   19.8436587061   15.0233017819
  -1.1966159873   18.9406513140    5.7739670688
  -2.5053655329   17.9631845249    6.3412918048
   7.7056169607   12.1390701733   11.2798271143
   2.8842454461   12.7416093409    9.0731114531
  -1.5131181560   14.3344134586    9.4989638788
  13.3595342464   15.5136414392    5.4405928606
   3.6070564485   14.1465567271    9.9263179894
   0.3845691117   17.2360465480    6.6546702449
  11.0904751779    3.1864171067   18.9940685513
  14.5034739200   10.9377610527    9.4902033525
  -1.1055468545   16.0715178034    6.7914030624
  15.9044823564    9.5607808012    5.0838529002
   4.3804905736    6.5308294640    4.4564694901
   7.1376614832    8.4293026298    3.9555510278
   3.5059194235    7.1584217428    6.0676459647
  -1.1394363736   10.2118291812    8.9538616119
  13.9624664598   13.3642248048    5.5549184598
   0.3487129414    7.1643045781    4.2453671274
  -0.8155954898   10.7192992850    5.7012613612
  -0.8032829785   17.6142359238    2.8122967857
   0.4093223299   17.6943122389    4.0105517014
   1.8292196006   15.2701782900    7.9161604604
   0.6944186207    7.0079753136    2.3789384070
  15.2078120269   14.6394535688    5.5272705603
   3.5076268855   15.3886558510    7.9588531035
  11.2366976067    6.8271093411    3.4963341548
   6.6299683159    7.5901817526   17.3374006997
   2.6712172901    6.1939581262    4.9543913350
   1.0829028049    8.4954467445    3.2757335650
   6.8834715691    6.7517580795    3.3915828837
   8.3360273169   16.9926133888   17.0823114959
  11.2728835272    4.9958442190    3.1581629762
   7.5287756886    7.0883047128    5.1144520249
   0.7106316960    4.8697166987   11.7224118734
   8.2287689110   18.8214062092   11.2729510082
  11.5196087208   10.1956753254    4.1414854335
   8.5413817032   15.6370032354   15.8008395006
  13.3617069990    6.9533894206    6.8448389259
  11.4067712552    8.8740321867    3.2520387013
   9.2436627649   17.3486578144   11.2747032220
  -0.8684695714   19.0553172702    3.8252136399
  11.7956246303   10.6583220737    1.4875117181
  12.6350156878    6.9128504955    1.8082565716
   8.6582457015    5.2968388728    3.3737333710
  -1.1802486740   12.6068592827    5.0006294381
  12.0819766347    8.7621748118    1.3575228752
  12.3061389646    5.1996452456    0.9461617039
   9.8782481445   16.1169402083   16.7511856008
   9.6965580561    5.5614046136    4.6993598071
   7.5704622119   17.2011144720   11.9700566767
   1.7435442338   14.8476335726    5.3133231407
  -1.0181590825   14.1940732375    4.0463260608
   8.9989868428    9.5269960778   10.4954976775
  14.6922444394    8.0717423853    6.4210947491
  -1.0553368842   12.5566267788    3.3673960817
  14.8981495568    7.7930487098    3.4740518526
   3.3631219267   15.4305639173    5.6874364648
  14.6771761959    6.2970521784    5.7231942380
   7.3618286485   19.3556617862   13.2747970562
  16.2453025246    6.7742943381    4.2495815570
  11.7331507462    8.8071390577    5.8057837214
  13.1995540026   10.2234921520    0.7527330884
   3.0880680308   13.8518608401    4.7084737722
  13.4369079227    9.5262801803    5.4955178725
  11.9175284374    6.9306160001    0.2290122999
   9.3705410255   13.5062512133   17.0148034512
  -0.9601589967    8.2622186011   13.8706934751
   9.3180456427   12.0385371229   18.7126600239
   7.1638708047   18.0853975657   14.2434019683
  10.2965250880   14.5875144771   18.1025340177
  14.8505396118    5.4068827180    2.5462692112
   9.3578260838   18.8816504696   15.3818651225
  15.0928075986    6.5768369230    1.3096652419
   7.7812166315   12.6672494516   18.8851877242
   1.8094135265   10.0509371280   16.4438946861
   1.0554364135   14.8478205376   15.2409847271
  10.2453233755   17.9403674886    5.7475934507
  10.2251468206    1.8575918483    6.9043483874
   4.9838855428   11.0761027651    8.3434148317
   3.6966867591   11.1332156366    4.4943790839
  11.3292081309    1.5610715298    8.1503688678
  15.9266280013    9.4087356715    0.3962282246
  15.6735023570   11.8480502118   18.2266211741
  14.5295288365    5.1884563129   11.9611777196
  15.6884140724   13.2434958682    0.8595402122
  14.4539020900   12.0503746710    0.1796955368
  -2.6923285512   20.0856936940   11.9772977527
   2.7564712131    1.6386230107   13.7949757503
   0.1652136203   17.7919957244   13.0269562541
   1.0219701645    1.6175132122    9.7895252377
   7.9654387110   19.9582777881   15.7889159127
   4.0963583018   11.9497441680    6.9487614430
  -2.0791533900   13.9918141920   15.1375844507
   9.5621124959   17.8778396635    3.6028516890
   2.9121867745   10.5092430457    9.3385404078
   2.6558701897    9.7228050919   14.9107123723
   7.9083076572   19.0298393047    5.0899357546
  -0.1931148517    7.1491471522    0.1767434259
   1.4935078770   13.9589086814   13.9345220729
   9.0337390234   11.7477898668    2.8629607970
   1.8596473822   11.0767163643    7.9431583285
  11.3866574856   20.0373539030   14.4567772012
   4.9719916839   11.8964076917    3.4419662375
   2.6287635917   12.9915960806   16.0845965053
   1.6564944725   18.7586580094   13.2506937062
   2.7199261611    1.8773815755   10.0880615794
   9.3770704286   17.0282390803    7.0939093117
  -1.5486893264   12.4052486445   15.8152108730
  15.8983279790    3.9404071163    0.6382924769
   3.3186045625   11.0118491133   15.9321201690
  15.1802372638   11.8504515030    1.6593475505
  12.0099907584    1.3564254755    6.3933935931
   5.0212522824   10.0690704301    3.5545112091
   9.3139045444   10.1776043254    2.3246173103
  15.7711975692    6.8596172013   19.2045798639
   6.6672462895   10.5103213937    6.6318951995
  14.0973343878    2.3534893394   13.9687758896
  -0.3135582997    8.3964312365   17.7826832779
  10.7599655690   16.4307700489    3.6413134719
  16.0986656859    9.3701742936   18.2593294940
  -1.3655568532   19.5370658093   13.7073164790
   0.4232533352    2.1418498601   13.1992356763
   1.1604921272   17.9331689316   11.6468000870
   1.5946658231    3.1855431310    9.5442861775
   0.4518275455    9.4917758380    0.8072248317
  -0.1110801929    4.4210317890    0.3034650031
   0.3048226620   12.2125399430   19.0256563447
   0.7841069791   12.4097262890   16.5224864884
  13.9877068377    1.9075977797   15.6963152615
   9.1321105483   16.1390123178    3.0741117332
   1.8515361466    9.3992830552    8.2383868568
   7.0007146530   17.6516417804    5.8864643705
   5.2135113212    9.4158476825    6.0291437070
   7.7967339333   11.0570522939    1.7222668488
  -0.9393188249   13.9742907645   16.4467027902
   4.9611384768    8.8266692432    1.5513372595
   8.4218768467   14.2998768491    7.4745688361
  12.3975007835   13.0111935506   13.7913860911
   4.0304936133    1.7301040063   16.5236982106
   1.8908037955    3.5607974776   18.1428157147
   0.4845614361    6.3509489049    6.1277403547
   3.9393967276    5.3578971880    0.9010772929
   0.5104101293    3.6840447671    4.9686331032
  10.5024741494   11.4561696145    5.7597305784
   5.4788810174   18.2264850072   10.1805715426
  16.5132476595    1.0113262532    1.8043220842
  11.2691272503   11.2845249559   16.4056112996
   3.0153344020   16.2196130898    0.1007045872
  11.9934881827   17.2295605429   15.9082592097
   5.6838441697    1.3581897770   10.1267631690
   2.1464604002   14.2428409912    2.1108418423
   7.2022287683   13.8181212162    1.6120000893
  11.9275707845   19.5386877961    4.6447133300
   5.7510371745   13.7110021259   18.4987848902
  15.0639936564   15.7934176334   10.7003248506
   3.9930511859   18.9556604184    3.8819180993
   4.9918752985    1.2925425967    2.3548284673
  11.5209929671   16.3205649023   18.6428780371
   6.7979787195    2.6065689601    6.1878410173
  13.3903536155   18.7951670261   11.3303421996
  11.5372783618   15.2611224088   10.1493795784
   2.8566199862   15.8074846004   13.0188250985
   4.4682811923   18.0227699311   14.3776074390
   9.7484118156    4.2659115136   15.5370077550
   9.3355384854    4.1151855011   17.8964255371
  -0.7922298956   17.4729395401    8.1995099494
   9.4857862886   13.3496995007   11.5879465649
  12.1018438036   14.5437281294    4.2640874478
   1.5967388010   13.9964291126   10.0677948893
  15.6348081882   12.6155444867    9.5122139936
  15.7276058053    9.7819311627    7.1076748827
  11.3005222906    3.2240245736   16.9763257701
   4.0115533897    5.0820503766    6.0311528755
  -1.6149107214   17.2038571498    4.6636578656
   8.8069655337    7.3225617423    3.4702968950
   8.0016571749    7.1144838357   15.6449615447
  14.9752863056   13.3209082573    3.8413318462
   2.7655487500   13.7448410453    6.6978997099
   8.7235749858    7.8879498029   11.6863633537
  13.2887867716    7.4755341407    4.8651659733
  -0.9827259150    8.2332822778    3.0211947488
   0.3251529543    6.7860472447   12.4062168807
   8.3297474218   15.0554480769   17.8259622473
  10.5818773022    6.3334389317    1.6624828038
  13.1818451584    9.7256199322    2.8643083219
   8.9918470144   18.2184191094   13.1602584390
  16.4670277180    5.4193654290   11.3451226843
  15.8028951840    7.2913813592   12.5439429701
  16.8690177923    5.4970648003    1.7348168525
   1.6478935806   11.5901738321   14.9820859282
  12.3524924863    1.3623696937   14.3281287464
   5.7553287120   11.2271472491    5.1463507736
   7.7519524622   19.1207051981    7.2104313759
   9.6597464290   11.7409197205    0.9597617803
   0.0553629456   10.2680296210   18.3381560911
   0.0366075147   19.5851022002   12.0848638230
   1.3679046234    2.6915924153   11.5594719298
  -1.2187137731   11.4920103612    0.2320681877
   9.1950144960   16.4068552017    5.0573963489
  -0.2743479716   13.4775224434   14.4508732198
   3.5500801834    9.9546986680    7.3685475786
