B2 C140 Ca1 F48 H298 O66 
1.0
1.7859642503635435e+01 1.8674072172169908e-16 2.2444284572657031e-18 
-3.0209271141169585e+00 1.9285360367298832e+01 -6.3832296009148267e-17 
-4.4824475634968125e-01 1.5944688245532876e+00 1.9410109099809340e+01 
B C Ca F H O 
2 140 1 48 298 66 
Cartesian
  10.1625056947    3.8765104855   16.7673816832
  -0.9673838101    6.5558822009   12.0132680398
   0.0261360728    1.5952121877    1.5158839374
   7.2046426773   13.8086148058    7.1634356182
   4.7626409300    6.5061622458    1.0203397103
  12.6722877867   12.7635863015   12.3948616095
   4.4134812109    3.0431928669   16.2950840422
   2.2434459649    2.1431181766   18.2905274692
   1.4619720178    2.6945342005    5.5107488989
   2.6061140513    1.4731993646   16.8282697791
  -0.5708803445    4.0443390585    5.7878367898
   3.0274176376    6.6558703549   19.0469116017
   2.0486233865   17.5083033055   18.2456090298
   0.7224775495    4.0452615643   17.3535092437
  11.9563037295   16.0094189977   15.0720129646
   5.0226845320   10.0798868793    0.7613602014
   6.1639724212   17.2494577925    9.4070749520
  12.2817443158   12.2030550389   15.9961540640
   9.6435675583   12.1616487288    6.7918414646
   9.4416517508   13.7011894626    6.5118419201
  12.9179193566   11.9735596318   14.5979434516
   3.9745918403    7.8818110521    1.0605170834
  11.7597055902    9.9306539768   16.7508482050
  11.8427916880   11.8614998105    6.2304792696
  -0.0856688025    5.1582175099    6.7883745422
   0.8520422675    7.4175149017    6.9626210367
   4.5698952376   19.1393563481    9.5974790190
   2.0870159539   16.4471478749    1.1325220573
  15.9704199020    1.6930237487    2.9878720347
   3.6287007961   19.7493131920   10.8198341200
   1.2862158667   15.2288102959    1.5579959964
  13.0730857720   17.0718132777   16.8731056435
   5.3372972963    2.5931507543   10.7460035986
   7.5068677752   13.9749868051    3.0677322574
  14.6640198846    0.9013208634    3.3739701052
   5.8586180726   13.6646480810    1.0695119686
   5.4864321688   15.0558624267   19.0041281665
  14.9393781144   15.4477967744   12.0522365922
   1.9815537648   12.8426263413    1.8067125735
  12.8343332213   16.0715304399   17.9685806267
   5.6971117140   13.6979089553   17.0402016232
   4.9023239167   17.9563272769    3.9139281481
   7.1831960245    0.4890738406    2.6995782849
   6.2620910267    1.6987481260    2.6536872566
   4.1893518186    2.4380266154    2.1232442650
  -2.7479638224   17.2727261201   10.4634139597
   6.9765389963    1.2013838378    6.6481186559
  12.2423853766   15.2207325946    8.8422714594
  13.7010670662   17.8010728316   10.2985504727
   3.5531817838   16.1719896567   11.8919884824
  12.9563892929   18.6180021248    4.3175643478
   7.4968158657    2.8815649354   18.1143773324
   7.7400276352    5.2923501072   19.0651963605
   7.9355206817    4.3410197555   17.9296682850
   3.7597003319   15.7282329949   14.2173312307
  12.0038212696   19.0110740178   11.6197841032
  10.1915662985   15.0418507598   10.0113971908
   9.4371943946    3.5414156388   13.2148161086
  12.1020114880   15.8096663847    0.1607028536
  11.9522547138   13.6001243863    3.2599375075
   9.6159677261   14.8046321179   11.3917570322
   5.4749799342    3.1783700045    6.4162746019
   1.5029305455   13.0622165147   11.1327851259
   3.6474818740   17.0174482185   14.9950744373
   0.0753302684   18.5381003279    8.4921801631
  10.4438908526    3.8945333826   14.4034816899
  11.4944772949    4.9682547191   14.0091547272
   5.4495928861    4.6980077494    6.0023209425
   4.3789441169   19.3412805295   15.0591441497
   8.5323688402   12.5622253347   10.6848525183
  -1.5331652973   13.6216763524    8.6956696274
  15.0792035937   11.5520981865    8.7360147508
  -0.6628679353   17.0781773015    6.8616635182
  -1.7151020154   10.7017100183    8.1429177840
   5.8181401562    6.9414343346   15.3751873949
  13.4612814129   15.0522945948    4.4129763824
  -1.4917036809   17.8985521226    5.8882809492
   2.8063650156   13.8157207911    9.2896294746
  16.0244150528   10.4278619503    5.8353281981
   3.6874289781    6.3155250332    5.3219886269
  11.7800354828    2.8710949833   18.2359302182
   2.1185486128    5.6833778959   13.3822249065
   8.9173128726   20.6786672693   18.4502360790
  14.4419955068   14.0852059948    4.8916808110
   6.9136601499    7.6322470445   16.1593019955
   2.7525708072   14.5534104866    7.9747415434
   7.4991702759    7.3944426080    4.0738482625
  -0.6830658042   17.9085485182    3.8251087727
   6.9903448365    9.1653233352   15.9199191543
   9.6043749077    7.7165463312    9.5528335122
   0.3847272076    7.6661610264    3.2726458076
  13.1195764652    3.6599169806   18.5532374693
   2.1739334853    6.1763863825   10.7067896344
   1.2782581017    5.8131200973   12.0188742281
  10.7405812885    5.9849237246    3.0556028703
   9.3827677747    6.0404430120    3.7421516568
   8.7804196379   16.0032966996   16.7915239511
   8.6253958253    8.5220636185   10.4994845012
  12.1683595987    9.3686029884    3.7906368617
   8.5154519736   17.8944773255   11.8642449475
  -1.4767045853   13.2318038756    4.1039432207
  14.0997420732    7.1819654875    5.9983050255
   7.1662495651    8.7102532535    9.9710534110
  12.5366472110    9.8468528749    1.5702169416
  11.9574480226    6.3078214512    1.1180280930
   2.8651474510   14.5642643042    5.5094469503
  12.6792082862    8.7956865980    5.1368484126
  15.8902010174    7.2562070529    3.2525844713
   7.9874960938   18.8253175019   13.9017361514
   9.2964418488   14.0638535675   17.9840065705
  14.9209309434    8.3037978721   14.5534469630
  15.9468980527    8.3391327800   13.4216640141
  15.6103422996    6.1786473362    2.1868330563
  15.2302587799    3.4472866747   10.9900015791
   8.8691213489   13.0003194375   18.9453239283
  15.1762766004    4.9999483622   11.0392040216
   8.6897096818   19.5722649003   14.9671348113
  14.4897181005    5.7717799642    9.8545735164
  15.8851099778    9.6494053200   12.6423963159
  11.1418576530    1.2620181189    7.1212217972
   2.4189417498   10.5266998988   15.5822023581
  -1.7417772360   11.7013791688   19.1848438971
   1.0570971589   13.7912509117   14.8838180819
  15.3957492681   12.1616839222    0.6901913791
   4.5438821553   11.0051265172    7.3373542692
   4.7462104068   11.0496327218    4.1550241155
   9.2582783122   17.4991242519    6.0693837928
   7.9751588183   18.3440338639    6.0355421066
   1.6498518568   12.7074905682   15.7932045685
  -0.8511795306   20.2417055675   13.1131352575
   0.9791484293    1.6113023693   12.4104938202
   0.8698025195   18.5667861204   12.5468343591
   1.7968527664    2.3620269365   10.1796955428
   8.9143668293   11.1484514064    1.9749402833
   2.5049490632   10.2545667734    8.3079157015
   5.6198967243   10.4972575306    6.3291108465
  13.8055207360    1.5675874316   14.6271697832
  -0.6679333287    9.0636803686   18.5134042147
  16.6075962705    4.6729046079    0.5338878065
  -1.2326044907   13.4547681439   15.5254365935
  -0.2807885964   11.3444125240   19.1953462196
   9.7109992758   16.8183875334    3.8033833595
   8.4595225416    7.1563097915   13.4924604616
   7.4380300924    2.2070696190   16.9217128466
   8.4380140368    6.4586590775   18.7764502647
   9.2267464635    4.7519295487   12.5047334272
   8.2886353821    2.0715261225   18.9134309493
   8.6837341077    3.1470220873    0.8198991110
   6.2642066541    2.7860234275   18.6610346603
   6.3291709391    5.6422931917   19.3003318614
   8.2949710984    3.1245365011   13.6866433620
  12.1972646399    4.5472402862   12.7763413487
   9.9066246378    2.6103589836   12.2910787523
  12.5276219296    5.1084404419   14.9476412460
   4.6012520223    7.2441576754   15.7603140486
   6.0415892460    5.5566062967   15.5874440661
  10.9767482532    6.1087025263   13.7570346521
   5.9668682151    7.0959847444   14.0699737687
   2.9800280512    4.6475009757   13.3290601777
   7.9634768642   19.9287087549   17.9287234631
   2.9051085474    6.9012146873   13.5888430350
  10.8676169079    8.0415088205   10.0213490273
   1.4330008321    5.8558898435    9.6411948292
   6.8794794474    9.6251405765   14.6556247688
   8.2177424454    9.6334427643   16.4228271977
   1.3307174059    5.6085118448   14.5360225946
   9.6405323273    8.1747680784    8.2690119680
   9.1808805018   18.9394142605    0.4079874457
  14.1252356511    3.5579161076   17.6466333678
  10.1589331276   20.2523799549   18.0411954863
   3.2825065526    5.3647396801   10.6958303001
   9.2916800429    6.3581714431    9.5526793682
   6.4528601045    9.3344278696   10.9479878955
  13.9499151513    1.8248446388    0.4281829670
  12.7463902389    4.9674455467   18.6703849976
   6.0130071735    9.8553339767   16.6451201520
   2.6424119931    7.4239859634   10.5092894679
   6.4842561791    7.6970538727    9.4457982402
  15.1559476271    9.3174711862   15.3861618020
   7.2543328257    9.7096007563    8.9687555063
  13.9120450001    3.0136601530   11.2057428290
  13.5917876881    8.5540197830   14.0705849386
  14.5960857686    5.2218388585    8.6460671871
  15.5767221013    3.0821240001    9.7552408205
  14.9059323829    7.0932901626    9.9871464240
  14.9538774663    7.1404362693   15.2434633609
  -1.1765685529    9.5504063943   11.5179127116
  16.0337262591    2.9593782492   11.8804983120
  -1.4506947285   10.6514404320   13.4686702445
  13.1940078093    5.8367064560   10.1246031399
  14.7158558144   10.1549500155   12.2411409080
  -1.7184534263   20.7488014371   18.4259113032
  11.8702660355   13.2833315856   16.1366353108
   1.7539159180    2.2878715250    4.5553318653
   5.3621987049    6.4114103575    1.8962322354
   5.3798587558   17.0162562587    8.7245586536
  10.0706707683   11.9095569575    7.7861627633
   5.4964094516    6.7092785744    0.2755820057
   5.2424292703    3.0370907734   15.6669529786
  16.4709191666    4.4495399373    5.1358583121
   0.0173307210    2.7423035452    1.7413997717
   1.0839511601   18.0880280090   18.0328118391
   0.2809390295    1.5388678125    0.4248882280
   6.4761522974   14.2242396763    7.8514159209
  -0.1059381298    4.5097834611   18.0523474397
   0.8462609634    1.1262484829    2.0561953640
  12.3356024948   11.7239906502   12.2501402697
  -0.4512168216   19.6504523721   16.8056318558
   6.9075526759   14.0575484403    6.1204481654
  12.9122731585   15.7853442460   14.5474504566
   5.9261692651   10.6937714467    1.0620622127
  13.7788163656   12.9188671812   12.1996963151
   2.6266764085    5.6392928247   19.1060103557
   2.3693054629    7.4611894340   18.6260602939
  11.3367852728    9.6718237893   17.7682256928
  12.1711238002   11.2773216992    7.1363083392
   1.0048069722    1.9696136017    6.2120729986
  16.8158642199    3.1331690658    6.2736988783
  10.2686395897   14.3429483351    6.5133890676
   4.5943368120    3.5108311463   17.2558887973
   5.1054938193   19.9965091190    9.1211211818
  11.7461132406   15.2781898536   15.7445821150
  12.4262783856   10.8747607482   14.2822332048
   1.9458610776   16.3685027794   18.1368721502
   2.7984415789   17.7803008618   17.4271258212
  11.1046416459   16.2048531237   14.3539101967
   7.1694117696   17.4607831628    8.9717066914
   0.1717096128    3.3212300500   16.7969521343
   2.7285160209   16.7371846535    1.9826418275
   1.1921346370    8.1607531227    6.1684175409
  13.2854572399   12.1834920122   16.5710019219
   2.3558094505    3.2107213674    5.9024347930
   6.2433061134   16.4273280374   10.1435073348
   8.7101362462   11.6550755161    6.7027834187
   4.1404224700   10.6568813212    0.9395082896
   7.2511194068   12.6535610279    7.2711749910
   4.6848663577   11.3387039572   19.1638378369
   3.9044705070    6.5789250238   18.3752281575
  12.1342335998   13.4398686036   11.7109618478
   2.8566371814    1.7122460911   19.0234370266
   3.5503523323    3.7065238081   15.9948938213
   1.1369566598    4.8108950144   16.6234064460
   1.9094464550    2.0448768467   16.1831726492
  16.7528172102    1.6316746229    3.7997559042
  15.7906916438    2.7491877499    2.7893117406
  12.9333779058    9.9747327792   16.6840644915
   3.0980828003    7.9276903355    1.6708435945
   3.6105998034    8.2211475124    0.0128740053
   1.6701473996    7.1683040780    7.5523182861
   0.8370574656    4.7397625247    7.3963677881
   1.4556276637   17.4024935472    0.9495474801
  12.4075510845   11.6519992844    5.3091556020
   7.2784078395    1.0811466449   11.4342760478
  11.8327977988   12.8761103639    6.5515571801
  11.2499007844    9.1475272513   16.0989954671
   8.9483484308   13.6948273301    5.5239146848
  14.0514711848   11.8875894984   14.4984926496
   3.9080541874   18.6048420016    8.8965817390
   7.1445218770   14.9172589961    3.5267629631
  -0.8790865411    5.5770574802    7.4757957059
   0.1171339040    7.9902736296    7.6252707156
   5.3905684126   14.5749302628    1.4013783543
   6.2512680137    3.3592726416   10.9133034020
   0.7700342904   14.8321000056    0.6311731449
  13.2548941674   17.9839194716   17.3328187255
  14.0523442468   16.8427502404   16.3846379919
   4.5606129425   15.3341511708   18.4333609921
  13.9562471810   15.6188453834   12.3074088157
   8.6031079929   13.8518615359    3.3127613570
   4.5361921087    3.2475889994   10.2738457069
   3.1590781653   18.9766004177   11.3561056708
   5.6606397328   12.6669408448   16.7998055329
  15.2268753820   14.4293090554   12.2373742610
  11.4829884401   19.4187548710    2.5427345845
  13.6681589325    1.3816390990    3.5348044583
   4.4537931911   17.1801792307    4.5457120317
   6.2615924328    0.8591076664    7.4839994717
   4.0534561472   19.2701038980    1.8285337882
   0.4238093304   15.3604407201    2.2760484336
   6.3389029678    2.1332469337    3.6207530922
   3.1483364033    2.1064926692    2.0040448317
  -2.2138400259   17.8703025956   11.2359202230
   1.1268103490   12.5613330738    2.4543737936
   2.2480749447   12.6342448732    0.7643265718
   7.0641178972   13.1521684182    3.5867909048
  12.6634813907   15.0404933013   17.4900960457
   4.9897256082    2.4528634462   11.7711604073
  13.6153379752   15.9894270956   18.7307110109
   6.4398236460   14.2746307502   16.5439001553
  12.0397155566   14.3417549750    8.1818500808
  13.0265152000   17.0127188716   10.3032922516
   5.3602839229   12.8498618260    1.6112262487
   2.9617653514   15.9603311942   11.0669467527
   5.9165789975   18.2685847241    4.3934141534
   4.5333488955   15.6482787427   11.8290491274
  13.3947561403   15.2580318098    8.9747540270
   4.5575019793    3.1229098336    1.3143896123
  -2.2391324391   16.1207783198   12.6844196977
   6.3315568936   15.6723639504   18.6345661761
   2.9174617561   12.5263880733    2.2503677537
   7.9712547961    1.2790863135    7.1315574383
   7.0148185669    0.6158388838    5.7548010374
   4.7891109271   14.2021604557   16.7782578694
   7.5470154127    4.7606673896   16.9878108241
  11.7538065479   20.0603923823   11.6613262294
   3.6082317761   14.8122908693   14.7743316433
   4.7188460188   15.7210529217   13.7965148784
  10.0249358953   14.2262203726    9.4265739039
   3.8180891349   17.2345522566   11.8442214303
   5.2752853946   17.5853654914    2.9394943735
   8.2471857044    0.6736189607    2.6405920267
  -2.1682311847   17.2247823203    9.5220189113
  13.9416517733   19.0161500135    4.2051299219
   6.5743266001    2.4727049813    1.8115850612
  12.6498183267   18.0192767071    3.4418945124
  12.9811841544   17.9087007338    5.0895356150
   4.2489439825    3.0872245443    3.0286477251
  12.0415954233   16.0780949355    8.2716209307
  13.5943633574   18.2668602775    9.2594385548
  10.1237247305   15.2138772786   12.2020581582
  -0.1803920703   18.7183422289    9.5312357760
   1.9000673982   12.1352794815   10.7120484448
  12.2625139464   13.9360542292    2.2759280193
  10.8785896596   13.1712388807    3.3881808942
  11.3196095337   18.4217224180   10.9333427900
  12.2098938902   18.2905526549   19.2153323448
  11.0658148530   16.1816893171    0.1419928285
   1.8126118432   13.4410582795   12.1009085218
  11.6455321908   18.6445966744   12.5489501325
   0.3933011438   12.9869322309   11.2877559003
  12.6331879441   12.7273714484    3.5184755873
   4.7454149582    2.7230007494    5.8021954351
   9.7700566143   15.9824221433    9.4489671567
  -2.0795813638   14.0024850753    7.8489119463
   9.1974563568   11.7930001711   10.2893842710
   5.2026409610    3.0274834633    7.4679259656
  12.2794608287   15.6772337760    1.2427834806
   5.7716633156    4.7579978844    4.9146632796
   6.0577299635    5.4978434058    6.5701945943
  14.3070963015   11.8989450253    7.9374080632
   5.2439569620   19.9054696361   14.5517624609
  -0.2685737917   19.4216373046    7.8217730422
   1.1443647916   18.3190221849    8.2932493669
   8.5832661309   15.2679099569   11.5240751742
   3.9117609654   16.8788205453   16.0186883520
   2.5551109857   17.3803510764   14.9868563148
  -0.5375820841   13.4319309201    8.3486014957
  -1.1026876920   11.3905357557    7.6489310018
  11.1398875799    3.0416235313   14.5044316322
  13.7785597708   15.6870842977    3.6306774353
   4.7035618315   19.2660014048   16.1023824920
   8.1305728689   13.0698891323    9.7954150259
  15.2267959437   11.1414409151    5.6516444548
   3.3574612203   19.8274072715   15.0460638011
  -1.1735978652   18.9373074594    5.8038136902
  -2.5122304468   18.0116101996    6.3490937670
   7.6905962853   12.1218600328   11.2763085469
   2.8973041474   12.7503235910    9.1124017902
  -1.5174933326   14.3291687903    9.4642557537
  13.3336727623   15.5917740650    5.4366610146
   3.6333053756   14.1882160107    9.9242266640
   0.4483315351   17.2433237213    6.6624334986
  11.1147383180    3.2329680136   18.9634372301
  14.5513339332   10.9165082986    9.5042024440
  -1.0679495721   16.1067988935    6.8013204168
  15.8930648965    9.5553457123    5.1049456880
   4.4528378033    6.5809598930    4.4672299543
   7.1198369452    8.4599847987    3.9870521988
   3.5403007036    7.1540875612    6.0685811862
  -1.1411828499   10.1854160498    8.9516398952
  13.9463784357   13.3818501200    5.5266548443
   0.3850083967    7.1097891306    4.2625450105
  -0.8230926824   10.7298071521    5.7180427495
  -0.7940509767   17.5885333101    2.7712921511
   0.4188665153   17.7048523325    4.0508335853
   1.8318991687   15.2484557961    7.9377545250
   0.7245454596    7.0030164282    2.3662305357
  15.2248202270   14.6344961022    5.4998668174
   3.5821022512   15.3772425912    7.9259625050
  11.2330472702    6.8312703533    3.5258947555
   6.6080644102    7.6116179399   17.3047262480
   2.6648882481    6.2004491192    4.9486070795
   1.1218393222    8.5414834706    3.2746697504
   6.8782419727    6.7633853947    3.4137419987
   8.3428501491   16.9677686783   17.0613014870
  11.2763796409    5.0252998603    3.1173692297
   7.5777539608    7.0709259675    5.0677848665
   0.7355038386    4.8237222401   11.7581325631
   8.2632414602   18.7819309013   11.2789352318
  11.5163092160   10.2775669897    4.1005980123
   8.5628785337   15.6524710906   15.7985576335
  13.3218896958    6.9712431103    6.8239939619
  11.4354895089    8.8690672678    3.2636519797
   9.2486160296   17.3853045967   11.2306358436
  -0.8511970174   19.0876317715    3.8177669048
  11.8100868517   10.6599864246    1.5335320803
  12.6410341953    6.9012494578    1.7744928207
   8.6686893987    5.2899894779    3.3641258715
  -1.1467958941   12.6398748026    5.0129344241
  12.1106734919    8.8230638502    1.3029636675
  12.3156965834    5.2574256556    0.9410943473
   9.9152640294   16.1293128247   16.7631995973
   9.6992531241    5.5984922146    4.7523147740
   7.5815265342   17.2090164278   11.9484948163
   1.7512359916   14.8344864565    5.3143523346
  -1.0036766575   14.1977076848    4.0606325189
   9.0415435203    9.5361837457   10.5087087725
  14.6969576383    8.0988056057    6.3823651235
  -1.0491514972   12.5453069852    3.3559416637
  14.9457419387    7.7505207606    3.4613496074
   3.3810278998   15.4575471679    5.7040978509
  14.7144538809    6.2938260684    5.7174757389
   7.3690817941   19.3750924517   13.2489946279
  16.2014507366    6.8412155778    4.2746636750
  11.7363651428    8.8027335250    5.8314019547
  13.1459810904   10.2431413395    0.7458869841
   3.1151364993   13.8856852090    4.7258728224
  13.4953730409    9.5450779261    5.4993338500
  11.9295811185    6.9532022625    0.2199914961
   9.3979954324   13.4963192042   17.0445938189
  -0.9317712389    8.2590892147   13.8940420046
   9.3698610718   12.0093491414   18.6967856860
   7.1608303971   18.1468839238   14.2513196075
  10.3083945985   14.6170580073   18.1257654863
  14.8167685852    5.4318521332    2.5034739905
   9.4101004514   18.8925898945   15.3851751307
  15.1545411606    6.5427395620    1.2983174269
   7.8379398357   12.7354280771   18.9253353831
   1.8249795581   10.0396925682   16.4513635800
   1.0771494879   14.8448160889   15.2582621901
  10.1865878277   18.0122986895    5.7306346384
  10.2622899810    1.8557892731    6.8937098742
   5.0003666354   11.0970383650    8.3217895210
   3.6927963894   11.1766132281    4.4470495088
  11.3944474885    1.5883608958    8.1442774195
  15.9348309721    9.4350351166    0.3639975104
  15.7020224909   11.8103811109   18.1883213309
  14.5815711225    5.2092393403   11.9789625395
  15.6803002366   13.1677121168    0.8852127106
  14.4932412962   12.0653829903    0.1627773080
  -2.6651945039   20.0922984160   11.9697941153
   2.7994705696    1.6292631220   13.8102472703
   0.2004536478   17.8332092936   13.0003272936
   1.0712562838    1.6441912902    9.8186163536
   8.0427473109   19.9645808197   15.7259252604
   4.1853772805   11.9568067051    6.9242353571
  -2.0485709814   13.9850602394   15.1050454104
   9.5646394333   17.9143293443    3.6127136667
   2.8990328403   10.5041840380    9.3231486347
   2.6739734265    9.6664860840   14.8952507158
   7.9174361968   19.0181154928    5.0823798033
  -0.1693898655    7.1052978074    0.1946566470
   1.5292645609   13.9444960858   13.9414573989
   9.0468096821   11.7659839694    2.8566660592
   1.8620049778   11.0712020495    7.9429194351
  11.3540934088   19.9775900923   14.4608831148
   4.9147365263   11.9386386787    3.4334148561
   2.6941771854   12.9696084097   16.0541751303
   1.6809123401   18.7366215557   13.2161103335
   2.7561196000    1.8922510320   10.1386399974
   9.3684278971   17.0672166579    7.1236367963
  -1.5133761795   12.4011824064   15.8160531986
  15.9169665806    3.9129382664    0.6168694429
   3.3721855403   11.0625498422   15.9273171724
  15.1414336088   11.8433888064    1.6766034317
  12.0595740697    1.3691566383    6.4249579534
   5.0969447821   10.1479388728    3.5932027458
   9.3013526572   10.1554830458    2.3210312236
  15.7881184287    6.8498993363   19.1606830064
   6.6955936173   10.5315899855    6.6432798618
  14.0994810631    2.3708247843   13.9784005424
  -0.3328074820    8.3930625788   17.7804306587
  10.7531115363   16.4364834824    3.6345090361
  16.1076641226    9.3743928456   18.2686287039
  -1.3304545537   19.5285595954   13.7313459271
   0.4490939798    2.1024246600   13.2223693172
   1.2005696691   17.9323083098   11.6122524911
   1.6841305755    3.1970794997    9.5724248632
   0.4583288166    9.5109047076    0.7610047878
  -0.1040536924    4.4525683741    0.3372191154
   0.3175890967   12.2279326843   18.9664708818
   0.8149676413   12.3857175882   16.5235453366
  13.9967012767    1.9197913692   15.6625402773
   9.1859589983   16.1135973687    3.1415019859
   1.8809722879    9.3663172529    8.2369734949
   7.0491923366   17.6220573534    5.8820229330
   5.2058012585    9.4780185731    6.0916864776
   7.7722134671   11.1085614445    1.6857675059
  -0.8850236220   13.9401719985   16.4617448633
   4.9615562895    8.8302445302    1.5571469276
   8.4504045948   14.2908266870    7.4809414460
  12.4245662688   13.0005491766   13.7752848292
   4.0507328988    1.7342835153   16.5120356006
   1.9117192870    3.5525310953   18.1241231402
   0.4816644585    6.3315165191    6.1284961917
   3.9407768352    5.3576792746    0.9052541405
   0.5463298152    3.6971045340    4.9731042017
  10.5155528963   11.4600026373    5.7625777046
   5.5027815881   18.2205823957   10.1714634434
  16.5187259807    1.0107648768    1.8035221236
  11.3089656653   11.2575618955   16.3994284298
   3.0314987796   16.2407937996    0.1016615748
  12.0246263327   17.2338976015   15.9072672361
   5.7079671994    1.3677700615   10.1283220775
   2.1506795147   14.2391021284    2.1123709126
   7.2060826235   13.8265258866    1.6017243596
  11.9457865658   19.5437815148    4.6396528910
   5.7871122826   13.7119071840   18.4896249887
  15.0776461082   15.8067260782   10.6991306888
   4.0011536374   18.9621796101    3.8895763997
   4.9917719149    1.2847534721    2.3642545211
  11.5615907338   16.3168516796   18.6250930429
   6.8075378789    2.6142055953    6.1892506100
  13.4168158345   18.8157218652   11.3218171956
  11.5637629393   15.2657531847   10.1475378810
   2.8861999395   15.8080572382   13.0047279706
   4.5030911588   18.0147094854   14.3701442788
   9.7841102723    4.2862310661   15.5165405670
   9.3791829898    4.1212739763   17.8938428125
  -0.7981594401   17.4717187343    8.1836664127
   9.5076290720   13.3687019540   11.5834073889
  12.0949512574   14.5519647896    4.2551775241
   1.5993754268   14.0044485386   10.0610028614
  15.6619963706   12.6152061636    9.5203504830
  15.7453691001    9.7994340014    7.1101696069
  11.3157573805    3.2226654186   16.9684923917
   4.0121245275    5.0728962542    6.0087341814
  -1.5991875123   17.2170205708    4.6508497457
   8.8198740720    7.3192923118    3.4633878749
   8.0386794098    7.1207342721   15.6313635334
  14.9815618516   13.3308417814    3.8491048904
   2.7868991949   13.7454524725    6.6945163129
   8.7407092914    7.8936832590   11.6757391529
  13.3009280600    7.4764363674    4.8719138617
  -0.9716914106    8.2428702034    2.9958798244
   0.3360771148    6.7934300590   12.3812999296
   8.3590259544   15.0642006359   17.8170149349
  10.5849788426    6.3455191529    1.6606672508
  13.2087838624    9.7304289051    2.8314686700
   9.0070381098   18.2217564649   13.1615160805
  16.4853743036    5.4081552790   11.3411279919
  15.8178534416    7.2939422563   12.5362062368
  16.8614876627    5.4983688587    1.7198707941
   1.6800217030   11.5802974081   14.9534275036
  12.3752870188    1.3814050958   14.3344092234
   5.7538185715   11.2326208227    5.1285465820
   7.7645818249   19.1371953419    7.2193639139
   9.6668017458   11.7464627061    0.9648897841
   0.0717431917   10.2770968826   18.3359647289
   0.0249726414   19.5968653800   12.0772338422
   1.3633401569    2.7030553914   11.5729325040
  -1.2271882338   11.5023198833    0.2380929823
   9.2139990387   16.4158115973    5.0621156347
  -0.2422212120   13.4976945321   14.4499373130
   3.5630471341    9.9574086371    7.3702089868
