B2 C140 Ca1 F48 H298 O66 
1.0
1.7888242167743059e+01 -1.2776723718464209e-16 -1.6411900924079662e-17 
-2.9861425082381490e+00 1.9220735536990695e+01 -9.4754543018028151e-17 
-6.7730523621533076e-02 1.3524314036060605e+00 1.9361848859542089e+01 
B C Ca F H O 
2 140 1 48 298 66 
Cartesian
  10.5925626228    3.7249001367   16.7283748456
  -0.7647379471    6.2692328863   12.0219345204
   0.1474089356    1.6064493457    1.5401296814
   7.4044360866   13.7004321125    7.4364715152
   4.7399487705    6.5562077666    1.0171317493
  12.9779554253   12.6190454419   12.3542854476
   4.5668537756    2.9457159353   16.4397176863
   2.5283075712    1.9567547282   18.0763228129
   1.6043719982    2.5055684838    5.6042563266
   2.7951851181    1.1981516566   16.6974136541
  -0.1212345454    3.9837113681    5.9277958202
   3.2791626551    6.5009566390   19.0419354110
   2.5087387998   17.4571719056   18.2051475384
   1.0818703511    3.6765104449   17.2209983328
  12.2554917439   15.8348038430   14.8913820861
   5.3303414260    9.9534929573    0.8013329217
   6.1103035625   17.0274445886    9.3944599271
  12.4064995045   11.7926545564   16.0286978010
   9.6386740460   11.9336754046    6.8366243132
   9.5709194857   13.3485336834    6.5231264784
  13.1254699885   11.7279105179   14.6345810387
   4.0451644262    7.9404620052    0.9198852556
  12.2982565438    9.5091388632   16.7814299121
  12.1101638314   11.8374692887    6.3396214701
   0.0324615831    4.9992369430    7.0106187524
   0.7897450960    7.2992075830    6.7802578340
   4.9377008561   19.0954457868    9.6114682105
   2.1721406803   16.3202207418    1.1118442888
  16.0404897963    1.7115693898    2.7446808579
   4.0412035403   19.8608168668   10.5884392308
   1.3813762951   15.1371553717    1.5071141172
  13.4713734314   16.8302091633   16.7128935983
   5.5080076644    2.4650252460   10.6018813846
   7.3387047264   13.9788822258    3.0031970661
  14.8352443960    0.8062903225    3.1767578115
   5.9884384484   13.7243781211    1.0070750424
   5.8743341067   14.8557993427   18.9100036668
  15.1145290745   15.2261364740   12.0662870955
   1.9042330078   12.8531176776    1.9270640029
  13.1595501161   15.7925647878   17.8258906949
   6.1578770554   13.2792235230   17.1315254649
   5.0056458375   17.8645554646    3.8133254627
   7.2271541573    0.4027788334    2.5700869151
   6.3625501453    1.6416918117    2.5878654951
   4.4286455387    2.5522765017    2.0936830729
  15.1844434165   17.0396525052   10.3894290307
   6.9769735240    1.3533284825    6.7805190997
  12.4975792375   15.0776814516    8.7910284218
  13.7994102671   17.6458839916   10.2458937558
   3.7565668128   16.0812155987   11.9288953309
  13.1417517056   18.3677093997    4.3662147849
   7.9374193052    2.5420240818   18.1653638845
   8.2770728640    4.9964092653   19.0561178124
   8.4407149454    4.0196240701   17.9231105505
   4.1127370064   15.4239394274   14.1978360768
  12.2202412348   18.8036309081   11.5193140802
  10.3704133366   14.9073146380    9.7656113848
   9.7841489839    3.4443109300   13.1525018885
  12.1598632876   17.1127875023   19.3456721712
  12.0027251502   13.3733735715    3.2599502716
   9.8716301897   14.6289673892   11.2177846257
   5.4984220261    3.0068743364    6.2421383662
   1.6400458720   12.8212010261   11.0968301709
   3.9726401198   16.6753173672   14.9647096835
   0.3190906364   18.4912191156    8.5893529988
  10.7922394745    3.7730440829   14.3263037988
  11.8101185632    4.8639705444   13.9230272542
   5.4807661281    4.4091703242    5.7820735564
   4.7495022803   18.8749805083   15.0009661966
   8.8293275060   12.5658725992   10.6886146368
  -1.6224976419   13.3935379194    8.6594454168
  15.3881326671   11.2690631624    8.8534524341
  -0.5526663998   16.8718817637    6.8687940009
  -1.3496610965   10.5158363058    8.1826743441
   6.1269536316    6.7361579694   15.3737258730
  13.4011092157   14.9734665238    4.4542856915
  -1.4256627970   17.6658765845    5.9309266057
   3.0181347849   13.6144034762    9.3786620471
  16.1468020014   10.2113957801    5.7348190625
   3.9927427622    6.1295180541    5.2761340572
  12.1201485251    2.6895808132   18.2078918758
   2.3703974277    5.5640358498   13.2867451478
   9.2159533552   20.3446640544   18.4436435184
  14.5401749193   14.0529058772    5.0231415123
   7.4269548780    7.4199545970   16.1911271284
   2.9718830886   14.3666099900    8.0234745995
   7.5968782526    7.3578346475    4.1368958723
  -0.4262305231   17.7498232314    3.7463315920
   7.3426473331    8.9545874723   16.0194912996
   9.8439601881    7.5666689012    9.4964354184
   0.6218091344    7.6362265057    2.8975672653
  13.4502416466    3.4498515736   18.5634841160
   2.3716133208    6.1314073798   10.7230979932
   1.5623699379    5.7269794135   11.9444707699
  10.8923552838    5.8989415525    3.1149414622
   9.4590612550    6.0633191495    3.6514332398
   9.2241784160   15.6694714436   16.7077803859
   8.8211249210    8.3711332421   10.4272189986
  12.3206092160    9.3750882541    3.6950708239
   8.6705901732   17.8124145931   11.8528679951
  -1.2992314168   13.1491367775    3.9648038808
  13.9943837169    7.1179496062    5.9582641083
   7.3299923202    8.6334166736    9.9396314601
  12.4485467087    9.9040451563    1.5110977736
  12.1188209854    6.2712067042    1.1240205704
   3.0111131826   14.4440115553    5.6848295314
  12.7951147522    8.8633933115    5.0142160149
  16.0901213692    7.1635436253    3.0502343932
   8.3018312066   18.6636933379   14.0184107781
   9.8318949150   13.7299266904   17.9639497213
  15.1768774752    8.1108622383   14.4138180838
  16.1683399844    8.1730025734   13.2830125116
  15.6636296075    6.2343341806    1.9875139741
  15.3749688846    3.3853428068   10.9556274668
   9.2903000638   12.7599331417   18.9976278071
  15.4138931128    4.8861737469   11.0521604443
   9.0010686963   19.3947267700   15.0966096205
  14.7527358327    5.7022114787    9.9293757432
  16.2040143286    9.4874448335   12.5325478399
  11.5175457176    1.0806906058    7.0756605842
   2.7043787227   10.1986943781   15.5521973284
  -1.4346755359   11.5095859727   19.2486778001
   1.4556671575   13.5938407577   14.9616165221
  15.3141081265   12.0413317974    0.7283938794
   4.7200907806   10.8902862397    7.3053058538
   4.6482106464   11.0401390154    4.1412433357
   9.5936053325   17.6513273317    6.0852996145
   8.1277013477   18.2105893662    6.1205907175
   2.0108768534   12.4275928399   15.7016415164
  -0.4979173378   19.9719865336   13.0836933389
   1.1256958897    1.3442053849   12.4211005666
   1.1091050249   18.4040130226   12.5336775817
   2.0931739519    2.2473169711   10.5061415620
   8.8848236697   11.2056386247    1.9389591272
   2.7178327512   10.0485261195    8.3246365000
   5.7317665884   10.3262600477    6.1755146475
  14.0422289333    1.5209445351   14.6604357721
  -0.3549001528    8.7651988330   18.6119735566
  16.5957185572    4.5899190828    0.5058392257
  -0.9189290294   13.2163738685   15.4333916048
   0.0293034361   11.1033234266   18.9967109798
   9.9155658084   16.6615645119    3.8809685933
   8.8176817279    6.9859459887   13.4522180607
   7.9430415303    2.0865397809   16.8431097446
   8.8626555220    6.1880108551   18.7291536145
   9.2331937816    4.4875712092   12.4418631399
   8.7938432930    1.7397850199   18.8952711681
   8.8305707204    3.3323378102    0.9348856913
   6.6257589351    2.4911602267   18.6035786939
   6.9032758991    5.4024892011   19.2079781266
   8.7043074922    2.8513363053   13.6296348324
  12.4990258656    4.4173517988   12.7106474991
  10.3263264317    2.6134025576   12.2565384656
  12.7760866830    5.0400954805   14.8271588217
   4.8393333907    6.9446685058   15.7310642622
   6.3102295665    5.3807885111   15.7713566535
  11.3828666908    6.1383439871   13.7040943385
   6.2564709637    6.7690005290   13.9948494342
   3.1365623715    4.4924558283   13.2605026485
   8.2561739643   19.7061419618   17.8519647947
   3.2501298952    6.6777520488   13.6105301757
  11.1531512116    7.7584798188   10.0211972856
   1.5927064215    5.6941230987    9.6795671356
   7.1912775405    9.4120880349   14.7274761082
   8.5960948317    9.4847962947   16.4462402073
   1.4885747730    5.3724037759   14.3223744032
   9.7642866434    8.0568916507    8.2288899596
   9.2255770037   18.8308082861    0.4307905258
  14.6009234272    3.4004064566   17.8259477316
  10.4092451851   19.8944428675   18.0706301902
   3.6059124433    5.4752273928   10.7027182666
   9.7817784423    6.1675180760    9.4010289436
   6.5631081239    8.9782118652   11.0622955712
  13.9212909420    1.6183141602    0.4439675087
  13.1036405821    4.7927470516   18.5058109618
   6.3403397605    9.6099393150   16.8680964445
   2.4942169773    7.5186990482   10.7721988312
   6.7185575233    7.6504204175    9.3444127007
  15.2958903520    9.2038369649   15.2019151551
   7.3601033786    9.7289700700    9.0983583019
  14.0936168540    2.9870081002   11.2405864095
  13.8628803006    7.9714772090   14.0224213760
  14.8173701412    5.2741044068    8.6833355964
  15.7136027938    2.9760696342    9.7131197336
  15.3852730292    6.8930408936    9.7480340448
  15.3336039351    7.0341607507   15.1493820472
  -0.8527081341    9.3865224476   11.4638645753
  16.1516944717    2.8040365562   11.7963019173
  -1.1799422369   10.4311885632   13.4201370771
  13.3912666184    5.7663141569   10.1862038690
  14.9914592665    9.8214621001   12.0958981300
  -1.1444881445   20.4269881331   18.6407434459
  11.7764287402   12.7390768392   15.8793082576
   2.0672987197    2.2525110330    4.6435338289
   5.2652357966    6.5336043926    1.9703425116
   5.2306416464   16.6593548186    8.8510847289
   9.8775047165   11.8978717360    7.9522810849
   5.5999445553    6.4750220758    0.3807190782
   5.5438545437    3.1521640124   15.9864672779
  16.9582121780    4.4587501895    5.3322145650
   0.3758616270    2.6964544474    1.8154260296
   1.5104833467   18.1402061315   18.0413810489
   0.4110891162    1.4976910559    0.3898552220
   6.8376897143   14.1288937551    8.2335507848
   0.3861383095    4.4637162660   17.6808083251
   0.8732791701    1.0765442010    2.0931340603
  12.3425585658   11.8101291908   12.0076689277
  -0.1893883502   19.3537639187   16.9476431643
   7.0540087552   14.2214320156    6.5470480493
  13.1341519310   15.9278059817   14.2347478440
   6.2151252545   10.3179311743    1.3420238934
  14.0765608770   12.3703023219   12.2838098834
   2.4943572793    5.6633614713   19.1747641350
   2.8891742596    7.4072436470   18.5648417723
  11.7604824823    9.1225060668   17.6609570628
  12.2970156966   11.5247468819    7.3682505240
   0.8751611685    1.7692599065    6.0622838101
  17.4111282807    3.0086959844    6.4291178606
  10.5312589321   13.8278886005    6.7375787499
   4.5385584753    3.3748136593   17.4448385616
   5.6963841991   19.6781339631    9.0721598038
  12.3782349892   14.9333420939   15.4869054963
  12.9133396406   10.5671685010   14.2600989182
   2.2891185348   16.3661149618   17.9829747516
   3.2881390152   17.7992639597   17.4987289919
  11.3173770085   15.9743687302   14.3637077319
   6.9189666473   17.5146703447    8.7135527273
   0.4624375213    2.7999129841   17.0112169846
   2.8057114731   16.5274619484    2.0501710547
   1.4171465534    7.8877011644    6.0385135032
  13.2421651493   12.0966051355   16.7620014974
   2.3776942565    2.8542865264    6.3320195656
   6.5173594590   16.2602213106   10.0027127457
   8.8242465307   11.3510433875    6.6089453495
   4.5512499464   10.6823799080    0.7475642412
   7.1254855422   12.5613207452    7.2924004379
   5.6775549135   10.9043603090   19.2367799814
   4.1071979180    6.0304393574   18.3685096908
  12.7866535042   13.4803902631   11.6799460939
   3.4712783992    1.7618280387   18.5585209172
   3.7741462895    3.5081927566   15.9372235517
   1.6914081179    3.9805128114   16.2088260896
   2.1347393259    1.5232407080   15.9111307574
  16.6158209158    2.0289426526    3.7035303831
  15.6466241025    2.6671720389    2.3679719784
  13.4496895406    9.7703604162   16.8701822908
   3.0966795765    7.8818651476    1.4040281596
   3.7637221973    9.7182942450   19.2403152713
   1.4787331061    6.9131015284    7.4903162667
   0.9221982950    4.7949468706    7.6787265408
   1.4607763815   17.1994905579    0.9546612631
  12.7107085465   11.2445190155    5.6313581503
   7.5692555292    1.5019458431   11.0398690935
  12.3101392003   12.8926701973    6.3008783784
  12.1063440876    8.6669918663   16.0129084434
   9.1994816598   13.5416174843    5.5317504971
  14.2259700490   11.9938522866   14.7201389918
   4.2640990138   18.4614850787    8.9658288128
   6.6964698523   14.8438834783    3.2833251143
  16.9585398013    5.0890257713    7.5781908398
   0.0669884246    7.9719075429    7.3058626259
   5.5259537418   14.6043412817    1.3713628763
   6.2238312478    3.2550411022   11.0475468991
   0.7563489013   14.6794479873    0.6543381403
  13.6564748066   17.7333448991   17.2106518230
  14.4351700755   16.5614265401   16.2620972235
   4.7780124449   15.1764782582   18.6763235646
  14.0999662913   15.2584984745   12.3784924255
   8.4351942105   14.1674552024    3.3034151563
   4.7290551880    3.1072875510   10.0897322613
   3.6377688774   19.1745022778   11.3066539648
   6.0283971373   12.1925427281   16.9425532032
  15.5390393905   14.2917476673   12.2843481502
  11.5063790235   19.2916798666    2.3967866467
  14.0822680008    1.5618131219    3.4056329968
   4.7304863577   17.3156886546    4.7340438951
   6.4045934902    1.3233353235    7.7955449688
   4.1588755414   18.9959940352    1.7300754932
   0.6666595540   15.5376976476    2.2644957193
   6.5903712840    2.1186853803    3.5732245773
   3.3444868229    2.2868757306    2.0783455554
  -2.1659572808   17.6757906102   11.1002085260
   0.9028509611   12.5989905059    2.4352153931
   2.2654978935   12.6050602313    0.9104020345
   6.9958391376   13.1190147171    3.6025868082
  13.0658861706   14.7200783247   17.4345512431
   5.0392848751    2.1386919985   11.5457846847
  13.9825618415   15.7664904626   18.6214982250
   7.1175590716   13.6325403572   16.6897687952
  12.3793508974   14.2141370419    8.1358913425
  12.9991801772   16.9089365978   10.3291045999
   5.3834923481   12.8772943861    1.4255786801
   3.0435596676   16.0851130443   11.1282246250
   6.1803709906   18.0415065558    3.8165727462
   4.7140852285   15.7488819307   11.4781454050
  13.5817679996   15.1387503796    8.9373430652
   4.7508844224    3.0366020072    1.1154460188
  -2.1803392496   15.9632093288   12.6941652252
   6.5225567010   15.5916799864   18.3636581777
   2.6934734285   12.4140734296    2.4478397897
   8.0351006234    1.1544192005    7.0145618788
   6.6725014856    0.6709274201    5.9956238270
   5.4066443020   13.8742821282   16.5786329521
   7.9891400990    4.3971841215   16.9805695918
  11.9553674899   19.8277758942   11.5928564301
   3.8820307360   14.5550801079   14.8187562262
   5.0982696353   15.3080962252   13.7657843909
  10.0626897356   14.2687565927    8.9322216115
   3.9817629821   17.1154014263   12.1922306631
   4.8942205724   17.2450756915    2.9145720469
   8.2500504214    0.7813136221    2.4675001100
  -2.1352348320   17.0224424863    9.3715689045
  14.1062176393   18.7184201214    4.0355170227
   6.7317388134    2.2301247719    1.6666068986
  12.8587833927   17.4750883696    3.8037647403
  13.2744144643   18.0724915891    5.4006090654
   4.5655056401    3.3156485053    2.8055835112
  12.3095406297   15.8800382004    8.2128851543
  13.6759418282   18.1509517746    9.2596866076
  10.5041209874   15.0915765952   11.8775146893
   0.3235631052   18.4037644126    9.6811829406
   2.1128088827   11.8798558350   10.7673802014
  12.7404985538   13.5637256229    2.4425292429
  10.9485855459   13.1741777650    3.0169796622
  11.4708462853   18.2311972631   10.8079829082
  12.2524881029   17.9590131283   18.6386575006
  11.2920684122   15.9556895816    0.5323077734
   1.9875480342   13.2445642871   12.0555088478
  11.9149493012   18.3783018320   12.4414627229
   0.5285177119   12.7542702793   11.2595415846
  12.3411579898   12.4677556562    3.7906680455
   4.9371688978    2.3552492925    5.6532301136
  10.0005764814   15.9908591270    9.4940876608
  15.5879674500   13.7069930292    7.8486761857
   9.4782044918   11.7278121515   10.3216509346
   5.1166205345    2.9055436203    7.2231772747
  13.0185581179   15.7836874884    0.8025261371
   6.0230197764    4.4589227113    4.7924877225
   6.0932327202    5.0890253746    6.5084283727
  14.5697719812   11.5563381102    8.0859090286
   5.4778382287   19.6327657987   14.5708070675
  -0.0682488146   19.5853561793    8.2794966999
   1.3004803872   18.2761174836    8.1323524015
   8.8265072102   15.0761756624   11.3728137812
   4.1765767225   16.4922642020   15.9600218047
   2.9175667675   17.1291917550   15.0166885159
  -0.6719715485   13.2191730220    8.1662102833
  -0.7734267226   11.3139404237    7.7366864474
  11.4872992750    2.8663890486   14.4071320783
  13.7330895733   15.4720576361    3.5470215432
   4.9267646686   18.8760753195   16.0818923995
   8.4299849298   13.0329571259    9.8293407711
  15.5197693906   11.1569728408    5.6504273977
   3.6465339148   19.1411637462   14.8796339250
  -1.2685562797   18.7512804511    6.0335237785
  -2.4852179353   17.5755912001    6.3221234938
   7.9172924497   12.1344883589   11.2661180987
   3.2377566349   12.5900577706    9.1323948899
  -1.5596390073   14.1457092087    9.4178915038
  13.3094939776   15.7687719448    5.2888425927
   3.8021745197   14.1221881743   10.0237474402
   0.5383136862   17.1055946952    6.5973044183
  11.4220800541    3.0323282692   18.9856583962
  14.8821409755   10.6267995208    9.6176117620
  -0.9094381999   15.8900325660    6.9277580497
  15.7173152830    9.4494737735    5.0700512817
   4.8428160507    6.3104734401    4.5651189543
   7.4040331667    8.4807702192    4.2006319401
   4.0045249426    6.8605993958    6.1010133357
  -0.6810225700    9.9786327213    8.8908857579
  14.2407701224   13.3206129953    5.8329562471
   0.8304822505    7.0155328294    3.9184731222
  -0.7377521899   10.2818499804    5.4920776455
  -0.4965592265   17.1010913207    2.8032217960
   0.6041682398   17.7881096882    4.1116797367
   2.1177095318   15.0460267015    7.8479844024
   1.0750585233    7.1404170796    2.0182643802
  15.3039315459   14.6624015942    5.5212507500
   3.7720346851   15.2172971049    8.0769411284
  11.5932280986    6.5925301794    3.5845321639
   7.3859855118    7.1893516146   17.3177278109
   2.9570380097    6.3294982309    4.8935128599
   1.1363201583    8.6660241637    3.0596211702
   6.8407757646    6.7856207083    3.5694967060
   8.5255829284   16.5158539752   16.7650661080
  11.0842592557    4.8487217591    3.1520810717
   7.7526519676    6.9448800985    5.1234080359
   1.0672392885    4.7273913836   11.7146744155
   8.5388795863   18.8522783726   11.5444089171
  11.7060992660   10.2953306476    4.0448160497
   9.3025954805   15.0714748600   15.8097041465
  13.2474284325    6.9182424747    6.9285875387
  11.5381829279    8.7917520719    3.3301782479
   9.4484361209   17.3433295444   11.1748762088
  -0.7271504083   18.7686150887    3.3258674072
  11.5745909518   10.5954387603    1.6894862951
  12.9341117391    6.9008305451    1.6485314459
   8.8842049580    5.2423953486    3.1270114098
  -0.8164863853   12.5678259340    4.8111666318
  12.1720650781    8.9271592825    1.0867785349
  12.4354642013    5.2103637743    1.0670964872
  10.2597488897   16.1270368528   16.7876756031
   9.5686272356    5.5662794074    4.6810081538
   7.6767189288   17.2495159183   11.6413572168
   1.9008793395   14.5542333943    5.4284201700
  -0.7667669392   14.0428577134    3.7732305891
   9.2744269255    9.3716173575   10.2628564941
  14.7033365196    7.9435452905    6.2887257206
  -1.1550190278   12.3743925375    3.2497991329
  15.2733177146    7.8883138264    3.2901265355
   3.3336268216   15.3702252744    6.0852319675
  14.3857026551    6.1465993464    5.5692655838
   7.8015212392   19.3289075481   13.3735413178
  16.1777815848    6.6172838927    4.0507015920
  11.7782788591    8.9799849350    5.4151003683
  12.8944920448   10.6113981153    0.7647167964
   3.4826701210   13.8969813094    4.8725328806
  13.5143755675    9.5472578864    5.5838221662
  12.1776620800    6.7776196707    0.0910419116
   9.9006598837   13.1343921898   17.0370480020
  -0.7520724976    8.0361884442   13.7488650874
   9.6626116871   11.7282443393   18.8103288358
   7.4822099424   18.0878498594   14.4595704345
  10.8676517186   14.0997260237   18.1829400747
  14.7528634115    5.6266020867    2.3106700305
   9.9400575736   18.9079675570   15.4418450146
  15.1940704500    6.6924886376    1.1071459271
   8.2026062523   12.5450053471   19.1192547342
   2.0715597071   10.0230496812   16.4556694800
   1.5865728084   14.4731778248   15.5838772958
  10.3600535117   18.2881662591    5.7146460376
  10.7982781239    1.6963415288    6.5319370849
   5.3190646541   11.0964774350    8.1821051295
   3.7080160942   11.0628169452    4.8082374897
  11.5178709202    1.5838068122    8.0784981537
  15.9808051208    9.5257480584    0.5835135373
  15.8271690658   11.6114849384   18.3748955761
  14.8668454491    5.1587569274   12.0825084945
  15.3380486421   12.8771449555    1.3649790411
  14.5045718447   13.4604946020   19.3583072998
  -2.1480758698   19.7634970276   11.7349960936
   3.1646741061    1.4250209392   13.7065669048
   0.6150255357   17.5474453441   13.0889121186
   1.3351174288    1.8529105928    9.8623999000
   8.3754071275   19.6566784060   15.8431826660
   4.3115855857   11.8319895420    6.9218078530
  -1.6840488086   13.8318863698   15.0893944206
   9.5727286259   17.7092230238    3.6245664740
   3.2040865887   10.2902241439    9.3087698484
   2.6822106456    9.2073028608   14.9772392380
   7.7991124819   18.8423720078    5.1934321555
   0.2282576950    6.9471855937    0.1240280425
   1.9332368368   13.8006196969   14.0106173619
   9.2594005639   11.1987454107    2.9805346026
   1.8608318474   10.7223553991    8.1668288568
  11.3910868344   19.6684702918   14.5347863891
   4.6480323406   12.1594280572    3.6487304065
   3.0083924931   12.6548465118   15.9977389093
   1.8171784042   18.8550329229   13.1969174964
   2.9779462345    1.6171841744   10.6886515332
   9.8660592016   17.3088636485    7.1661269550
  -1.1657438548   12.1268970146   15.6613807356
  15.7923925836    3.9138308932    0.5716662304
   3.7611309014   10.5723201902   15.7399983185
  14.9193568806   11.3643322838    1.5030674138
  12.4992023354    1.0816392462    6.5237853270
   4.7501130006   10.2902736438    3.3576903468
   8.7505361599   10.0919581691    1.7809067715
  16.2292271222    6.5560653016   19.0629975517
   6.8090022609   10.3409228345    6.5441503462
  14.4396838478    2.2685549511   13.9891634560
  -0.4463073984    8.1685955142   17.7093765964
  10.9760469410   16.4037991741    3.6582276313
  16.5162371848    9.1114037374   18.9559820576
  -0.9355848400   19.2391116247   13.7243138668
   0.2230081611    1.4344442017   13.0719686599
   1.6136224566   17.8182815677   11.6660177510
   2.2651125525    3.2171874149   10.1132835917
   0.5010475023    9.8216864912    0.6149406287
  -0.2735110383    4.2417709297    0.2522130239
   0.4651167171   12.0291760290   18.5229839451
   1.2080766209   11.9906968630   16.4182692312
  14.1798474157    1.8229925289   15.6777581952
   9.4015859951   15.8507065782    3.3494605411
   2.2146647727    9.0493502341    8.3124736914
   7.4644236663   17.3147556725    6.1135207006
   5.4443840482    9.3334471557    5.8548998637
   7.9430766219   11.8003648225    1.7725065992
  -0.5564135508   13.5572810165   16.4439145540
   4.8455919877    8.8789323381    1.6791558473
   8.6985891648   13.8136663732    7.6169171351
  12.5191088448   12.7981678663   13.7542242305
   4.3146886122    1.5431593649   16.4861712272
   2.0859023797    3.2778419947   18.1736325870
   0.2309533529    6.1134656189    6.1923579577
   3.8567263568    5.4082609401    0.9254553199
   0.9346535378    3.6558022839    5.0697283439
  10.7205604938   11.4028247428    5.9544698611
   5.6044792264   17.9720202008   10.3799881059
  16.7316663094    1.0686711088    1.7621859670
  11.5925451283   10.7105884973   16.4322793145
   3.0987025889   16.3844068329    0.0807426400
  12.4481571033   17.0435821350   15.8109072235
   5.9209531146    1.3143463968    9.8633322096
   2.2337062676   14.1740746903    2.1122104483
   7.2578889064   13.6887636363    1.5343714349
  12.1162624530   19.3166399222    4.4596222346
   6.0938570761   13.5122013154   18.5236904514
  15.2244303161   15.5691672244   10.6757698891
   4.1989867115   18.9574178736    3.8002178083
   5.0413526243    1.3412714357    2.4598564240
  11.8957380960   15.9946706069   18.5014237976
   6.8983337258    2.7340650743    6.1953488941
  13.6780529718   18.5891138769   11.3556701063
  11.7369383201   15.1927017575   10.0107515660
   3.2256789526   15.4627360861   12.9766615694
   4.9541924132   17.5780577479   14.4837398840
  10.1786026875    4.1709709971   15.4604283863
   9.8970095345    4.0154276178   17.8170163521
  -0.6386911608   17.4485759227    8.2103386548
   9.7497647929   13.2894772031   11.5206732498
  12.0393374686   14.4074074496    4.2792602019
   1.7843886795   13.7015500529   10.0240269305
  15.8170387777   12.4322599117    9.5757274464
  15.9340904167    9.7310724155    7.0970752013
  11.7253085975    2.9888889066   16.8990188584
   4.0880197761    4.7824842575    5.7392966075
  -1.5258852472   17.2379701023    4.5806532075
   8.7901827395    7.2399905235    3.3809293669
   8.5777326749    7.0147610705   15.6286763042
  15.1651948800   13.2588933353    3.9637380152
   3.0235533632   13.5143040147    6.7979674760
   8.8822044422    7.8071729029   11.5897717778
  13.2381690395    7.5121276574    4.8258795332
  -0.7233201699    7.9532891125    2.7881737551
   0.5429054625    6.6714435443   12.0664400596
   8.8883361382   14.7583762856   17.7772295871
  10.8534763964    6.4295525113    1.7221890120
  13.2510741945    9.6119613922    2.6552587166
   9.0248027046   17.7351076792   13.2079427505
  16.7891103414    5.2208219503   11.2644483884
  16.0310421289    7.0271042503   12.5234990052
  16.8359018483    5.3536540048    1.7064758462
   2.0530645063   11.2517400876   14.8780955453
  12.5200152948    1.4748669095   14.4274768654
   5.8240696596   11.1400426681    5.0214601771
   8.0099077305   18.9866709529    7.3461886413
   9.8860079770   11.6989129417    1.0547268431
   0.3407659946    9.9957977978   18.2935870680
   0.1624516086   19.3237975147   11.9589329397
   1.3702116668    2.6031128597   11.7703974330
  -1.2109003620   11.5708709800    0.3584582258
   9.6289113842   16.4499278754    5.2670325899
   0.1060976035   13.4773763228   14.4544665125
   3.7116390333    9.8827306923    7.3609589412
