B2 C140 Ca1 F48 H298 O66 
1.0
1.7784746641864235e+01 9.9523589623091344e-16 1.5458453513824172e-16 
-2.8484487943340211e+00 1.9250853270404882e+01 2.9835449187325098e-16 
-7.6002806882488227e-01 1.2685693987615294e+00 1.9533268976876268e+01 
B C Ca F H O 
2 140 1 48 298 66 
Cartesian
   9.9271370337    3.4893319174   16.8506066777
  -1.2674304006    6.3139785130   12.1235660984
  -0.1522321316    1.4590885112    1.5301011967
   7.0033665764   13.7048405488    6.9576255156
   4.8361898740    6.4351881753    1.1647254519
  12.5305405561   12.4624799864   12.4642682259
   4.2268822848    2.6885759056   16.1607333317
   1.9284333736    1.9800719147   18.3224777363
   1.3148871561    2.8395941086    5.5076936391
   2.3486010336    1.3702783407   16.9677632334
  -0.5687185774    4.0393415225    5.7997621160
   2.9486464219    6.3230882751   19.1937584502
   1.7850412414   17.0518099898   18.4997538002
   0.5785055522    3.8869109535   17.6949475641
  11.7280579240   15.8018507556   15.1687171758
   4.7313516095    9.9794348809    0.6665855473
   6.2537202464   17.2842305166    9.3444447131
  12.3018845271   12.0940700979   16.1685148369
   9.5543357226   12.0357793605    6.6747580745
   9.4011783712   13.5058795725    6.4367448243
  12.7934786829   11.8299947089   14.7489281829
   3.8740860562    7.7483806606    1.1336380074
  11.1748604793    9.9997037182   16.8541330677
  11.9771755103   11.5423241214    6.1476417056
   0.0412183014    5.1919850870    6.7404071634
   0.8935233792    7.2734741906    7.0357333944
   4.4857380976   18.8188647432    9.6293519227
   2.1855801637   16.4107350435    1.1841077687
  15.8687492752    1.7687092862    3.1917303250
   3.4843693715   19.3008139044   10.8213213985
   1.4585038338   15.1421543925    1.6510825851
  12.9500481224   16.7838634025   17.0847019468
   5.3504206242    2.2452781310   10.9170188692
   7.4461566610   13.7834997855    3.0208974374
  14.5943521823    1.1235005678    3.6474290362
   6.1152922563   13.6383367811    1.0312951406
   5.3867444303   14.8561305787   19.0486597900
  15.0042797295   15.2536211829   12.1553430441
   2.1640374110   12.8861439176    1.8369328296
  12.5229410634   15.7793038855   18.2056535878
   5.3842035007   13.5232419453   17.1674491895
   5.0965742613   17.8167011961    3.9005125346
   7.2049991548    0.4411428925    2.6614792058
   6.2090399607    1.6135093899    2.6407775744
   3.8655115159    2.2052337101    2.3770706424
  -2.6976503196   17.1360960692   10.6225060397
   6.7251714359    1.2744604222    6.5996660008
  12.0630296935   14.9978455076    8.9182136102
  13.6323246208   17.4553307227   10.5230055207
   3.5980131921   15.7203852957   11.9502961724
  12.9698660956   18.3707952072    4.4277656739
   7.0230921437    2.5120367447   18.3026663709
   7.5074722722    4.9260376513   19.2265182152
   7.7704701460    3.8637651576   18.0755792215
   3.5547340918   15.5963134639   14.3073076537
  11.9416481000   18.5989964029   11.7726837312
  10.0251344913   14.9292455857   10.1368665293
   9.1930003490    3.2869248064   13.2802627432
  12.1474471879   15.7066458682    0.4115334251
  12.0633588332   13.4926971587    3.2376880538
   9.3752987691   14.4032789327   11.4647240193
   5.3764593391    3.1796056929    6.4414017682
   1.5340317642   13.0352170382   10.8862086269
   3.5234107117   16.9405371998   15.1356859917
   0.2427609437   18.4301066261    8.5019395873
  10.1606054012    3.4322201319   14.4227352471
  11.2105498667    4.5772386375   14.1221838203
   5.4454518413    4.6979904783    6.1930512282
   4.4293061124   19.1474633769   15.2041208451
   8.5124700548   12.3460364047   10.6826703983
  -1.3495358558   13.5009771065    8.6895605394
  15.1156488062   11.5983659964    8.5973205390
  -0.6923117251   16.8074990165    6.9023637573
  -1.6675219396   10.5296740335    8.1152120223
   5.5510172736    6.7394754512   15.4990684616
  13.4798763247   14.9890137441    4.4713273827
  -1.3794263071   17.7955977860    5.9652727541
   2.8511983977   13.6748013447    9.0354426060
  15.7700003396   10.2038637856    5.7665767572
   3.7233000894    6.2373722873    5.4292866728
  11.4264298969    2.6476250720   18.4441118593
   2.0570891294    5.5203671842   13.3889161061
   8.8127386829   20.3521739479   18.6597563477
  14.5537469486   13.9080110911    4.9425508439
   6.7881191040    7.3224520947   16.2429057892
   2.7187907382   14.6494572677    7.8879635184
   7.4253952471    7.4229714132    3.9865270822
  -0.4283022237   17.9437131866    3.7149816951
   6.8519744241    8.9010245787   16.0357558255
   9.5035865834    7.7467476664    9.4704891071
   0.3800629344    7.7576822758    3.4416994208
  12.6893933083    3.4850726801   18.7567127961
   2.0329497566    5.9214852689   10.8565573706
   1.1548880027    5.6651151858   12.1218929203
  10.7595884576    5.8621795084    3.0591068097
   9.3688251441    5.9240559093    3.8047782331
   8.5699872655   15.8620968132   17.1251204224
   8.5944628578    8.4738617162   10.5798552614
  11.9349174601    9.1316620559    3.9603318930
   8.4404822714   17.4966417604   11.7067129747
  -1.2571293310   13.1072608739    4.0607035332
  14.1953594639    6.9569381647    6.1353623309
   7.2052818523    8.6231222150   10.0405123095
  12.8855221513    9.5958510640    1.7379618358
  11.9118279256    6.2177362826    0.9701253745
   2.8578502633   14.2700418352    5.4793862052
  12.4879943346    8.6115238788    5.3617027793
  15.8707902705    7.0628899423    3.4133776516
   8.0536514368   18.3522822044   13.9373095594
   8.9692692334   13.7098227931   18.1054679167
  14.6746103746    8.2251544219   14.7652544738
  15.8226303595    8.2420227591   13.6163348946
  15.7696090816    6.1177948029    2.2745654484
  14.9491985461    3.2874434476   10.9501712556
   8.5277537204   12.5831815473   19.1387161208
  14.9397714881    4.8043231055   11.2068768487
   8.7292208416   19.2916020747   14.9533006169
  14.1648293503    5.5261983170   10.0770586128
  15.7302305753    9.5743537482   12.7135136188
  11.1058660948    1.0843780204    7.1421373496
   2.3927321873   10.2039947481   15.8202407675
  -1.7787178415   11.3726308959   19.3269525325
   0.7546190480   13.5257956704   15.0701486144
  15.5426083659   12.0735995361    0.6571324475
   4.5918381042   10.7641002165    7.3211881322
   4.8511564911   10.9618809958    4.2843152942
   9.0687120086   17.1696132268    6.0176410312
   7.9175274119   18.1134759688    5.9155322136
   1.3759826142   12.4450029213   16.0364948096
  -0.8187599373   20.0597727799   13.2454852637
   0.9770949242    1.5185997620   12.4805111998
   0.6975555561   18.2213826758   12.6659539036
   1.2685944517    2.0532249006   10.1175664334
   9.1232457952   11.0180199109    1.9532079834
   2.4393602830   10.2142838903    8.3519923476
   5.6925541496   10.2743799987    6.4291924130
  13.5732237206    1.2962869600   14.6878661865
  -0.7258009478    8.7697835849   18.4969325356
  16.6041013009    4.7608039471    0.7197325536
  -1.4630209680   13.1273756641   15.5608692417
  -0.3788117724   10.8884674144   19.5074855964
   9.6406877805   16.8301171505    3.7490444881
   8.2449997007    6.7315334410   13.6180673642
   6.8603918009    1.8620858181   17.1472367442
   8.1840679220    6.0719690641   18.9677014318
   9.0172397299    4.5260962673   12.6221082682
   7.8599124941    1.7478558372   19.0781338778
   8.6681348036    3.1735684876    0.9208410878
   5.8773187314    2.6381771973   18.9385079413
   6.2364437925    5.1889779735   19.3718514051
   8.0393895089    3.0053539643   13.8792378935
  11.9814963051    4.2918622085   12.9766169474
   9.7190387862    2.4068501384   12.4335585576
  12.1892116785    4.5715919665   15.1259442936
   4.3602455924    7.1066111961   15.9718222428
   5.5849346564    5.3517015816   15.6449611725
  10.6165092536    5.7857161224   13.9897787250
   5.6414216009    6.9189047519   14.1748576579
   2.8647607739    4.3733432019   13.3973162328
   7.8793011814   19.6789986517   17.9645606569
   2.7437626910    6.6640528212   13.6124020497
  10.7601831703    7.8200278522   10.0340456438
   1.2864755571    5.6248652992    9.8018544332
   6.7951904742    9.1920881191   14.7035622850
   7.9452375978    9.3799021264   16.4979601087
   1.1569327983    5.2070780187   14.3589778429
   9.4508114234    8.1043632831    8.0940750877
   9.6414658522   18.6832938862    0.4442548646
  13.5167774164    3.3348585427   17.7222196341
  10.0596745854   19.9220731303   18.1993042887
   3.0346926033    5.0242128527   10.8324608236
   9.1573483999    6.4251792280    9.4733769425
   6.3772375447    9.1575763491   10.9029359544
  14.1968235500    1.9488704422    0.2863646258
  12.3729311171    4.9072336852   18.7424365137
   5.7904140036    9.7864382882   16.6022171802
   2.5937348145    7.0944849993   10.6010137541
   6.6060702535    7.4867350583    9.5698417488
  15.0488906333    9.0374230981   15.8101661989
   7.2187755779    9.5217000759    8.9165578068
  13.7802865019    2.5780850075   11.0441647171
  13.4747274506    8.5377792404   14.2465355700
  14.5786165819    5.0612749746    8.9319631127
  15.4503111826    2.9158203023    9.7847337917
  14.5767379916    6.9154037078   10.0088722687
  14.5815521822    6.9000285064   15.1651585768
  -1.4993260530    9.4142121209   11.5035725727
  15.7502243935    2.7783477920   11.9821830682
  -1.3879101008   10.5365655349   13.3656667888
  12.8307149344    5.3942312399   10.2213248223
  14.4463182897    9.9802332476   12.4535037034
   0.9721222261    1.5309432681   18.4507454255
  12.1658311132   13.0538427266   16.6509592310
   1.9610875438    2.2543598598    4.7560493161
   5.3136560590    6.3683781897    2.1853392949
   5.5107855309   17.2115215952    8.5334142473
   9.8437912890   11.8411687093    7.7387273344
   5.6071297968    6.7115880935    0.3934163831
   5.0893186635    2.4206486150   15.4390356792
  16.2938480769    4.4554798917    5.3916091719
   0.0811285528    2.5018132055    1.7575186533
   1.0267300676   17.7917623979   18.2639011602
   0.0115100645    1.4160289740    0.4103874231
   6.4013114262   14.4867328857    7.5941788563
  -0.3371494334    3.7579081444   18.3972497583
   0.7706801850    0.7332037128    1.8498886089
  12.2402692109   11.4043942152   12.3107684209
  -0.5373803538   19.5529230591   17.0713827580
   6.7046125321   13.8082440216    5.8680789630
  12.4674761421   15.0267801251   14.9520597395
   5.5805139351   10.6495872526    0.7731074336
  13.5689283485   12.6490786947   12.2618645273
   2.6176451146    5.2576265031   19.2219344743
   2.0646032010    6.8583161979   18.8519028176
  10.7940599301    9.7892323185   17.8749414323
  12.1683076646   10.7118641803    6.7589211763
   0.8686113300    2.2085483545    6.2726373957
  16.9124865446    3.2406476025    6.4682646420
  10.3934794175   14.0358583591    6.7196811349
   4.5841390649    3.3296830729   17.0122067827
   4.8898189158   19.7189777613    9.1207180163
  10.7833091927   15.3190211701   15.6890045550
  12.2238411054   10.8963921478   14.5101145973
   1.3976229297   16.0637211131   18.3800483755
   2.5113388300   16.9791778668   17.7415529535
  11.3894867131   16.2287955044   14.2957416650
   7.2709636489   17.4691716644    9.0968390005
   0.3170476540    3.2463297903   16.8036332026
   2.7539139746   16.5706538451    2.0958638296
   0.5832170082    8.2379571268    6.6823669735
  13.0934347075   11.5914487817   16.7374081960
   1.9616358735    3.6388372325    6.0029417120
   6.2933263391   16.2859719859    9.8836459582
   8.5578637159   11.4888065687    6.4253260543
   3.8226721556   10.6859704908    0.8130137569
   6.8539317399   12.6942637341    7.2178940392
   4.0863440370   10.9520767748   19.1106447509
   3.7540382391    6.6371482108   18.5292219282
  11.8173056871   13.0675104343   11.8152027131
   2.4234363197    1.5434388821   19.2325758786
   3.4496174982    3.2481211119   15.7670378449
   0.7483098252    4.9173145260   17.4553042419
   1.7624593954    1.7264104230   16.0913984561
  16.6910407002    1.9172954180    3.8933237052
  15.6390722184    2.9056272631    2.9109727138
  12.1704781205    9.7208828926   16.7921105164
   3.1193903032    7.6846935220    1.9475940131
   3.4825502717    7.8773885236    0.1903609566
   2.0455147253    7.4535567160    7.1584871708
   0.8151093321    4.8841531593    7.3780572677
   1.6285281718   17.2647712660    0.9396411577
  12.4467217623   11.3315929722    5.1597269319
   4.1113841200   19.7370870203   11.6088934657
  12.3588795770   12.4584515708    6.7688265654
  10.4908402354    9.3058970574   16.3477792987
   9.4082502727   13.7291849770    5.2595991583
  13.9534118848   11.7748458123   14.5936098762
   3.8436452112   18.2701135059    8.8740909891
   7.2454142269   14.7612718215    3.4982318017
  -0.7844485350    5.6059284100    7.3374398630
   0.5064575493    7.2540251626    8.0761041351
   5.5957122375   14.4854106191    1.3655145805
   6.2765714089    2.6178206296   11.1276376652
   0.8569337003   14.6544625198    0.8629258722
  12.9704836019   17.8513784335   17.4704245947
  13.9378775967   16.5601342160   16.7976574464
   4.3812342965   15.3050252279   18.9152671341
  13.8888052101   15.5975876009   12.3421326293
   8.2985450687   13.4577582356    3.5560704913
   4.6961052896    2.8502781962   10.3195184515
   2.8437829596   18.4670934836   11.2556176424
   5.4923390532   12.4621379931   16.8738526053
  15.0756719790   14.0943422019   12.2015983607
  14.1723610064    0.9397058941    2.7238532756
  13.8580266614    1.7190259348    4.2006540057
   4.6360665922   16.8957284837    4.3811080076
   6.0797434920    0.9511181717    7.3740835269
   4.4187719518   19.2205708760    1.5893670750
   0.6295681558   15.2944191773    2.3005239775
   6.2312418812    2.1401545305    3.6739423218
   2.9417390616    1.6459885193    2.3288381300
  -2.3336726724   17.8066730298   11.3725925081
   1.2480384056   12.5955766633    2.3131091155
   2.3146350404   12.7838338508    0.7302131359
   6.6935220483   13.0352542337    3.4137428663
  12.4504541743   14.8392803559   17.7241820165
   4.8830576775    2.0828472522   11.9103994429
  13.4221310640   15.8238775735   18.8727176890
   6.2385294721   14.0426246567   16.6962866010
  11.8414660778   14.1348181433    8.3140016812
  12.8799101751   16.5764367022   10.5391953042
   5.6089159262   12.6955327497    1.3789955259
   2.8240237862   15.5796640549   11.1426548966
   5.7882586682   18.2471998347    4.5409979050
   4.3324304660   14.9542360948   11.6739165454
  13.0889294236   15.2526696710    8.9624710680
   3.7786687049    3.0089036959    1.5713574818
  -2.0571370610   15.5366093873   12.8833491089
   6.2442532588   15.4413753804   18.6881713637
   3.0132088224   12.2892845091    2.1614973268
   7.7036100606    1.2468646928    6.9891162276
   6.6977797554    0.6429581106    5.6629154399
   4.4453826128   13.8959228365   16.7509415842
   7.2745866184    4.3692441150   17.1926761434
  11.6873693066   19.6846829432   11.7415516195
   3.1544863048   14.8809448915   15.0779140200
   4.6764743191   15.4546368389   14.1967085556
   9.7655720487   14.2806611495    9.2160999460
   4.0921105956   16.7034182581   11.7791680728
   5.7882314487   17.6341326333    3.0193561765
   8.2656627107    0.7452849531    2.8610348350
  -2.2268180421   17.1152262542    9.6380358146
  13.9777839763   18.7973010089    4.5659756830
   6.4080291824    2.4804585721    2.0675898840
  12.8749499593   17.7192518674    3.5614741648
  12.8456267179   17.6012412052    5.2255271887
   4.0223805214    2.6554822058    3.3821675101
  11.6839677015   15.8760056616    8.4287313182
  13.3979217835   17.8512679671    9.4565173780
   9.8098694467   14.9587587962   12.3938237512
  -0.0965140984   18.7289544713    9.4654727745
   1.7541237742   11.9862020188   10.5735284521
  11.9416391995   13.9355618956    2.2257786176
  11.2976634608   12.8292891547    3.5881518365
  11.3973361372   17.9933117433   11.1272769519
  12.8558906085   16.5795837481    0.2918179306
  11.1058749916   16.1961599010    0.3680778023
   2.0793998181   13.2469778469   11.8781753186
  11.7336855517   18.3010403267   12.8419917237
   0.4759649988   13.0930140877   11.1335302340
  12.9351473979   12.8832175736    3.2113058740
   4.5219803349    2.5684440135    5.9816554898
   9.6111367262   16.0061383857   10.0490954273
  -1.8061983656   13.7835505205    7.6796718877
   8.9634022075   11.6046582799   10.0373149636
   5.2173550574    3.0992511007    7.5404285944
  12.2313963657   15.2148627183    1.4056746194
   5.8298831706    4.8992952754    5.1847029051
   6.0923325856    5.0841799429    6.9417565077
  14.5243851767   11.9385607222    7.7211797586
   5.3924085364   19.5996603699   14.8896666472
   0.1060835470   19.1802705584    7.8244738724
   1.3375091475   18.2444039436    8.5643179173
   8.3315076855   14.5742317633   11.5000567505
   4.1445309198   16.6811576734   16.0243674562
   2.5545273877   17.3490858559   15.4235893511
  -0.3602789622   13.0160141100    8.4311502970
  -0.6618431253   11.0075912496    7.8741635797
  10.8841782524    2.5448144548   14.4930365679
  13.9558175589   15.4390980214    3.5867119370
   4.6218464856   18.8188575794   16.3255913901
   8.2393494351   13.1304709785    9.9272992751
  14.9337217539   10.9021573728    5.5728470805
   3.5177017285   19.9212155307   15.2669441422
  -0.8082619467   18.7952601586    6.0161513413
  -2.4490927408   17.8773384700    6.1762400139
   7.6202814903   11.9298073649   11.2748692659
   2.7852093484   12.6756824992    8.5070662309
  -1.1557046540   14.3553430124    9.3800435815
  13.4215818087   15.6540401440    5.3491543377
   3.7681107851   13.8602405138    9.5466974259
   0.2566117765   16.6943864176    6.4743741825
  10.5414577170    2.9582088914   19.1213759827
  14.4689322220   10.9803646364    9.1738150258
  -1.2907523893   15.8698565401    7.0660729068
  15.6954324660    9.3793456318    5.1355878082
   4.0496663004    6.1285436785    4.4185625790
   7.1342201690    8.4279607448    3.6354463046
   3.7999694946    7.2321150122    5.8202687555
  -1.4719892835    9.9122241733    8.9419828865
  14.1986144136   13.1516611048    5.6926329454
   0.5486998979    7.2256834679    4.3558825123
  -1.0025090172   10.5887111228    5.4626008594
  -0.9048521968   17.6614250725    2.7858516005
   0.5067742911   17.3734612026    3.7469511671
   1.7607154703   15.2796484154    8.0068907436
   0.6242141028    7.1974350436    2.5867232454
  15.3916202809   14.3705576114    5.5819095135
   3.4914605432   15.3626433570    7.9599923818
  11.3742450275    6.5940973064    3.6407662422
   6.5977270405    7.2840651262   17.3238994716
   2.5948353903    6.1179507851    5.3200358940
   0.9955496206    8.6104127498    3.4446359576
   6.9378370940    6.6825814214    3.3034882175
   8.0055459424   16.7908609808   17.4078221455
  11.1710417234    4.7936634218    3.1141031989
   7.0552595943    7.3261058154    5.1068361943
   0.6697866931    4.6756646794   11.8717033844
   7.9168567273   18.3671807301   11.0857802851
  11.1903815085    9.8759066529    3.9889002979
   8.5402557226   15.5468143723   16.0453930906
  13.5846808595    6.7282139394    7.0035182227
  11.4158485555    8.4536977954    3.2211977799
   9.3304061400   17.1175420295   11.0963488756
  -0.3923258502   19.0028413879    3.7686629200
  12.4648165783   10.6188237904    1.3813751913
  12.6887938017    6.7114363982    1.6908757236
   8.6549227416    5.3381562092    3.1752055540
  -1.0213747320   12.5881334964    5.0190632044
  12.2488579434    8.6340919392    1.3951342966
  12.2915179731    5.2135427937    0.5393778468
   9.5857809668   16.0963614630   17.2160102593
   9.5295550066    5.3746746726    4.6838199271
   7.7121500230   16.7073187967   11.9366264783
   1.9995862630   14.9460937525    5.3437697022
  -0.8580434463   14.1263739587    3.8036273787
   8.9721557600    9.5000042381   10.6567268211
  14.8244417143    7.7253669862    6.5373242692
  -0.6809903861   12.4379672526    3.3541531956
  14.7783181345    7.3339109692    3.3950582482
   3.7830496789   14.8670566570    5.3050931754
  14.6879272865    6.0256687870    5.7928134881
   7.2833764324   18.9579379635   13.4259835370
  16.2771384933    6.6099958371    4.3729102450
  11.7187359598    8.3825066170    6.0582753833
  13.9280036655    9.6901444730    1.2593363202
   2.6743953394   13.3568657362    4.8836245130
  13.1481516707    9.3079685541    5.7814226554
  11.8758081536    6.9652107317    0.1494806081
   9.0230468138   13.1441881368   17.0876597834
  -0.9378261357    8.1400983437   13.9668269156
   9.0000733620   11.6378261963   18.8935918792
   7.4843145926   17.5628328814   14.4471989426
   9.9449148772   14.1435495037   18.3121836846
  14.9251789949    5.3641340498    2.3982218920
   9.4210679723   18.7510340360   15.7220332963
  15.4705275012    6.7643836808    1.3051530095
   7.4317251445   12.2325130938   18.9393920362
   1.9160372314    9.6878380992   16.6362499590
   0.7557844854   14.5160913161   15.4376622835
  10.1740044262   17.5198007811    5.9850238185
  10.2253630020    1.7270122389    6.9637099289
   4.8525378599   10.7456775071    8.4112564837
   3.8153399738   11.3120256336    4.5432111482
  11.3511639188    1.2664847985    8.1849271859
  15.9570484696    9.6739844829    0.4597949292
  -2.0567684088   11.5320477367   18.2564863347
  14.4733754319    5.0938630906   12.1438649627
  15.8106906245   13.1548305483    0.5729743212
  14.6376256228   11.7074863922    0.1347689940
   0.2276761263    0.8949661777   12.0045324315
   2.6033964282    1.4935225302   13.7634138980
  -0.1129680265   17.5506705629   13.0890888013
   0.6696528852    1.1506339010   10.0865004547
   7.8001363017   19.6476134829   15.5481562609
   4.2373478992   11.7793175506    6.9449266226
  15.3377204176   13.4939170373   15.1820631583
   9.8087706520   17.8993864750    3.8205854696
   2.8959324283   10.4263652692    9.3586550781
   2.6131119311    9.5317479434   15.0419641158
   7.9425027034   18.7307794369    5.0487219261
  -1.0682762614    8.6551398675   19.4988582967
   1.4073804238   13.6498208212   14.1328383066
   9.0793654220   11.6735592752    2.8929953608
   1.9669796315   11.1146829725    7.9032756055
  11.4824300624   19.7884438133   14.3045445784
   5.2219427028   11.3591684598    3.3376921138
   2.2479025699   12.9533759872   16.4645939200
   1.5302552736   18.3735040370   13.4159001503
   2.2176694211    1.7254453077    9.6632792523
   8.8986454137   16.5919301611    6.9169489786
  -1.6908037459   12.1719513438   16.0124322601
  15.6649274109    4.1409291261    0.8057619137
   3.3233788458   10.5614681598   16.1523264657
  15.3987312606   11.8456121985    1.7586877861
  11.8788586296    1.0714943234    6.3527198810
   4.8727486753    9.8084085464    4.1356762797
   9.8128233434   10.2203293631    2.2485125682
  15.6233329729    6.7338179226   19.4168240162
   6.6587261648   10.3538695554    6.9426157760
  13.9154357357    2.1424565346   14.0749676519
  -0.0449998988    7.9706000189   18.0483104421
  10.5476250999   16.2243963332    3.5968335484
  -1.5502111557    8.9200194438   17.8096464482
  -1.2634421302   19.2748864173   13.9183606472
   0.5606967089    2.2313773425   13.2721059347
   0.9654904003   17.7454322604   11.7895403696
   0.6956053055    2.7059903151    9.3838995565
   0.5828105836    9.1178584495    0.9318203108
  -0.2873617071    4.2887907969    0.5703918956
   0.2531537051   11.7913968524   19.4472905124
   0.6447125462   12.2226706371   16.7637359027
  13.7323017018    1.5205439731   15.7644276068
   8.9658393589   16.5924138826    2.8840163965
   1.6781620428    9.4284798897    8.2351433075
   7.0094259839   17.5017479858    5.8180458805
   5.4205383388    9.1736400889    6.1955945547
   8.2096722797   10.5683148226    1.8262227702
  -1.3039496649   13.9189937555   16.3553037572
   4.8498357927    8.7818411930    1.3966203818
   8.3321120592   14.0840750615    7.1968726622
  12.2533226867   12.8017824974   13.8722977423
   3.7952023841    1.5411530372   16.6967801316
   1.7997686123    3.4513365216   18.3640772502
   0.5372261924    6.3860829026    6.0874399347
   4.0517073933    5.2908031839    0.9549490909
   0.1816271425    3.4223005412    4.7479416518
  10.5867028262   11.6296331676    5.7519303988
   5.4504375628   18.1075281864   10.3247302598
  16.3750167962    1.0176240476    1.8793169339
  11.0525892133   11.3679939185   16.4982548972
   3.1673465631   16.0857561308    0.1652966828
  12.0070021863   16.9030909508   15.9992949757
   5.4634318974    1.0874462276   10.1699213344
   2.4024196931   14.2550726674    2.2320190150
   7.4484228977   13.6758008906    1.6049392639
  11.8674592109   19.2527208348    4.5752024176
   5.3639863689   13.5565905798   18.5550447901
  -2.5022782485   15.6424183507   10.8020872617
   4.0303545279   18.7570993564    3.6742302400
   4.9386043594    1.1743647692    2.2747807691
  11.2723918353   16.0011775661   18.8648671586
   6.6146639309    2.6718240444    6.1134595863
  13.3710974009   18.5195400923   11.4321879128
  11.4286988372   14.9799812030   10.2781100332
   2.8317303863   15.5495779551   13.1142483262
   4.2305549684   17.9886352452   14.3731827013
   9.4699882511    3.7445179441   15.5848826863
   9.1409535801    3.7166392327   17.9679623576
  -0.5046274036   17.3488699875    8.2521789142
   9.4677690716   12.8762847399   11.6869420183
  12.2052064774   14.5162885100    4.2499536256
   1.7011626149   13.8477133665    9.8352879335
  15.6185155775   12.6191262799    9.5251354195
  15.7178693501    9.7073273950    7.0725158131
  11.1806816210    2.9239716024   17.0506149293
   4.1459583697    5.1751392270    6.3057951637
  -1.4306951489   17.3366088204    4.6018966472
   8.8012163518    7.3208155364    3.7664742643
   7.9703131260    6.8336657475   15.7422074036
  15.1212879787   13.1459729478    3.7614487686
   2.6778120430   13.7825917189    6.7900577563
   8.5892512547    7.7208994704   11.7578454114
  13.2979097685    7.3295645043    4.9929720333
  -1.0350289494    8.2244140544    3.3093635608
   0.1105545877    6.6314167061   12.2959446942
   8.1332096309   14.8109189524   17.9952500655
  10.6647570735    6.1822288582    1.6793141789
  13.0119000307    9.6462029879    3.1899978602
   8.9727349553   17.9599999841   12.9850749357
  16.2578544436    5.2351135087   11.2486982440
  15.5634509651    7.1138367461   12.7864007530
  -0.8335181264    5.4846735408    1.8881383643
   1.5935888308   11.3316419418   15.2348097399
  12.2051976916    1.1245053494   14.3032658583
   5.9297280182   11.0696920597    5.2576278402
   7.7553809695   18.8384102948    7.1428375839
   9.6017618289   11.8771092695    0.8705606928
   0.0288885981    9.9556261851   18.4165703052
   0.0091786505   19.3486364888   12.2682917225
   1.4566730883    2.4931328789   11.4509907298
  -0.9545316646   11.4974985751    0.1925519165
   9.0007453175   16.3474790041    4.9094320341
  -0.5090020891   13.1621570850   14.4851315347
   3.4811461189    9.7641955281    7.3931228941
