B2 C140 Ca1 F48 H298 O66 
1.0
1.7879572190106902e+01 7.8042441443897695e-17 -3.6445774795887981e-17 
-2.9819767934434438e+00 1.9219077929013054e+01 -2.9166203840768813e-16 
-6.4856444992197254e-02 1.3245360840149214e+00 1.9356624312975949e+01 
B C Ca F H O 
2 140 1 48 298 66 
Cartesian
  10.6147244756    3.6916349123   16.7002067924
  -0.7837684601    6.2987098906   11.9990904182
   0.2188185163    1.6103034806    1.5048183623
   7.3504339533   13.7014135817    7.4575925540
   4.7236042188    6.5402808712    0.9845904070
  12.9595122505   12.5983362012   12.3894208285
   4.5395876721    2.9232884744   16.4603014546
   2.5557929655    1.8775739313   18.0680588250
   1.6290424228    2.5120245799    5.6152362531
   2.8145916101    1.1910035568   16.6681409098
  -0.1126453124    3.9523737274    5.9289179656
   3.2473342085    6.5045114547   19.0349497498
   2.5095508882   17.4758629195   18.1786384383
   1.0643527921    3.6516749403   17.1969417262
  12.2561050847   15.8471715752   14.8384050725
   5.3783754258    9.9578302472    0.8323136936
   6.1218242068   17.0706038674    9.4377082854
  12.3777897152   11.7788519090   16.0185077606
   9.6654453141   11.9034653995    6.8435875809
   9.5626933073   13.3292031851    6.5368745251
  13.1026081289   11.7240943651   14.6431624930
   4.0332588296    7.9323432371    0.8820596125
  12.3028879038    9.4849743099   16.7707751181
  12.1146214990   11.8153741580    6.3713540752
   0.0704638565    5.0084235344    6.9917511452
   0.7768225087    7.3301520947    6.7971975335
   4.9569418222   19.0651124081    9.6307245720
   2.1949222595   16.3039476842    1.1061756712
  16.0337787407    1.7302062803    2.7453697664
   4.0586774160   19.8779080648   10.5688478030
   1.3730059641   15.0983008671    1.5079248459
  13.4475163336   16.7895075018   16.7062042779
   5.4971926038    2.4673854000   10.5622329880
   7.2863979107   13.9872226439    2.9888363168
  14.8144092002    0.8065762454    3.1630949778
   5.9775507380   13.7255173355    1.0303672016
   5.8557850971   14.8678097277   18.8667098922
  15.1320188116   15.2046186528   12.0378450724
   1.8896324908   12.8746470876    1.9183961874
  13.1491287898   15.7794374792   17.7946677864
   6.1715053097   13.2573013585   17.1534649351
   5.0308569272   17.8269992465    3.7930833856
   7.2186775869    0.4006912240    2.5465011959
   6.3859665959    1.6358216846    2.5554887321
   4.4313395261    2.5599207455    2.0896991533
  15.1417238151   16.9748878747   10.3631783799
   6.9595945530    1.3916180887    6.8198701480
  12.5117987868   15.0405916166    8.7760861827
  13.7947511289   17.6197972776   10.2120155587
   3.7646731407   16.0927422788   11.9341035772
  13.1411604215   18.3494035197    4.3747410232
   7.9509557537    2.5193275540   18.1818083809
   8.2854026012    5.0267750823   19.0748362856
   8.5086418707    4.0128120235   17.9014497184
   4.0756944103   15.3861152975   14.2065175092
  12.1956467299   18.7882803856   11.5189163784
  10.3636285497   14.9280656022    9.7832325651
   9.8344308931    3.4265800750   13.1341737547
  12.1603905283   17.0938593207   19.3548783572
  11.9752375163   13.3655759700    3.2980417307
   9.8660741765   14.6073289460   11.2004797637
   5.5194967985    2.9887388310    6.2188885031
   1.6352126482   12.7953703332   11.0836715473
   4.0264552027   16.6507166851   14.9350548176
   0.3325748958   18.4783767222    8.5668537067
  10.8111065524    3.7872526227   14.2901795710
  11.8292920721    4.8623954359   13.8960736047
   5.4575060082    4.3947736502    5.7822930446
   4.7420917331   18.8600537522   14.9892667241
   8.8028069697   12.5434191675   10.6957642330
  -1.6483389918   13.3723776948    8.6453720640
  15.3973298944   11.2465346623    8.8485140141
  -0.5340500496   16.9074676532    6.9324474447
  -1.3355320609   10.4853799968    8.1593106470
   6.1586610644    6.6818868811   15.3951305597
  13.4055410942   14.8770162214    4.4522190050
  -1.4796341938   17.6343284996    5.9188047293
   3.0035146810   13.6005857388    9.3989651754
  16.1377646675   10.1800248812    5.7212943730
   4.0040809366    6.0894192762    5.2708584313
  12.1057138820    2.6658427454   18.1972305512
   2.3693553566    5.5653350303   13.2791802419
   9.2531491028   20.3049820085   18.4596896305
  14.5478835252   14.0759272207    5.0015810891
   7.4329595521    7.4165223505   16.2115574167
   2.9685917725   14.3799692491    8.0320347812
   7.5671928200    7.3881642930    4.1307200321
  -0.4597446600   17.7315013092    3.7341010796
   7.3192795638    8.9469658240   16.0433937899
   9.8415853064    7.5532319293    9.4786906394
   0.6420020885    7.6341040744    2.8640687085
  13.4153746103    3.4349983067   18.5632356487
   2.3760620431    6.1440593274   10.7579281371
   1.5470804904    5.6897021846   11.9096585241
  10.8774609615    5.9028378388    3.1329524457
   9.4971824834    6.0484995072    3.6300669992
   9.2612266915   15.6403054969   16.7146740285
   8.8066113078    8.3438406154   10.4013052741
  12.2925229054    9.3845619715    3.7119763339
   8.6568707731   17.8059106643   11.8434704981
  -1.3256143997   13.1382625439    3.9640557899
  13.9310435886    7.0836055121    5.9508410629
   7.3649049843    8.6409750103    9.9031562374
  12.4143222002    9.8998632354    1.5256519791
  12.1357180071    6.2650825792    1.1283909439
   2.9952052298   14.4203966401    5.7001806105
  12.7709011662    8.8639666658    4.9950359993
  16.0833406585    7.1506872322    3.0538914056
   8.2710955047   18.6100140424   14.0285764408
   9.8436872773   13.7080040466   17.9626639967
  15.1936312736    8.0942458565   14.4179181480
  16.1752012730    8.1429755638   13.2870981145
  15.6550967172    6.2097924035    1.9611574680
  15.3254628747    3.3763889026   10.9785744238
   9.3247349737   12.7367738133   18.9889633157
  15.4133548597    4.8685427246   11.0420101795
   9.0215179939   19.3638237755   15.0986562996
  14.7167943183    5.7044943287    9.9459898354
  16.1743413216    9.4715087284   12.5251770865
  11.5458495479    1.0375210231    7.0707611882
   2.6669674191   10.1632993333   15.5477363485
  -1.4190200568   11.4940782784   19.2761874667
   1.4509509380   13.5823668018   14.9404082064
  15.3093692914   12.0363896282    0.7181947131
   4.7208608309   10.8447899618    7.2865485488
   4.6104283606   11.0582273356    4.1850453264
   9.6184169911   17.6167601535    6.0558027164
   8.1325069559   18.2093538451    6.1299739122
   1.9775309807   12.3942451007   15.7090667393
  -0.4953464689   19.9785387548   13.0598803700
   1.1032267931    1.3280767498   12.4008931776
   1.1472751916   18.3757357455   12.5331997913
   2.1120244144    2.2227232861   10.5179962927
   8.8921734654   11.1897614528    1.9534298287
   2.7456482010   10.0109937508    8.3485711145
   5.7400323073   10.3234913683    6.1459761089
  14.0378582499    1.5116334930   14.6553719251
  -0.3488916752    8.7648594199   18.6575663504
  16.5913815543    4.6002459992    0.5235057429
  -0.9219592067   13.1980704640   15.4219072883
   0.0140288261   11.0907001234   18.9493112251
   9.9334249865   16.6726283288    3.9114048799
   8.8284538442    6.9489080618   13.4658442612
   7.9499970002    2.0644541338   16.8339764697
   8.8905064622    6.1471209208   18.6979337920
   9.2069685979    4.4762933877   12.4438600791
   8.7967991764    1.6885213796   18.8952417637
   8.8446053183    3.3449228239    0.9236342097
   6.6711313242    2.4604310689   18.5857756782
   6.9038106004    5.3574606797   19.2028420380
   8.7073728672    2.8070037478   13.6333408543
  12.4879949696    4.4392028535   12.7198753830
  10.3458406217    2.6241309452   12.2594994004
  12.7682219670    5.0222647864   14.8117897462
   4.8330985430    6.9420586967   15.7257011574
   6.3163439043    5.3631355477   15.7774603186
  11.3806751161    6.1128786905   13.6887310686
   6.2624526016    6.7216007412   14.0178454282
   3.1444220819    4.4769520585   13.2434392876
   8.2518178322   19.7066329497   17.8685982018
   3.2554731867    6.6344743622   13.5948926186
  11.1447070921    7.7637002664    9.9994763205
   1.5981240653    5.6547935811    9.7157115649
   7.1647933253    9.3925714810   14.7278602741
   8.6019676814    9.4858972627   16.4650157354
   1.4664243340    5.3460845705   14.3240933624
   9.7695958435    8.0611015755    8.2265905963
   9.2067648716   18.8017356977    0.4453101111
  14.5889371063    3.3680219487   17.8192510740
  10.3941822921   19.8259766401   18.0672769052
   3.5993825158    5.4942940220   10.7152959141
   9.7759907012    6.1462233453    9.3759147212
   6.5657988166    8.9542530399   11.0833180418
  13.8918100006    1.6128207155    0.4285953653
  13.0810906210    4.7736122038   18.5063406307
   6.3731567271    9.5809047737   16.8515232342
   2.4533483978    7.5347936866   10.8158692975
   6.7401070968    7.6441707666    9.3052593078
  15.2631736834    9.1933229462   15.1765629423
   7.3552522245    9.7368870145    9.1267826060
  14.0691192605    2.9612283091   11.2182975612
  13.8634153946    7.9079486240   14.0047634881
  14.8072599512    5.2585204297    8.6741336578
  15.6953874798    2.9687908374    9.7027232286
  15.4003439009    6.8666693375    9.7584067122
  15.3416295376    7.0322096907   15.1483341243
  -0.8414237371    9.3716675699   11.4948737801
  16.1512028439    2.7914605494   11.8065428615
  -1.1405043729   10.4082953499   13.3704817544
  13.3880030229    5.7617369759   10.1883569428
  14.9875157992    9.7580586390   12.0907917567
   1.8249585215    1.2824070699   18.5353394543
  11.7345480270   12.6707959960   15.9352114926
   2.1059119242    2.2427573162    4.6800857363
   5.2126961086    6.4274098448    1.9693938566
   5.1776576236   16.7073124502    8.9324116621
   9.8242767554   11.7559280290    7.9158381505
   5.6599907907    6.4508712142    0.3763920317
   5.6023526443    3.1614423610   16.0140020308
  16.9491889378    4.3466213078    5.3940263866
   0.2876037217    2.6415991320    1.8302849071
   1.5557143145   18.1044490337   17.9933643680
   0.4246369375    1.5449804995    0.3731794053
   6.6828186668   14.0800022382    8.3545028676
   0.4218918870    4.4222623464   17.5697895803
   0.9187107921    1.0730435726    2.2091126669
  12.2873371163   11.8304324250   12.0197626998
  -0.1377950784   19.3644146504   16.9660755863
   7.0458814562   14.2155158245    6.5659525846
  13.1159118580   15.8275130923   14.1427143252
   6.2589592601   10.3126377332    1.3417766990
  14.0095210927   12.3856488629   12.2707730454
   2.5333564496    5.6835945308   19.1701115509
   2.9426766276    7.3632142130   18.5137405150
  11.7800715427    9.1243396052   17.6630138567
  12.2900197850   11.5581960789    7.3949411752
   0.9209098318    1.7588304771    5.9814546350
  17.3524931330    2.9750212143    6.3666054294
  10.5498259496   13.8625167732    6.7754038384
   4.4814645319    3.3634233682   17.4736798914
   5.7301027114   19.5606912035    9.1197419102
  12.3959656766   14.9470846647   15.4892417877
  13.0326991728   10.6639768342   14.3038574421
   2.2407106188   16.3896503705   17.9904432439
   3.2922289212   17.8551584941   17.5278290197
  11.3681520443   15.9734490590   14.3425064335
   6.7967889956   17.4962389906    8.6347895762
   0.3930838863    2.7692501739   17.0748035950
   2.8099032730   16.5490526010    2.0146330866
   1.2737685149    7.8274547590    5.9467299496
  13.1325382911   12.0413852901   16.7394440463
   2.3605948169    2.7812405604    6.3714412703
   6.4780105988   16.2127235628    9.9483789766
   8.8041341404   11.2959648602    6.5934062075
   4.5793111094   10.7043043459    0.6265310506
   7.1046137620   12.6056331889    7.3237646307
   5.7008032966   10.8042540195   19.2853317352
   4.1103282184    5.9483834747   18.4504935018
  12.8028662864   13.4604470742   11.7262015953
   3.4224631570    1.6478821052   18.6035087073
   3.8294983870    3.4584341503   15.8854801816
   1.6798637564    3.8673383396   16.1959955280
   2.1015695317    1.4876851047   15.9110129693
  16.6654495193    2.0034351403    3.6056302933
  15.5436741206    2.5886088789    2.3083279484
  13.3754998281    9.7417966865   16.9278552027
   3.0589935062    7.9050080199    1.4291083064
   3.7629174522    9.6945501365   19.2224440518
   1.4725019902    6.8925194117    7.5504909903
   0.9260948482    4.8429407711    7.6519925353
   1.4395648128   17.1191856634    1.0036963392
  12.6410655539   11.2400460374    5.6788508965
   7.6281863727    1.5074041132   10.9814327751
  12.3669520379   12.8455186539    6.2322162411
  12.2139409377    8.6955476350   15.9885310471
   9.1459402619   13.5291967488    5.5352458569
  14.2128718652   11.8767543002   14.7634232984
   4.3084701845   18.5224020936    8.9030048084
   6.6667457447   14.8201713482    3.2362898876
  17.0112306116    4.9993638668    7.5643979259
   0.1194710466    8.0124097285    7.3069859581
   5.4917268434   14.6640445706    1.4295753825
   6.2425370212    3.1756944237   10.9632674974
   0.8475948303   14.7315724084    0.6247289175
  13.6885345741   17.7722997090   17.3165740627
  14.4225036195   16.5833273064   16.2205933111
   4.8134235808   15.1638700249   18.5591047031
  14.0211235389   15.2707339787   12.3699647299
   8.3092213928   14.2238348087    3.2953391188
   4.7458189759    3.1157959407   10.0947122734
   3.6420660285   19.2001750419   11.3885896971
   5.9344485897   12.1444305682   17.0056202544
  15.5145173011   14.1914897704   12.3560220705
  11.4783739140   19.3362241944    2.2779609127
  13.9860972707    1.5086991875    3.4752636048
   4.7156401773   17.4035094777    4.7135731408
   6.4021869091    1.3454637095    7.7865183173
   4.1553246322   18.9746257768    1.7074931561
   0.6807151903   15.5579721126    2.2625545916
   6.6441507100    2.0926043769    3.6164492742
   3.3674404498    2.2641048843    2.1333295802
  -2.1655445675   17.6969444480   11.0574343337
   0.9539040559   12.6523876108    2.3741873826
   2.2003252917   12.5624459581    0.9553659912
   6.9069805105   13.0748040712    3.5581183401
  13.0959792675   14.7715709202   17.3929557438
   4.9692684838    2.0058682173   11.4998177457
  13.9353705728   15.6826713511   18.6260061998
   7.1606720221   13.5871836457   16.7082098144
  12.3528501211   14.2106721136    8.1037895989
  13.0187665923   16.7722672725   10.3412831237
   5.3031659941   12.8981151525    1.3910815624
   2.9512322868   16.1047817594   11.1031893566
   6.0497813799   18.0548030640    3.7634884900
   4.7233036128   15.7628419164   11.5109401036
  13.5507597810   15.0965434264    8.9680684388
   4.7491506726    3.0188470588    1.1617915402
  -2.1821274702   15.9480061026   12.6059267490
   6.5439263761   15.5338526970   18.3032430378
   2.6821270270   12.3845231284    2.4767107763
   8.0451245200    1.1345148707    6.9937473825
   6.5753089441    0.6801332937    6.0043200001
   5.4826903532   13.8763651143   16.6076737449
   7.9732592042    4.3612590981   16.9926770216
  11.9865261626   19.8811172641   11.5425367571
   3.8601832999   14.4370635414   14.7838170585
   5.1122259746   15.2500163305   13.7403734887
  10.0249013270   14.3071157797    8.8561632677
   3.9657987608   17.1419814396   12.1583708749
   4.8280269568   17.0823530256    2.9874568748
   8.1829530563    0.7512670189    2.4781616130
  -2.1053831602   16.9981828054    9.4384924877
  14.1784225524   18.7175311100    4.0129409097
   6.7243190431    2.1841779277    1.6803880726
  12.8287641849   17.4522960475    3.8416438186
  13.3018977497   18.0972921939    5.4665126730
   4.5681141435    3.3679885081    2.8411585182
  12.2946081228   15.9572116013    8.0641193326
  13.7202866814   18.1761770178    9.3139134074
  10.4636148604   15.2994161491   11.9163338624
   0.2838106043   18.3266885405    9.7000662636
   2.0951431555   11.8295015303   10.7640494844
  12.7345807029   13.5515811465    2.4657153707
  10.9626898220   13.1976569280    2.9283058586
  11.5198787628   18.2591998206   10.8102494500
  12.2220712044   17.8944063886   18.6708731699
  11.3109659296   15.8800209551    0.5517826696
   1.9925132617   13.1811861105   12.0988811922
  11.9062630073   18.3406767678   12.5187642781
   0.5527665515   12.7670330508   11.1693881631
  12.3349034734   12.4309327547    3.8085942294
   4.9523191591    2.3487264931    5.5750793358
   9.8753858304   15.8276170493    9.5047786914
  15.5291661348   13.6789603242    7.8722747957
   9.4376569774   11.7158188200   10.3588671723
   5.0138691058    2.8544484926    7.2055233694
  13.0449202129   15.8232065579    0.6558809319
   5.9980311348    4.3695663455    4.7956534106
   6.0807661828    5.0658705965    6.4001769697
  14.6534371523   11.5075215082    8.0903372341
   5.4754180777   19.4831087633   14.6136449075
  -0.0383104551   19.5202469408    8.3868465360
   1.3493993617   18.3342581369    8.1295186656
   8.8244584215   15.1294568509   11.3172663536
   4.2113855568   16.4371768317   16.0839377002
   2.9308784626   17.1460950025   15.0653788282
  -0.6583766230   13.1998726504    8.1877075745
  -0.7978661132   11.3199504985    7.6593642939
  11.4440524770    2.9319468662   14.3544757629
  13.7609866809   15.5395044658    3.5226866243
   4.9488100738   18.8531648250   16.0327583218
   8.4699096041   13.0288517927    9.8034852369
  15.5685683607   11.1110083011    5.6565839481
   3.7301437474   19.1607183255   14.8848640818
  -1.2792392050   18.7133025615    6.0632630016
  -2.5291318671   17.6051905528    6.3562085938
   7.8876713189   12.0994413359   11.2260948564
   3.2541698043   12.5282352726    9.1460187723
  -1.5625419952   14.1392221248    9.4143963350
  13.3087591579   15.6554261195    5.2209226549
   3.7954789325   14.0810913684   10.0675228376
   0.6190166327   16.9766548319    6.7070214335
  11.3193615935    3.0418620874   18.9696381962
  14.9097609360   10.6359273162    9.6020814212
  -0.8458503912   15.8438550148    6.9550988756
  15.6584108357    9.4643889490    5.1176854659
   4.8625826390    6.3787493010    4.5659878178
   7.3453805938    8.4265162369    4.2316583790
   4.1619541744    6.8538482618    6.1181315257
  -0.7051354676    9.9488497770    8.8774852894
  14.1609809832   13.3402588498    5.8121660106
   0.9030027627    6.9975577227    3.8854054184
  -0.6711527780   10.2442640818    5.4267717531
  -0.5314518955   17.0250354241    2.8188399964
   0.5544854489   17.7941695654    4.1617131875
   1.9953007725   14.9999238139    7.9279147235
   1.1018574815    7.1200578340    2.0331356162
  15.3095042608   14.6260705132    5.5061898859
   3.8485861351   15.1273621014    8.0259491343
  11.5492003119    6.5398621837    3.6506702481
   7.3017726135    7.1812495210   17.2457390204
   2.8980115840    6.2677943059    4.9024923280
   1.1143223385    8.6736207570    3.0243466378
   6.8299642204    6.8308822374    3.5938847576
   8.4123984520   16.3765059047   16.7457302681
  11.1298995620    4.8199063767    3.1293073600
   7.7738353668    6.9274798014    5.1546854405
   1.0585104822    4.6983430714   11.6513694461
   8.5537838835   18.8148891165   11.5231257814
  11.7805699899   10.3345845157    3.9751242211
   9.2699799204   15.0392169216   15.7831700197
  13.1445000701    6.9710983014    6.8292066039
  11.4504920828    8.7142600867    3.2770246335
   9.3761226961   17.4026538042   11.2045802450
  -0.6806266646   18.7461451193    3.3412362436
  11.6220214950   10.6183238837    1.6692213571
  12.9575538602    6.8380822223    1.5878651171
   8.8621110015    5.3110454039    3.0727452936
  -0.7935950075   12.7051198896    4.8284254039
  12.1961656789    9.0197374544    0.9656275182
  12.5091645007    5.2541545065    1.0207817018
  10.2029001785   16.1114589158   16.8709225137
   9.5881212001    5.5651966066    4.6609058244
   7.7750884817   17.2774370586   11.6194368302
   1.9870602038   14.4842198311    5.4294504036
  -0.7352398173   14.0834930527    3.7357262881
   9.1941107529    9.4097817434   10.2434417217
  14.7034059695    7.8530351357    6.2500351421
  -1.1870946612   12.3622838959    3.1947943790
  15.2681352823    7.7675005869    3.4359311615
   3.4058427185   15.4405195988    6.1215468966
  14.4038179584    6.1356571012    5.5572956684
   7.7455771821   19.3470337972   13.3263225897
  16.1812654367    6.6450147952    4.0169922969
  11.8237081577    9.0533079791    5.5660491534
  12.9294586220   10.5623923791    0.7848118889
   3.4787793749   13.9489720604    4.8291934382
  13.4831472330    9.4837368485    5.5254768679
  12.1816415159    6.7130371516    0.1492135932
   9.8684397549   13.0860309822   17.0781891944
  -0.6773855450    8.0747334576   13.7371349695
   9.6566194112   11.7759944468   18.7238632825
   7.4475091567   18.1133148868   14.5159217487
  10.8123111176   14.0602972579   18.2689778630
  14.7438028112    5.6955849799    2.3088682975
   9.9667732261   18.9238806007   15.5224712509
  15.2895509751    6.5962932838    0.9756251302
   8.2115049710   12.5685079413   19.1508878952
   2.1303199181    9.9531383533   16.5365120683
   1.5251156990   14.4731724431   15.6190696854
  10.2945411523   18.3872342506    5.6492232789
  10.8242456531    1.6838411861    6.4815881990
   5.3031467717   11.0528521672    8.1898534552
   3.6687244162   11.1636249098    4.8067360163
  11.5406635574    1.6038997567    8.0695741013
  16.0439120553    9.4828090932    0.6245390043
  15.8261813831   11.5405873149   18.3916806623
  14.9197314212    5.1075097923   11.9979117544
  15.2620496084   12.8379600951    1.4475004424
  14.4601109488   13.5178993403   19.3032287418
  -2.1700882649   19.7332781786   11.7757825768
   3.1445686618    1.3719437798   13.6639259087
   0.6266803174   17.5461855019   13.1206751799
   1.3286910958    1.8956750133    9.9353020496
   8.2949680694   19.6804214205   15.8993766640
   4.3923292652   11.8656666930    6.9231572821
  -1.7279279764   13.8585906413   14.9722691936
   9.5593236817   17.6729107939    3.5915690720
   3.1582501236   10.2419915670    9.2759794049
   2.7057830440    9.1460331648   15.0184951797
   7.8193507610   18.7401044214    5.2370456209
   0.2177932112    6.9021012330    0.0812151298
   1.9770863527   13.8500974987   14.0099836352
   9.3281017152   11.1308176247    3.0460762608
   1.8694913907   10.7216386843    8.2023560590
  11.4035122021   19.6246100166   14.5238511703
   4.6123748527   12.0269156895    3.7660415153
   3.0848992512   12.5575392102   16.0785146365
   1.8567406497   18.7952406946   13.2639014037
   3.0184590627    1.6239614571   10.7133494348
   9.7648582320   17.3990984676    7.1622089931
  -1.1811192712   12.1282843914   15.6047206840
  15.7544141194    3.8058336341    0.5181884817
   3.7572333343   10.5389808817   15.7170898677
  14.8830261809   11.3309473014    1.4871369366
  12.5182049986    1.0822570930    6.6017907808
   4.8666977640   10.2755927921    3.4887525537
   8.7125882123   10.1007973940    1.7297979620
  16.2132082946    6.6215272273   18.9790325016
   6.7439050125   10.2801534380    6.5238140264
  14.3599956152    2.3739542029   13.9882897963
  -0.4764710048    8.1348840431   17.7252267038
  10.9263753092   16.4578620566    3.6185107984
  16.5588040145    9.0725918640   19.0047284952
  -0.9363721859   19.1934156525   13.7807507422
   0.2447319145    1.4032591052   13.1062203406
   1.6214552678   17.8590159338   11.7503194780
   2.3878281848    3.3052806577   10.2411166801
   0.5031471821    9.7591018287    0.6402545702
  -0.4116201033    4.1623948151    0.2534583009
   0.4301014753   11.9822187327   18.5062837881
   1.3183881788   11.9818456954   16.4331303522
  14.1310663237    1.8129267269   15.6438263869
   9.4335559269   15.8470068844    3.4533362470
   2.2269445311    9.0254603545    8.3195998752
   7.5138854992   17.3209322121    6.0710890867
   5.3235744686    9.3847660516    5.9249319804
   8.0142450288   11.8497989144    1.7891514808
  -0.5351653174   13.4831066293   16.4527721587
   4.8199056032    8.8922197919    1.6818105989
   8.7161192286   13.7656424347    7.6038750446
  12.4979026641   12.7371283781   13.7458347921
   4.2819195285    1.5090563622   16.4765850450
   2.0828338319    3.2777656741   18.2060121186
   0.1956288600    6.0945007428    6.1990012837
   3.8354429238    5.4309767304    0.9477954434
   0.9671391369    3.6456442277    5.1033967058
  10.7484423639   11.3837749832    5.9684394250
   5.5698350463   17.9402430523   10.3476024238
  16.7441518771    1.0883659313    1.7746213797
  11.5812423508   10.6278220907   16.4442292042
   3.0959099548   16.3877381865    0.0878858995
  12.4547941985   17.0137378354   15.8092604945
   5.9766394811    1.3192695179    9.8405776240
   2.2579753904   14.1754328278    2.1472104992
   7.2957071160   13.6733567024    1.5136245382
  12.1223879224   19.3048430931    4.4270919522
   6.0816209867   13.5013738130   18.5449762927
  15.2091881482   15.5658509953   10.6937090386
   4.2032223723   18.9556239375    3.8030410987
   5.0377562859    1.3575864429    2.4769929751
  11.9100014168   15.9698967393   18.4891073937
   6.8822359685    2.7328211071    6.2000507732
  13.6556103588   18.5872557857   11.3592167852
  11.7350790383   15.1705693339    9.9963301058
   3.2671384585   15.3978158121   12.9696433872
   4.9751551600   17.5107523417   14.4919068291
  10.1714629801    4.1295583554   15.4805867181
   9.9002828143    3.9853547963   17.7888227193
  -0.6251999672   17.4397131392    8.1849264287
   9.7630743512   13.2647085945   11.5085339111
  12.0583455186   14.3929772726    4.2802979702
   1.7901451202   13.6762022318    9.9673762461
  15.7859008037   12.4171915980    9.5936169642
  15.9263347145    9.7227525852    7.0787391861
  11.7352819931    2.9857048559   16.8781210795
   4.0775034508    4.7631992351    5.7009581151
  -1.4938759854   17.2683975406    4.5474214126
   8.7843309463    7.2162251409    3.3570072015
   8.6049863912    7.0006173121   15.6075757896
  15.1398730261   13.2713082640    4.0060616180
   3.0396596416   13.5093630220    6.8183987251
   8.8761463155    7.7986386079   11.6103550425
  13.2339280519    7.5229156106    4.8602595156
  -0.6924516483    7.9518029742    2.7551244824
   0.5650234267    6.6652877801   12.0677341011
   8.9280809663   14.7210430776   17.7636096532
  10.8822494002    6.4370784307    1.7445500066
  13.2326678842    9.6262889191    2.6418642559
   8.9846117266   17.7105626787   13.2332052906
  16.7863252735    5.2105981697   11.2613812732
  16.0500915861    6.9751795906   12.4971556819
  16.8031777622    5.3677082545    1.6826112603
   2.0670476964   11.1894003681   14.8610451766
  12.5364421661    1.4700434937   14.4253142924
   5.8373631650   11.1150251324    4.9725608863
   8.0065828591   19.0005343171    7.3709527795
   9.8564651001   11.7074233234    1.0527371360
   0.3177271308    9.9712018435   18.2863619957
   0.1342379203   19.2948609750   11.9476472099
   1.3448286493    2.5680245934   11.8307486744
  -1.2241719223   11.5882885494    0.3738024486
   9.6583416485   16.4422777756    5.2900449816
   0.0983931153   13.4816560525   14.4638577859
   3.6960140100    9.8530427841    7.3525015795
