B2 C140 Ca1 F48 H298 O66 
1.0
1.7791142780264675e+01 -1.2143952703798263e-17 1.6082716017113875e-17 
-2.8499023526809899e+00 1.9249352929018624e+01 -2.4629808410933090e-18 
-7.5856752083594381e-01 1.2964889287337993e+00 1.9522862836158922e+01 
B C Ca F H O 
2 140 1 48 298 66 
Cartesian
   9.9236842829    3.5107942764   16.7840917139
  -1.2686112991    6.3143283355   12.1388533809
  -0.1267472716    1.4609952125    1.5218975573
   7.0132572390   13.7119535540    6.9787043820
   4.8410972694    6.4474300394    1.1524301918
  12.5108143755   12.4626983950   12.4561927214
   4.2439985448    2.7216490281   16.1658056279
   1.9119791464    2.0434658890   18.3368635986
   1.3226554544    2.8140299789    5.4969539802
   2.3482492735    1.3795619376   16.9425152394
  -0.5575067533    4.0580165329    5.7972918169
   2.9312177987    6.3418268667   19.1723642524
   1.7835060284   17.0781117483   18.4799583061
   0.6051123556    3.8971819254   17.6907603087
  11.7213791224   15.8022888849   15.1650875645
   4.7523615659    9.9890689858    0.6905286101
   6.2392470456   17.2699616502    9.3691964221
  12.2774855387   12.0765378223   16.1859833800
   9.5525970562   12.0489678080    6.7019964906
   9.4411439133   13.5331546187    6.4207373316
  12.7802546901   11.8398645186   14.7529790897
   3.8913345281    7.7581510821    1.1207754593
  11.2068082443   10.0159787541   16.8366076429
  11.9488116708   11.5740935888    6.1521002702
   0.0121218563    5.2119959109    6.7223773005
   0.9180927419    7.2779984179    7.0173181871
   4.4813075293   18.8498575987    9.6221279826
   2.1977623443   16.3954969173    1.2028518706
  15.8793472967    1.7668022260    3.1633658785
   3.4815802379   19.3394720175   10.8080034404
   1.4490161511   15.1632966503    1.6149168503
  12.9413029779   16.7974021434   17.0821683079
   5.3206441974    2.2492040391   10.8950256000
   7.4392507240   13.7812099761    3.0152623694
  14.5974551244    1.1166307413    3.6180740946
   6.1287931895   13.6074595046    1.0130584914
   5.4039069425   14.8736446019   19.0885335673
  14.9991892613   15.2668422041   12.1428501591
   2.1509496408   12.8838360170    1.8160832015
  12.5373744971   15.8239232098   18.1724998380
   5.3925980176   13.5510706568   17.1372469557
   5.0665241997   17.8284749904    3.8914511705
   7.2032340170    0.4610161813    2.6517283104
   6.2195068018    1.6078255381    2.6528374090
   3.8560698271    2.2280827276    2.3443577050
  -2.7136488088   17.1267143097   10.5895347040
   6.7476866849    1.2541178224    6.5879257355
  12.0708102201   15.0219051296    8.8941769615
  13.6375522651   17.4808433239   10.5079656572
   3.5849527698   15.7581863732   11.9462803726
  12.9708125052   18.3867346406    4.4418478122
   7.0378015258    2.5284223644   18.2808066300
   7.5202237949    4.9377340928   19.2040087281
   7.7433498977    3.8624268613   18.0879433164
   3.5781032375   15.6211063391   14.3080914127
  11.9538121363   18.6106867449   11.7489728299
  10.0279796533   14.9407519959   10.1625771717
   9.1967578437    3.3366223871   13.3100549503
  12.1429584711   15.7362531998    0.3812966748
  12.0541905156   13.4931915679    3.2433818331
   9.3735465961   14.4240763893   11.4552739409
   5.3569538238    3.1660045839    6.4513131360
   1.5195298290   13.0167033908   10.9072141350
   3.5486313144   16.9522776715   15.1382751557
   0.2315862403   18.4566490801    8.5192858274
  10.1587502221    3.4239641082   14.4315751372
  11.1993773004    4.6005032718   14.1304502844
   5.4377276245    4.6829889555    6.1753750644
   4.4105333574   19.1774066790   15.1813001678
   8.5192753172   12.3493552863   10.7068368389
  -1.3767970249   13.5101152032    8.6884092016
  15.1111771282   11.5972543536    8.5982578900
  -0.6798902778   16.8177433407    6.8758183575
  -1.6684388592   10.5413128806    8.1116044608
   5.5479763707    6.7571662466   15.4916923952
  13.5052788332   15.0201009564    4.4893485624
  -1.3997876342   17.8055582230    5.9534847069
   2.8529396760   13.6759194107    9.0372724061
  15.8040263231   10.2226199005    5.7679376593
   3.7046607284    6.2352679388    5.4135785607
  11.4330682712    2.6694574346   18.4390108039
   2.0391096803    5.5203266265   13.3995757158
   8.8276898974   20.3927742547   18.6469139836
  14.5274762022   13.9212244122    4.9444704976
   6.8144398963    7.3383340666   16.2292989796
   2.7204518649   14.6377749215    7.9182045982
   7.4370908602    7.4276504664    3.9869406647
  -0.4801300012   17.9233276226    3.7168842139
   6.8341084567    8.9270874550   16.0071902209
   9.5144847266    7.7370511564    9.4850363643
   0.3724455738    7.7426367837    3.4628096187
  12.7155602423    3.5180234039   18.7419321424
   2.0480917533    5.9642509258   10.8165282451
   1.1830446063    5.6908391097   12.1118260738
  10.7768687519    5.8777805847    3.0652319487
   9.3623376083    5.9497051923    3.7779096301
   8.5780009184   15.8844421307   17.0789908214
   8.5814487065    8.4848395121   10.5583493082
  11.9399036777    9.1523295023    3.9273515562
   8.4476461295   17.5300130291   11.7317850655
  -1.2731595399   13.1177064110    4.0668978767
  14.1809303765    6.9493810544    6.1191536781
   7.2002350212    8.6110458518   10.0277197335
  12.8765422687    9.6097835534    1.7440945571
  11.9198668201    6.2337075689    0.9712750607
   2.8649274340   14.2761324614    5.5004523956
  12.5093738484    8.6339165498    5.3387582219
  15.8917680358    7.0683374054    3.4062118657
   8.0347593865   18.3816938706   13.9438958608
   8.9738987720   13.7260369206   18.0871336860
  14.7030472421    8.2282335732   14.7769875546
  15.8326727799    8.2567826364   13.6144139448
  15.7761828171    6.1088859781    2.2476480893
  14.9742592188    3.3044661890   10.9617693236
   8.5553355423   12.6106096421   19.0938908055
  14.9333907006    4.8425213642   11.2080324138
   8.7444589431   19.3026641326   14.9528833026
  14.1813834833    5.5544949193   10.0495331516
  15.7232057301    9.5744014262   12.7066745612
  11.0889062484    1.1015870399    7.1408872594
   2.3944440043   10.2208731238   15.7744224518
  -1.7661170159   11.4052327804   19.2996470646
   0.7641770538   13.5396773217   15.0457189958
  15.5272366517   12.0742921873    0.6951008153
   4.5695386857   10.7791347418    7.3227373732
   4.8370262185   10.9563255901    4.2646058553
   9.0839436784   17.1947978115    6.0247736697
   7.9547061716   18.1048922968    5.9205086698
   1.3759219099   12.4938409269   16.0139196724
  -0.8303589695   20.0533713039   13.2358704014
   0.9422227896    1.5606848671   12.4753076857
   0.6972702915   18.2567229769   12.6733258810
   1.3033613276    2.0837535381   10.1103152384
   9.1119654929   11.0292615701    1.9690466113
   2.4512118666   10.2308120195    8.3518503760
   5.6726651392   10.2843100270    6.4358537604
  13.5906537522    1.3003978414   14.6521377407
  -0.7474361564    8.8126736515   18.4897261578
  16.5857459778    4.7712822725    0.7059248423
  -1.4702855641   13.1742132232   15.5569189587
  -0.3910009674   10.9205755882   19.4778158874
   9.6555800152   16.8445116974    3.7501197860
   8.2422950291    6.7683553857   13.6296946673
   6.8918659373    1.8821879093   17.1277241551
   8.1675645993    6.0837390870   18.9654437495
   9.0421299921    4.5455125308   12.6128757448
   7.8764567210    1.7885599367   19.0502428037
   8.6522770090    3.1733158518    0.9019795596
   5.8732178550    2.6593051304   18.9219930128
   6.2232205980    5.2306754572   19.3857006098
   8.0456570753    3.0159080193   13.8703870317
  12.0073426204    4.3188941598   12.9597378229
   9.7219864346    2.4280516223   12.4319343007
  12.2007981392    4.6127938416   15.1125865851
   4.3556749310    7.1180218184   15.9565882644
   5.6079669204    5.3796216752   15.6260739149
  10.6220295301    5.8265559444   13.9551460586
   5.6567666040    6.9338765019   14.1688984158
   2.8622052543    4.4021067929   13.4029538357
   7.8842180503   19.6822824929   17.9634929786
   2.7453931831    6.6783824678   13.5987562750
  10.7387220139    7.8412360430   10.0432509235
   1.2932866549    5.6232831953    9.7960858819
   6.7860077433    9.2219254489   14.7004939936
   7.9449173041    9.3842426078   16.4987126959
   1.1576079002    5.2303848546   14.3809354477
   9.4570072624    8.0990839030    8.1028953795
   9.6093912936   18.6932016325    0.4685226067
  13.5129381590    3.3337470841   17.7308050894
  10.0581461482   19.9479819518   18.1788847376
   3.0362049110    5.0365633942   10.8134946653
   9.1475760169    6.4386331047    9.4900891262
   6.3654073668    9.1706184532   10.9266157109
  14.1707796872    1.9208968448    0.2851698367
  12.3729106251    4.9170970779   18.7327937380
   5.7922947122    9.7991470305   16.6027026395
   2.6183377019    7.1083035123   10.5869523112
   6.5913695486    7.5094663204    9.5506247890
  15.0505646726    9.0595345141   15.7910760678
   7.2249393895    9.5307532554    8.9151716505
  13.7812783448    2.6055113671   11.0542747738
  13.4710443450    8.5426364413   14.2281638491
  14.5683635537    5.0750935010    8.9192469301
  15.4303714688    2.9376769268    9.7804545727
  14.6010005322    6.8994333999   10.0197793050
  14.5854782682    6.9165111603   15.1677073740
  -1.4796233883    9.4301923951   11.5047992564
  15.7546587688    2.7979226329   11.9840750389
  -1.3781829410   10.5606741016   13.3769334021
  12.8442928384    5.4214779877   10.2091710214
  14.4301405498    9.9876957033   12.4248240800
   0.9625333082    1.4502444707   18.4593813112
  12.1618384475   13.1245156332   16.6380655227
   1.9094914588    2.2560203110    4.7809159664
   5.3203520326    6.4620284611    2.1507722856
   5.5620661051   17.1660926914    8.5318417829
   9.8477253634   11.8656419087    7.7665857648
   5.5822290154    6.7409118307    0.4303520759
   5.0532778385    2.4464413392   15.4760776034
  16.2390968359    4.3932195176    5.3875641534
   0.1331995765    2.5322739975    1.7763352675
   1.0198257386   17.8136914793   18.1928115295
  -0.0381950198    1.4630647721    0.4251792469
   6.3371459610   14.4135121789    7.5923472383
  -0.3443946388    3.7753395389   18.4329202011
   0.7811531836    0.7767658802    1.8740731079
  12.2462232000   11.3589821687   12.3502304031
  -0.5435803370   19.5238730503   17.1237371135
   6.7043001166   13.7960225641    5.8926782984
  12.5222198888   15.0664457493   14.9683755495
   5.6234313115   10.6315761304    0.7970762049
  13.6485075803   12.7641754891   12.2942690291
   2.6563414164    5.3244545500   19.1918360184
   2.0510497930    6.9134351988   18.8046843715
  10.8300767290    9.8008985434   17.9127049647
  12.1633397148   10.7375650774    6.7763900644
   0.8356980330    2.1855774667    6.2952731287
  16.8693594318    3.2687629937    6.5118378259
  10.3607835242   14.0131123445    6.7095264964
   4.5886179467    3.3297383677   17.0402599093
   4.9017147143   19.7734716370    9.1208724786
  10.9098469948   15.3377994068   15.6748656346
  12.2037555056   10.8833561512   14.3702505215
   1.3830790889   16.0230651010   18.3336019994
   2.5557469029   17.0612601441   17.6979569207
  11.3636966029   16.3314941676   14.2837531823
   7.2467108045   17.5226822988    9.0602225094
   0.2956351788    3.2245465540   16.8424482940
   2.7159923745   16.5921069494    2.0870860953
   0.6289350939    8.2248383155    6.6235424163
  13.1291994966   11.6507135947   16.7604173903
   1.9846515167    3.6311529645    5.9864886430
   6.3112813908   16.2672261358    9.9140769564
   8.6153736179   11.4433545436    6.4477880548
   3.8391226346   10.6528533056    0.8189261472
   6.8655360916   12.7007993420    7.2378167145
   4.1239833019   10.9833056054   19.1445545592
   3.7618272165    6.6017356552   18.5474518809
  11.8373881515   13.0963665617   11.8256584267
   2.3675516045    1.5587527211   19.1823788068
   3.4409112910    3.3289535165   15.8101839024
   0.8163111491    4.8474862428   17.4086785233
   1.8236830021    1.8104047508   16.0659224926
  16.6906454377    1.8864932076    3.8734436402
  15.6471591876    2.8619425235    2.8729924446
  12.2381776059    9.8147403471   16.7237859002
   3.1844093541    7.6712511040    1.9077917170
   3.4177806880    7.9029647838    0.1797780470
   2.0076284189    7.4749492668    7.2408055833
   0.8454966324    4.9422353909    7.3953176645
   1.6103314607   17.3318700790    0.9664976764
  12.3721984766   11.3916432539    5.0931927808
   4.0985208924   19.7574798020   11.5435341693
  12.3105982847   12.4384294312    6.7778197756
  10.5397495725    9.2734235025   16.2902620796
   9.3613324973   13.8469080266    5.3027863622
  13.9425545551   11.7446493961   14.5569945109
   3.8246360973   18.2699960729    8.9514359506
   7.2454254953   14.8047919756    3.4807506523
  -0.8525394296    5.5772933562    7.3641433252
   0.4607458958    7.2528395702    8.0794660227
   5.5805804972   14.5027663752    1.4053954276
   6.3631745850    2.7072714036   11.0886546618
   0.8332403183   14.6631590249    0.8041776871
  12.9763879282   17.8149719525   17.4323731259
  13.9359731557   16.6134132387   16.7799044076
   4.3906585492   15.2658774150   18.8870949296
  13.9561532225   15.5653228955   12.3654447005
   8.3782648455   13.4498054381    3.4971539366
   4.6650701819    2.8603898929   10.3212487935
   2.8390544714   18.5422016200   11.1948611720
   5.4681542084   12.4930880771   16.9031865821
  15.0473278838   14.1611482256   12.1581214670
  14.1343252032    0.8731157933    2.6363830212
  13.8719213347    1.7586720847    4.1575846451
   4.6503073928   16.8956558591    4.3834412066
   6.0601830681    0.9555813266    7.4257572459
   4.4313837710   19.2685293776    1.6939993305
   0.6096871418   15.3438633756    2.3185281026
   6.2254665219    2.0244382607    3.6078273075
   2.9411795204    1.7083033523    2.3330569628
  -2.2720559048   17.7710008017   11.3476963993
   1.2622110712   12.6153918318    2.3510336508
   2.3680063473   12.7957623935    0.7524694716
   6.7494113119   13.0966540280    3.4471867675
  12.4182016720   14.8627816786   17.7245931834
   4.8813270069    2.1703552531   11.8906909804
  13.3900939236   15.8131227071   18.8946180162
   6.2073978822   14.0745185890   16.7225117384
  11.8666580023   14.1100152383    8.2911499154
  12.9309264701   16.5868794188   10.5187843405
   5.5904000820   12.7446832833    1.3540024493
   2.8510837233   15.5978573749   11.1468798252
   5.7809779406   18.2905411091    4.5317918906
   4.3144572851   15.0101244536   11.7578180850
  13.1601270369   15.2104446523    8.9600884656
   3.8447210667    3.0725735145    1.5768098803
  -2.0679692899   15.6133846576   12.8558395158
   6.2231462506   15.4545480197   18.6789913376
   3.0347163263   12.2563094241    2.1498851838
   7.7455143879    1.2598554910    7.0488608196
   6.7357464283    0.6725804717    5.6739752464
   4.4742915214   13.9370666661   16.7240754593
   7.2827164958    4.3494911160   17.1689097225
  11.7319725553   19.7508407530   11.7250750760
   3.1795317758   14.9035965951   15.0566046885
   4.6078661702   15.4000252625   14.1567076428
   9.8143527765   14.3079738165    9.2688756557
   4.0903108837   16.7227864478   11.7080873348
   5.7700752042   17.6091738670    3.0358867031
   8.2240410733    0.7114474495    2.7985661251
  -2.2077806586   17.1417389481    9.6697371268
  13.9400714202   18.7966626748    4.5615679287
   6.4682519930    2.5412448154    1.9956728993
  12.9076234840   17.7397824720    3.5296985256
  12.8480882246   17.6191232244    5.2166424720
   4.0131467411    2.7153274403    3.3412888456
  11.7501299226   15.8961604146    8.3845747020
  13.4298219131   17.9226306246    9.4497374798
   9.8005397891   14.9316233614   12.3801452410
  -0.0935605819   18.7583104507    9.5021417769
   1.7422112993   12.0007209936   10.5687047624
  11.9602107347   13.9472227503    2.2053592867
  11.2480305322   12.8663909521    3.6123702543
  11.3305373014   18.0369656735   11.1214251720
  12.8726007929   16.6006729966    0.3065775716
  11.1630581771   16.2025221421    0.3811409634
   2.0486734764   13.2892047999   11.8624754691
  11.7288114609   18.3404428434   12.7798676835
   0.4448404091   13.0579259835   11.1744277279
  12.9412249010   12.8144728896    3.1884243764
   4.5288689697    2.5716338196    5.9708516863
   9.5373977517   16.0388837220   10.0103423474
  -1.7965253145   13.8197283844    7.6864655600
   8.9977432392   11.6178787938   10.0430703592
   5.2068691980    3.1357160577    7.5896687935
  12.2037276006   15.1645388094    1.3164315824
   5.8350154564    4.9183885329    5.1717221874
   6.1101101593    5.1429858771    6.9562570729
  14.4539642330   11.9363218545    7.6599110449
   5.3773198233   19.5507236887   14.8952328315
   0.0993595178   19.2219467536    7.7635434956
   1.3032738290   18.2397653910    8.5536256321
   8.3629375806   14.6840267504   11.4913262308
   4.1091894111   16.6772836280   16.0641883733
   2.5370683697   17.3097577735   15.3706914033
  -0.4001752194   13.1062242396    8.4150316027
  -0.7433683722   11.0958803058    7.8622981983
  10.8632234251    2.5026306639   14.5043557966
  13.9541820349   15.4661739107    3.6536709790
   4.6514314481   18.8943057162   16.2476300589
   8.2368511298   13.1749897175    9.9651621051
  14.9842353148   10.8664305895    5.5747803880
   3.4960044499   19.8989161139   15.2370414668
  -0.8535293400   18.7158878840    6.0446601868
  -2.4746617094   17.9376726495    6.2101217527
   7.6624397962   12.0165402636   11.2573813824
   2.7255962877   12.6404478102    8.5960104188
  -1.1756860371   14.3435742779    9.3269462144
  13.3533019913   15.7671135645    5.3126349693
   3.7948345490   13.8520261920    9.5492804505
   0.3143457580   16.6702295920    6.4822434266
  10.6011200963    2.9818702725   19.0356528397
  14.4542035943   10.9819257611    9.2461281459
  -1.2714478728   15.9231239340    7.0485052843
  15.6779079833    9.3755760071    5.1132076988
   4.1052133910    6.1903390756    4.3730047676
   7.1427137702    8.4238314450    3.6634728519
   3.7795638078    7.2709895189    5.8561262030
  -1.4702481686    9.8894229819    8.9224656442
  14.1695987202   13.1966370056    5.6549167481
   0.4784162884    7.1983732807    4.3507489884
  -0.9927443166   10.5650673877    5.5156286193
  -0.8647443162   17.6691532871    2.7614480611
   0.5293990239   17.3898511067    3.8198908725
   1.7160787577   15.3152438059    7.9995969064
   0.6431380375    7.1232896462    2.5215114710
  15.4356456097   14.3517040323    5.5414696429
   3.5422930341   15.3948956376    7.8929978614
  11.3562771027    6.6117452472    3.6191429682
   6.5752102723    7.3615066899   17.4147299830
   2.6036992738    6.0871881901    5.3250603498
   1.0362952402    8.5914348933    3.4275823891
   6.9043879268    6.7132288170    3.3252273724
   8.0510326569   16.7934186503   17.3532777996
  11.1527469431    4.8285249381    3.1124072252
   7.1574981198    7.3130452429    5.0671907062
   0.7140917759    4.6832418915   11.9683517377
   7.9915278243   18.3679409817   11.0399641958
  11.1751965000    9.9379161469    3.9825427061
   8.5419797594   15.5977508255   16.0224345225
  13.6021679374    6.7486896221    7.0330033070
  11.3911599136    8.4517464297    3.2720995746
   9.2949849258   17.1399062204   11.1116443834
  -0.3928717548   19.0637656186    3.8058650027
  12.4734798055   10.5729590882    1.4314635069
  12.7259956807    6.7287642877    1.6576485956
   8.7211061249    5.2895467796    3.1615024261
  -1.0453631712   12.6032027491    5.0538280962
  12.2687771656    8.6469019786    1.3676050961
  12.3289975107    5.2085294274    0.5917669489
   9.6268772532   16.1165443333   17.1842973002
   9.5024190719    5.4406365567    4.8118002159
   7.6716667075   16.7184704211   11.9447552759
   1.9673664696   14.9532110834    5.2891560261
  -0.8852631836   14.1248065587    3.8933607433
   8.9919897945    9.4455688210   10.6310654779
  14.8236944034    7.8330589845    6.5471350812
  -0.6552169591   12.4391219247    3.4210052931
  14.7570256242    7.3260024596    3.3920484623
   3.7042396249   14.8722704606    5.3791284148
  14.7057908833    6.0517959727    5.7440436712
   7.2800743723   18.9294179719   13.4447713966
  16.2475034527    6.6828417670    4.3609617056
  11.6870774770    8.3592393682    6.0285517033
  13.8117655438    9.7229814175    1.2141189574
   2.7238246959   13.3491990937    4.8924894686
  13.1982033133    9.3806652240    5.7603218307
  11.8732598038    6.9284942017    0.2350760510
   9.0527259953   13.1557148268   17.0946555998
  -0.9300113054    8.1613116204   13.9668033251
   8.9942862515   11.6312882042   18.9154541619
   7.3911943331   17.5959537612   14.4202937355
   9.9568595358   14.1965478960   18.3630435102
  14.9112221304    5.4013538361    2.4344471175
   9.3604829141   18.7795864190   15.7356899782
  15.4680190394    6.6388132788    1.3255341265
   7.4939676984   12.2961222955   18.9827481688
   1.8918096209    9.6300048662   16.6706341684
   0.7584765202   14.5694360392   15.4298867688
  10.1883294618   17.6403811033    5.9927607364
  10.1903463498    1.7203217293    6.9703253588
   4.9088600318   10.7812571458    8.3783632106
   3.8312123452   11.3567722691    4.4933691136
  11.3704417756    1.2920159322    8.1638297649
  15.9701723847    9.6972502406    0.4713323117
  -2.0647347389   11.4994621344   18.2275197483
  14.5610416484    5.1566611236   12.1772031487
  -1.9317928577   13.1529514631    0.5863615576
  14.6681266390   11.7128889959    0.1255293362
   0.1707156825    0.9540331243   11.9622050779
   2.6392237760    1.5511906635   13.7662638296
  -0.0609675057   17.5276148837   13.1096132587
   0.6737517880    1.1724942845    9.9879402720
   7.8138661358   19.7184656097   15.4939543251
   4.2691299238   11.7704112799    6.9282613756
  -2.4124453734   13.5311988879   15.1776641759
   9.8136910060   17.9084626891    3.8459801811
   2.9326112889   10.4355503206    9.3649593293
   2.6014817388    9.5206012700   15.0097670791
   7.9983288217   18.7700754000    5.0056890047
  -0.2492482787    7.3221795373    0.0312822286
   1.4211193129   13.6844739576   14.1415476044
   9.0998109709   11.6666113769    2.9040602051
   1.9455617952   11.0740311595    7.9155432196
  11.4301656390   19.8242990103   14.3222624550
   5.1488785449   11.4332290092    3.2889850343
   2.3102352041   12.9680379709   16.3763657966
   1.5120763325   18.3489121564   13.3976023616
   2.2254650666    1.7451558739    9.7198372173
   8.8441359978   16.6142053300    6.8655838633
  -1.6408971533   12.1570180770   16.0173878530
  15.7202708657    4.1829895569    0.7719026924
   3.3313573041   10.6315931706   16.1557479429
  15.3955039466   11.9487452526    1.7118063066
  11.9424023988    1.1276689454    6.3954286993
   4.9585554313    9.8474813654    4.1004903373
   9.7809271361   10.2452350853    2.2886373228
  15.6329008422    6.7183999233   19.4376257761
   6.5766820943   10.3634161322    6.9724094316
  13.8788315049    2.2007507262   14.1130783467
  -0.1409261317    7.9832949686   18.1065694555
  10.5523590106   16.1960678019    3.6342658048
  -1.5714122172    8.9729688825   17.7607427885
  -1.2106784821   19.3138906398   13.8794563294
   0.5941182119    2.1998931920   13.2346555726
   0.9585192640   17.7856686606   11.7727429456
   0.7703481198    2.7765691052    9.4180825160
   0.5933373149    9.1346545220    0.8736776149
  -0.2161868360    4.3208880319    0.6338534210
   0.2352886016   11.7842878442   19.3922878076
   0.5907547971   12.2667371419   16.7417536925
  13.6930218004    1.6093759744   15.7635002006
   8.9914767215   16.4954226879    2.9001413538
   1.6595503681    9.4496997896    8.2084178951
   6.9938828203   17.4514625711    5.8738335977
   5.3841415381    9.1687927055    6.1898931120
   8.1090830742   10.5310550576    1.8486571070
  -1.2258490158   13.8544646198   16.3929608060
   4.8624086847    8.7837552014    1.4099494617
   8.3426521241   14.1057844333    7.2176135434
  12.2618598234   12.8189854859   13.8437159828
   3.8026759536    1.5429625291   16.6706405260
   1.7834631777    3.4465643466   18.3355073516
   0.5285004789    6.3949290158    6.0796325555
   4.0200870504    5.3036650694    0.9679119886
   0.1889753639    3.4417473915    4.7327792624
  10.5828870700   11.6015438723    5.7360897129
   5.4587606600   18.1091386391   10.3048224035
  16.3737509151    1.0261153176    1.8842733355
  11.0748512830   11.3478375461   16.4910407466
   3.1534902683   16.0726407744    0.1589486368
  12.0116187149   16.9215449945   16.0025702637
   5.5002861283    1.1085150845   10.1946296150
   2.3990120419   14.2603734510    2.2246425647
   7.4233526055   13.6909234243    1.5931638966
  11.8765592722   19.2572992942    4.6056855827
   5.3848302441   13.5706625588   18.5391499876
  -2.5352100091   15.6485792776   10.8160168171
   4.0544276777   18.7582536645    3.7170843810
   4.9464446444    1.1711016721    2.2789730074
  11.2997138789   16.0189745191   18.8560311474
   6.6366176071    2.6807563405    6.1134525304
  13.3716144720   18.5476200771   11.4177996034
  11.4468166074   14.9874436906   10.2690161695
   2.8452035504   15.5695542210   13.0671046803
   4.2343172155   18.0010616131   14.3835419294
   9.4544606528    3.7935978510   15.5607533094
   9.1529105626    3.7567571291   17.9608330230
  -0.5537761054   17.3281937427    8.2340581793
   9.4635715007   12.9191443583   11.6740022872
  12.2046039744   14.5091234144    4.2501277589
   1.7082397642   13.8687361067    9.8443872344
  15.6015199912   12.6343383226    9.5533602344
  15.7231830727    9.7023434299    7.0643250803
  11.1928850298    2.9579584493   17.0403517277
   4.1291791438    5.1897770359    6.2713476258
  -1.4233894166   17.3142099529    4.6119106023
   8.8165633686    7.3035204117    3.7533432433
   7.9716932432    6.8535767975   15.7213523634
  15.0982038904   13.1376346099    3.7532143860
   2.6992505464   13.7911349453    6.7672100483
   8.5948909435    7.7385618969   11.7479389370
  13.3101387359    7.3360160574    4.9973524100
  -1.0545095616    8.2442472873    3.2873278940
   0.1230995169    6.6436582814   12.3204085038
   8.1236772891   14.8412857337   17.9972464764
  10.6461411760    6.1891165191    1.6598214117
  13.0244549221    9.6678667322    3.1518072750
   8.9765033532   17.9954815273   13.0074024049
  16.2713621868    5.2430902085   11.2438993632
  15.5487511238    7.1388271145   12.7477438810
  -0.8537454652    5.4930534899    1.8643974406
   1.5889195741   11.3661129397   15.2107348277
  12.1997893233    1.1329734782   14.3082367351
   5.9345200114   11.0964642397    5.2434592170
   7.7558215778   18.8793732031    7.1334172302
   9.6017496122   11.8738820510    0.8975086946
   0.0258193687    9.9663245999   18.4095296479
   0.0126053161   19.3714527384   12.2570149150
   1.4486853443    2.5239714246   11.4677471944
  -1.0003534168   11.5002800268    0.2088723229
   9.0217340141   16.3338252097    4.9033164711
  -0.4858002369   13.1701076247   14.4646117244
   3.4839048044    9.7751022170    7.3889742530
