B2 C140 Ca1 F48 H298 O66 
1.0
1.8913184610463894e+01 -4.3951212098764235e-16 1.8161165803154173e-17 
-2.8713885090372249e+00 1.9849863049625775e+01 4.9310154333011791e-18 
-3.5457307636104551e-01 3.5172471997673246e-02 1.9391484222767907e+01 
B C Ca F H O 
2 140 1 48 298 66 
Cartesian
  10.6764031983    2.2794869218   16.7894847146
  -0.9074842398    5.4798645916   12.0102387039
  18.7697340612    0.2569172284    1.1733285633
   8.1670916797   14.4843723468    7.2841418735
   5.6119156867    6.7035798825    0.6981173520
  14.5322422549   13.0310840944   12.5491730764
   4.0979207964    1.9962462465   15.9654721246
   0.0191220303   19.8545667482   18.8933819350
   1.1480890960    3.1230884429    4.1180505341
   3.5085770237    0.1628387049   17.4961610294
  -0.2942498549    3.2248499775    5.9251322742
   4.1330985966    4.8397682649    0.5400651164
   2.6637582483   16.0038430815   17.8181927584
   1.3787828841    1.9518246477   18.5828234050
  12.8539100935   15.0671895533   15.3918172455
   4.6535979996   10.1247479589    0.3656470668
   6.1407598780   16.2876289838    8.8921078393
  14.3323765309   11.4857583230   15.8606404903
   9.2320185828   11.6562990884    6.7193841706
   9.8818638636   13.0893478655    6.6661767593
  14.0529330834   11.6518944942   14.3304121830
   4.5482659051    7.8315272710    0.5651338286
  12.2537661656   10.9718331414   16.9958531354
  11.3247605892   10.5214634069    6.7490065056
   0.1926744590    4.5171491320    6.6543736635
  -0.0239769077    6.7800120675    6.6489782425
   4.8666725935   18.2792364811    9.3882670489
   2.3506308674   16.1677549537    0.7643527177
  17.4715564786    0.7475540160    3.0421910476
   4.0143355352   18.9121919996   10.4228014391
   2.2923966869   15.0545395024    1.7351607527
  13.9069383646   16.3401096272   17.2610456351
   5.9706081037    1.1612030779   10.9721500305
   7.6138752090   13.1287922225    3.5913131253
  16.0324427396    0.6671420210    3.4690691826
   6.0327513752   13.7969860684    1.9837540884
   6.0294611511   14.4436027354    0.6412447161
  -0.8512068216   15.2242342107   11.4309183347
   3.2862564979   13.9459504253    3.5648396319
  14.3411737417   15.1614481438   18.2256345878
   5.6790115664   13.8726836655   17.7139746043
   4.5839173698   17.5611147232    4.3973677349
   4.6529070773   19.7310466617    3.3775517006
   7.0032168849    1.2818537648    3.4613016579
   5.1204213271    1.8366875579    2.2963377647
  -2.1109667122   17.1646641752   10.9182320214
   6.3655399392    1.1160486388    7.1823424079
  13.4462812594   14.4043004160    8.7451072872
  15.3232431801   17.3789019339   10.5852178313
   4.2387920635   15.3372660417   11.9841115809
  13.6554431007   18.2306313581    4.2960712214
   7.6339706622    2.5074158683   17.9253216061
   8.9239085472    4.5864133902   18.8236154624
   8.7773137251    3.5472439692   17.6764263539
   4.2401657092   15.7029754568   14.5719702379
  13.4256532752   18.2781666146   11.4695247033
  11.6425397515   15.5090288792    9.9783261639
   9.8657601697    2.3323249854   13.1229999931
  14.2339669821   15.4654109565    1.0616565967
  14.0560101499   12.8925869369    5.7014120978
  11.0589833514   14.8489873159   11.2104125729
   4.8147067519    2.7002011197    6.4861598624
   1.7853208983   12.5506870452   11.8455575472
   4.1916769274   17.2003104578   14.7037105817
   0.9151824787   17.8868325960    8.1733328682
  10.9929493903    2.2645720955   14.2269463431
  12.2109973353    3.1972057979   13.9713501049
   4.8508461290    4.2349848558    6.0906204662
   5.3037338458   19.0917349884   14.3033834281
  10.3556510153   12.6892051508   10.5438786004
  -0.8289432502   13.3307702472    8.4845618954
  16.9567584690   11.2348615173    7.8349796769
  -0.9403880836   17.4509675780    6.7588912311
  -0.9029367993   10.4088648864    7.0647184091
   6.4459575046    6.1517995815   14.6738145946
  15.1486735011   14.6055261480    4.5457665996
  -0.8267840604   18.5722243850    5.6534081498
   3.0694119008   12.5128613850    9.8753592558
  16.9191427390    9.9848789531    4.9774165598
   3.9195603204    6.3464259168    6.3395276911
  12.2542224389    1.3179934048   18.2778151148
   2.5670348399    4.7545513245   13.1963150606
   9.9248850590   19.7231949246   18.3030667484
  16.4524509666   14.5760588440    3.7510114390
   7.5497159764    6.5419207474   15.6260566260
   3.5136570379   13.4563488414    8.7022118888
   8.9077087558    7.4600928275    5.5784924557
   0.1099270636   18.9206015716    3.5427350044
   8.1082394840    7.9550141069   15.6537695252
  10.7941986697    7.3983050837    9.8307107918
   1.1231523480    6.1575693720    2.6956615390
  13.2458479793    2.3974915609   18.6228544757
   2.3211290619    4.9099039260   10.7726686572
   1.5060291856    4.6226652586   12.0192183723
  10.8518420147    5.0971548099    3.5181923869
   9.4779065039    5.5947442712    4.1473180298
   9.2958436788   15.7339158167   18.4879724558
   9.7395841940    7.8828230252   10.8775584362
  13.7037049047    8.0202926046    3.4726910660
   8.7146586408   17.9374482694   12.1785863205
  -0.7798691265   13.2864279064    2.8883449906
  14.7594630213    5.0626203792    5.5256125611
   8.2560330243    8.1586461345   10.4689771339
  14.7865714772    9.5933970816    2.1124155190
  12.4199678598    5.2111973633    1.7412739997
   2.6467990800   14.8469441456    6.9857625358
  13.8983017672    7.0817830000    4.6338866360
  17.7340260290    6.4146856097    2.8873459906
   9.0245117196   17.6078470143   14.5469384707
   9.5521670672   13.4785933576   18.0595662684
  16.3084168555    7.5982902332   14.3617132292
  17.4304999634    7.4407077992   13.3203970745
  16.9374584303    5.7215458035    1.8620271851
  15.6616529167    2.9193418663   11.4591745765
   9.3544317355   12.1724062516   18.9162446498
  16.0786101235    4.4135886822   11.0842442471
  10.4331194235   17.9322447117   14.7111899248
  15.6563669996    4.6526327641    9.6151333861
  -0.9770476227    8.6456994494   12.5614587293
  10.6636497134   18.8846934330    7.0205892246
   3.0144755801   10.5426606432   15.2006066385
  -1.3475131748   11.0093663929   19.1331285123
   1.0592819030   13.5085780389   15.3843242804
  16.7536783886   12.9560885003    0.1746926876
   4.8117210898   10.4022359723    6.5846442287
   6.0115885041    9.2746623150    3.6231951363
   9.9134890172   16.8074153125    4.7592903665
   9.1288460645   17.9217829978    5.5938355382
   1.9522512993   12.5635598230   16.2193541849
   2.8770250420    0.4484912648   13.1476331127
   1.4832021328    1.1364428178   12.8330906883
   1.1947588703   18.3854268480   12.6107587700
   0.5628910944    1.3803340632   10.6734488650
  10.3307713373   11.1355654334    1.5858394127
   2.4270047548   10.1375336612    6.3836631945
   6.0750515220    9.9379094714    6.0159063837
  12.2585416146   19.4630490954   14.6263016694
  -0.5108858954    8.1504954147   18.4971808947
  17.1497729392    4.1134949451    0.0445181594
  -0.9550599012   12.2820297803   15.2842757437
   0.2860507865   10.2037646228    0.1451794862
   9.6742724377   17.7958776176    2.5468910593
   9.6731229849    5.8831437042   13.6943552236
   7.5561091845    1.8268883741   16.7539445931
  10.1495709070    5.1540047445   18.7624932578
   9.4478376590    3.6377435149   12.9761374060
   7.9916399813    1.7072533812   19.0567825395
   9.2112832360    4.0693960518    0.6841153805
   6.5189754185    3.0340496461   18.2494370205
   7.9612353000    5.4825322905   18.8517856025
   8.7776234794    1.6627941338   13.4748303599
  12.5826582076    3.0474504252   12.7081831669
  10.3352631247    1.8352549415   11.9443159095
  13.2144685645    2.8783929720   14.8028639737
   5.4085981604    6.9458492937   14.6540663463
   5.9554564176    4.9443008470   14.9303704048
  11.9314155848    4.5842693579   14.0963944771
   6.9401846315    6.2753723884   13.3506926005
   3.7229610383    4.0447605808   12.9431120659
   8.9733310953   18.8083675802   17.9673429132
   3.0584112017    5.9743754458   13.4006506858
  11.8997794397    6.9215657119   10.4286483965
   1.3718892164    4.9753957946    9.7458426765
   8.7456439188    8.2501151023   14.4246898895
   9.0871720066    8.1934704219   16.7007805400
   2.0664222797    4.3273012003   14.4206243600
  11.1273488990    8.3721794376    8.9930639150
  10.9028233621   19.4841179445    0.1245208477
  14.3021983185    2.2935521332   17.8095678042
  10.9358452439   19.6278684869   17.3127347584
   3.0610302661    3.7162881383   10.2962896867
  10.2590743885    6.3907301406    9.0807083629
   7.4508463085    8.5631917469   11.5230210370
  14.0027627321    2.5156874371    0.4824963731
  12.5763265076    3.5784772636   18.2264257203
   7.1668642745    8.8762768797   15.8717754746
   3.1272613724    5.9866324728   10.7891064126
   7.6021987368    7.0215840675    9.9552391606
  16.5111989070    8.6938224553   15.0402782421
   8.0703092168    9.0886070169    9.4913302613
  14.4452830189    2.6460314374   10.9854027098
  14.9900079029    7.6822585267   13.7449638373
  16.3157910046    3.7824485505    8.8022498019
  16.4701730120    1.9647407227   10.9702145125
  16.1607037962    5.9383347752    9.4238897199
  16.0875013577    6.4615906727   15.1772835288
   0.1462439112    8.1851381934   11.9347040868
  15.6675929479    2.8172189873   12.8621151498
  -0.6608260531    9.6828705774   13.3847378942
  14.3233157819    4.7401950767    9.3502191681
  16.9825811231    9.0620182540   11.5981873507
  -0.7385240214   19.0022656178   18.8924062102
  15.1784043021   12.1601149532   16.1046357192
   1.1179160701    3.4669766644    3.0444040689
   6.4395915391    7.0234596516    1.3705422253
   5.5415957478   16.1843832847    7.9784970228
   9.1995557372   11.4376030440    7.7941786901
   5.6725688186    6.6302926055   18.9979676273
   4.3933347517    2.9564885230   16.0386037932
  17.5193071468    3.0727155246    5.9938054825
   0.6282999531    0.8074296834    1.7165819538
   2.3981243287   16.9829840178   17.3953594261
  18.2706382246    0.8780694975    0.3750129456
   7.9751008465   15.5101273499    7.6471429694
   0.8486015695    1.1900437602   17.9088084191
  -2.5138605984   19.2102747516    0.7538111553
  13.6197741437   12.4239970115   12.1608668423
   1.4878944536   19.3016495443   17.4441820223
   7.8292037335   14.3231875935    6.2056749323
  13.8271293031   15.0690179991   14.8875911293
   5.3591925568   11.0640582308    0.2557346849
  15.5212438077   12.5592002805   12.2939665982
   3.6799203243    4.0246500867    1.0933117482
   3.3269237872    5.5511559964    0.2823331041
  12.5703237084   10.0447319031   16.5204014683
  12.2058056462   10.3739385191    6.0529537482
   1.4361978814    2.0383631595    4.2999855704
   0.2141017344    2.2595564157    6.2290177601
  10.8956193301   12.9001764449    7.1133786770
   3.0958600347    1.9986931766   15.4356086830
   5.6488001096   18.9665633939    9.1312759851
  12.5654041685   14.1017407153   15.9825533537
  13.0554212917   11.4816506156   14.0673401077
   1.7447550751   15.3857837182   17.8233633574
   3.3763067205   15.4311676566   17.1760496736
  12.0665847360   15.2880694626   14.7185992523
   7.0941927340   16.8633464866    8.6212286233
   1.8725115288    2.6852131654   18.0454290037
   2.5855147836   17.0453277584    1.4139349926
  -0.7581728371    7.5843944162    6.4541841171
  14.4872018907   10.3891543836   16.1547093190
   1.9506032869    3.8186724881    4.5218487263
   6.4524352225   15.3099428500    9.2836449763
   8.3020672540   11.5875365815    6.2067810783
   4.4509624805   10.1016649735    1.3968384018
   7.6243274132   13.7473476656    7.8368589906
   3.6380843198   10.3541804951    0.0494721057
   4.1846041923    4.3904886142   19.0845213039
  14.6167039101   14.0524837803   12.2214895797
   1.1246143883   19.6577344750    0.3925869674
   4.9246455989    1.4408934641   15.2138865147
   0.6072859859    2.3666580654   19.1837980995
  -0.0975560871   19.8014514270   16.7368912052
  18.1658138266    0.5456172773    3.8955736338
  17.6899748910    1.7855714880    2.8118228231
  11.3456499951   11.3445958243   16.2641315424
   4.3374206151    8.2471059336    1.5936791122
   3.6138717183    7.6312327912    0.0544483699
   0.6790038437    7.1011500910    5.9471192287
   1.2863685237    4.5696396724    6.3364896304
   1.3035827770   16.4088188305    0.3152677225
  11.6517233151   11.0482319228    7.6351682695
   4.4973981431   18.9636392560   11.3449250723
  11.1592611455    9.5088152839    7.1847708474
  11.9722942690   11.0093676974   18.0301237810
   9.9128246196   13.4309711941    5.6222370570
  14.6404867740   10.9326977918   13.5801014168
   4.4054765423   18.1821417952    8.3627585113
   7.6644336130   14.1226288916    4.0937298965
   0.0867512618    4.2334252619    7.7185313210
   0.1384824306    6.9996059115    7.6614509517
   6.0013065217   14.4956593476    2.8330355053
   6.7581118826    1.6936908288   11.5575902358
   1.8935544198   13.9986019760    1.3785639203
  13.8291852325   17.2887581472   17.8194180199
  14.8801055724   16.4935999271   16.6677885028
   5.1047812412   15.0111113753    0.4581397253
  -1.5969246254   14.8749398124   12.1098132198
   8.5458264929   12.6480542947    3.8688496290
   5.3950465954    1.9438729505   10.5195719130
   3.0245173807   18.3542009905   10.6234414611
   5.3005973719   14.9491091712   17.7467399006
  -0.3380218804   14.3732443408   11.0241149483
  15.3416400251    0.6638932460    2.6595492612
  15.5931058027    1.5130707245    4.1488779053
   5.6299315509   17.4011314450    4.7044228175
   6.6785322099    1.4985213145    8.1318211325
   4.3324980434   19.2724905931    2.3966700610
   1.4833688796   15.4157244023    2.3416175278
   7.3518313406    1.7621036090    4.3684071531
   4.1040759468    1.6206078804    1.9972484203
  -2.3200288358   17.0324201203   12.0225961795
   2.6242104160   14.3733367843    4.2503167925
   2.7356720007   13.0406955163    3.2338197159
   6.8561944796   12.6766741386    4.2060749526
  14.5956937346   14.2640658264   17.7319417823
   5.2049787818    0.6510928454   11.5693387455
  15.3495388770   15.4836689138   18.6017385488
   5.1106471737   13.1154527115   17.1797168950
  12.8907589436   14.2988640209    7.8784962312
  14.9221959742   16.3550072806   10.1851752461
   5.3194342844   13.0274953159    1.9430218947
   3.4490755113   15.1157561526   11.2358094756
   4.4073873779   17.1758430718    3.3921294657
   5.0016170892   14.5333153300   11.9954673585
  13.4780766042   13.3606330460    9.1718332813
   5.6369209858    1.6596200268    1.3334689682
  -0.1184757463   15.8207463694   12.0508569045
   6.9674502570   15.0570319158    0.4866643967
   4.2733872855   13.7174117809    4.0115561105
   7.0457702976    0.6077772427    6.6002618264
   5.5264360522    0.4843705895    7.5024015600
   6.6885365534   13.9015408841   17.2246057175
   8.7819231129    3.9954615956   16.6317914720
  13.0256856047   18.5751991299   12.5038684324
   3.5247062262   15.1427831173   15.2927278323
   5.1834938570   15.1870459030   14.6778995900
  11.0081686355   15.1180673967    9.0772255818
   4.7927577067   16.3264776066   11.8046749038
   3.9641993086   17.1235168004    5.2320325636
   5.7331330614   19.7593484326    3.3243099761
  -1.4515703714   18.0387292431   10.6807218356
  14.4073702153   18.3195236022    5.1816061276
   7.4035515955    1.7811898115    2.5728950516
  14.2532918351   18.2926114528    3.3934162894
  13.0609796263   17.2536657666    4.3337213832
   5.1947609383    2.9628651237    2.3397418321
  14.4506252851   14.7356177646    8.3455603293
  15.2185158661   18.1800128545    9.7339867343
  11.5944427694   15.2259156543   12.1056793255
   1.2253693756   18.7759779162    8.7908454256
   0.9056153561   13.1255327911   12.2487304152
  14.1637944294   12.2942102353    6.6067605561
  13.7541837720   12.3439154064    4.8052579090
  13.4815808110   19.0395900956   10.6758423686
  13.6505258539   15.1304807248    1.7806089194
  15.3207479372   15.5313657603    1.1392785119
   1.5533225252   11.6249279730   11.2678675451
  12.8761403951   17.4009804086   11.1739294545
   2.7673306406   12.4322764997   12.4365750397
  13.3240818713   13.5942104580    5.9044629282
   3.9285732453    2.2841514877    5.9826391828
  11.4376518328   16.5896694194    9.9867120921
  -1.3763128921   14.1408574745    8.9026964099
  10.4639888984   11.6252507465   10.8798754158
   4.4877766791    2.4936494590    7.5367948593
  13.9112493444   16.5211671875    0.9230987011
   4.8033429867    4.3389908675    4.9825563922
   5.8078739143    4.6045637763    6.5587655326
  16.1653242938   11.6987726799    7.3399459011
   6.1943929461   19.4456720330   13.8207430486
   1.2719259307   18.0972428014    7.1460298570
   1.3980639509   16.8737131526    8.5046740781
  10.0457949022   15.2084819399   11.1730113026
   3.7816335607   17.4403695108   15.7142594136
   3.3413739246   17.4516668140   14.0381472600
  -0.9696592406   13.4394578078    7.4016094613
  -0.1886662517   10.9197546087    6.4108997867
  11.3282095714    1.2042611406   14.3150732889
  14.3108807613   14.3452767214    3.9285979562
   5.0864931097   19.5269718534   15.3389173200
  10.5324134873   12.4779246084    9.4610905679
  16.8064416974   11.0664138994    4.9913671567
   4.4537659145   19.3045647720   13.5000628506
  -0.0336695683   19.2358358895    6.0099945118
  -1.7597063776   19.1224804348    5.5121208174
   9.2325558590   12.9014069780   10.6108327548
   2.5334541520   11.5455518893    9.5560512575
   0.2994673566   13.2828270416    8.5913063494
  14.9932377751   15.5776294973    4.9904670786
   3.9168765307   12.2058238088   10.4634885961
  -0.3956530890   16.5258147590    6.4034378011
  11.5186923043    1.1664655807   19.0750275682
  16.3866549819   10.4802222412    8.3873988749
  -1.8830226437   17.0525778005    6.8521062911
  15.8741896598    9.6007051101    4.7736451387
   3.0494880926    6.8241760361    6.9118112990
   9.4580447060    8.0909141219    6.3081327905
   3.7087698473    6.6989190697    5.3520481328
  -0.2844621028    9.9030213409    7.7858843659
  -1.5934029053   14.9755576050    4.3680485348
   1.0484582128    5.8182662081    3.7835549224
  -1.4255087805    9.5967459261    4.1038378643
  -0.1156048639   18.4805069733    2.5064850743
   1.1836941379   19.1197112833    3.6488223283
   3.6639918214   14.4552437342    9.0186421996
   1.1752469941    5.3493150127    2.0079736379
  16.4311280428   15.3318179917    2.9227512554
   4.5857077945   13.1453301997    8.4051049069
  11.7489983626    5.0621578094    4.3371958048
   7.0174122455    6.5299396317   16.5911497100
   4.9058836224    6.7891533976    6.6837647678
   2.0812519860    6.7586484769    2.7495364569
   8.1990587272    7.9456152776    5.0003689162
  10.4879472108   15.7597117391   18.6142309050
  10.6480516356    4.0566423753    3.0657173191
   8.3800754682    6.7677739545    6.2196900548
   1.0810851901    3.6520101925   12.0114585647
   9.1223863257   18.9895155149   12.2627566359
  13.0991234291    8.9517350424    3.7120893953
   8.8460708099   16.3859359755   19.2520762704
  13.8177270728    4.6278090137    5.9078388774
  12.9602397333    7.5314196869    2.7363514069
   9.4381883170   17.2773091438   11.6420504323
   2.4973262350    0.0204459780    3.6276310420
  15.5918969906    9.4893077903    1.3081514305
  13.4228263319    5.4179047910    2.2589006575
   8.7577254912    5.8399812870    3.3468919220
  -0.1942775437   13.5767394089    3.7432785274
  14.8568480000   10.5643587760    2.6441292033
  12.1603032177    4.2181891588    1.7715827756
   9.0835447139   16.0709814857   17.5112051052
   9.1310689508    4.7007157985    4.7564613103
   7.7617977065   18.0620711187   11.5167385035
   2.2326921349   15.6678994110    7.6324122038
  -0.5480967515   14.0594121717    2.1809810368
  10.0806776874    8.8374733220   11.2724696623
  15.4061894250    5.5821498886    6.2489858673
  -0.4032968827   12.4485799611    2.2534817409
  17.0522194736    7.1989064542    3.3544579173
   3.6791677609   15.0682093539    6.7769496926
  15.2392626502    4.1218723048    5.1263428761
   8.4218023738   18.3730957674   15.1377317249
  -0.8722742444    5.6979911421    3.6596774900
  12.8771068723    6.8691501237    4.9434851123
  13.8021779946    9.6534791040    1.5470845614
   2.2173108895   14.8743514363    5.9676691448
  14.3289109679    7.6910750882    5.5298552529
  12.4576797845    5.6738243814    0.7135210129
   9.2678006880   13.2887612363   16.9855205016
  -0.5712233796    7.2529161209   13.9451273124
   9.3493803476   11.2458906743   18.2928473282
   9.0881356454   16.6268488538   15.1095656374
  10.6840315303   13.7862702233   18.0355468777
  16.1209177610    5.1215849576    2.4183011830
  11.0712737179   17.1464842344   14.2287201518
  16.4569076729    6.4455287308    1.1561997324
   8.7190987875   12.2506694107    0.0549543543
   3.3981526891   10.2733512008   16.1199245356
   0.3552456645   14.0815497131   16.2044624886
  10.9921455339   17.1164296034    4.6937788051
  13.1746098178    0.0819233254    6.8975324855
   4.9326001943   10.3364284067    7.6917903270
   6.4040510779    9.6248364480    2.6714944357
  11.3152329596   18.5521827558    7.9299578923
  16.9184807775   10.5590714715    0.1475580095
  -1.4799858035   10.7454183337   18.0576238157
  15.4261195023    5.0632249711   11.6458621445
  16.7821865997   14.0630382662    0.3355335596
  15.8069853788   12.7885718765   18.6124209137
   0.6800938165    0.3339614529   12.9322303753
   3.8604128709    1.0982924450   13.2790050685
   0.7839672305   17.6629602764   13.3481633669
  18.5525832618    1.0084306716   11.2027684557
  10.6335395911   17.9044250214   15.8263626486
   4.5810681371   11.4195865001    6.2277222457
  -1.7870934787   11.9448667280   14.5751863582
   9.2910825739   17.5195853342    1.5455176722
   2.3164879977   10.6095993877    7.4461359611
   2.0673714569   10.0189468992   14.8509625194
   9.3069400197   18.7348263455    4.9628904909
  17.3517699212    8.3292734646   18.2550491563
   1.6885296685   14.2377289465   14.7098219714
  10.8247763504   11.4801357662    2.5098518327
   2.3143399610   11.0886040499    5.7774063781
  15.3558243762    0.4314170878   13.9525761285
   6.4625940066    8.2498901865    3.7274764034
   2.5252940245   12.9097597837   17.1487295146
   2.1465989182   18.8521817521   12.9400393291
   1.0488363842    0.7471211424    9.9768436360
   9.7837834713   15.7574459162    5.1772637686
  -0.5416317410   11.3018446951   15.7794951464
  16.8105105410    3.0455165527    0.4015428363
   3.8774781854   10.2516599579   14.5416304822
  16.2092064260   12.6069210708    1.0123132880
  11.2762555777   18.6740466985    6.1359715351
   4.8396118463    9.2941379989    3.5049739009
  10.7547522421   10.1440701015    1.5044449341
  15.8231147783    4.5276402779   19.2028166657
   6.9192591101   10.3982979245    6.5514255696
  12.4631272225   19.6315398872   15.7284523378
  -0.1367761117    7.4253272588    0.0250178334
   9.2068763933   18.7529358054    2.6916749768
  -0.0575574322    7.7336400035   17.6478212221
   0.0103748652   19.8291509469   14.1324946043
   1.2665303575    1.8760930741   13.6343833935
   1.3475466547   17.7556999500   11.6648643927
   0.1748058842    2.2578979244   10.0375751451
   0.1586870997    9.7779206034    1.1235284241
  17.3961971687    4.1227307477   18.5125434113
   1.1446675839   10.9042768158    0.1726608917
   1.3198288780   11.7492083052   16.5359625642
  12.8662917872   18.5576829399   14.2518711908
  10.7801642730   18.1473784900    2.5339692375
   1.6581373119    9.3590424963    6.2614980132
   8.1376114502   17.6833751792    5.5211639717
   6.2577547239    8.8334873961    6.1452812548
   9.2425999234   11.0669696291    1.7383357044
  -1.3966349066   12.9781895158   16.0578909889
   4.8675714153    8.9070579555   19.2562654132
   9.5303352242   14.1098160611    7.5336059218
  14.4473634621   12.9848000864   14.0130123228
   4.1087354136    1.5612324371   17.2959232795
   2.6371356153    1.2224552215    0.0538240141
  -0.6968427910    5.5142497557    6.4069115845
   5.1076574264    5.4915978654    1.3244721973
  -0.1594735426    3.3994442120    4.5222828518
  10.2540034157   10.9135599915    6.0006036481
   5.3240465349   17.0278704441    9.8572072166
  14.7448424780   19.7121656305    1.9289112349
  13.2440844748   11.9561395868   16.6848205011
   3.0818574051   15.9427888033   19.2055912838
  12.6900919036   16.0898852942   16.4736602599
   6.4579941472    0.3096870701   10.0418775981
   3.3981533255   14.9611169536    2.5583444414
   7.3245288478   13.2006969598    2.2392747365
  12.6399407295   19.3478792893    4.2246377158
   5.6992242343   13.3640553711   19.0532625650
  -1.4319227584   16.0320394300   10.3762687882
   4.2789990861   18.9501240277    4.5702434510
   5.5536717999    1.2220451642    3.3993992309
  13.5163467004   14.7873679285   19.2987046807
   6.0088363894    2.2184488382    6.2359922630
  14.8016632762   17.9348918450   11.7127843705
  13.0815953426   15.4109515039    9.8047234030
   3.5411316467   15.3833909360   13.2615189645
   5.4280287490   17.6784217690   14.4435724848
  10.3569381794    2.5457171001   15.4019773033
   9.8542130367    2.6460273089   17.8388058880
  -0.4721104060   17.9309113321    8.0502097975
  11.1377002867   13.4764759577   11.4465305735
  15.2987509617   13.5764872578    5.6510230044
   2.1580234441   13.3183388582   10.6479569971
  -1.3140418611   12.0258552022    8.8599031857
  17.3595981072    9.4944625993    6.2177676315
  11.6740677536    1.3975687032   16.9806655496
   3.7316870203    4.9944389223    6.6341945753
  -0.3121777222   17.9488602233    4.4980716172
   9.9202214307    6.7813645739    4.8748752394
   8.7054886406    5.7776787770   15.5318864124
  16.8254508562   13.3351148249    3.1584910426
   2.5932946387   13.6173292517    7.6420850537
   9.7671522729    6.9405512200   11.9131760308
  14.5918202767    5.8695030546    4.3172705126
   0.0409365264    6.9773771729    2.2817399909
   0.4055524356    5.6199890250   12.2310566648
   8.7424394102   14.5072456494   18.6553479924
  11.3791264845    5.9165883903    2.4951234383
  14.8913810770    8.4337142001    2.9521764562
   8.2983615035   17.2604705243   13.4165222482
  17.4892649263    4.4801838767   11.2348583502
  17.0698311249    6.4307175299   12.4383361155
  17.7976836666    4.9257699049    1.0355673985
   2.9707025982   11.9476058792   15.2274030336
  10.8612003474   19.2657694645   14.2414284232
   6.3957744262   10.1969569627    4.6713330979
   9.5750397775   18.0037574455    6.8918432155
  10.6628522208   12.0098504556    0.5145741635
   0.3807255521    9.2606112585   18.5958046941
   0.2319150496   19.3359264848   12.1844404668
   1.4476948914    1.9416003488   11.6238172997
  -0.8518725814   12.3477468080    0.2179302395
   9.4085755877   16.7142841626    3.4182521513
   0.0139083667   12.8719546813   14.5392147505
   3.7078422387    9.5026429435    6.2450573252
