B2 C140 Ca1 F48 H298 O66 
1.0
1.8824032678391621e+01 5.6977821320348770e-16 -6.7490761629000283e-17 
-2.7009763961349171e+00 1.9704173058195952e+01 -2.9142214918884612e-18 
-9.6997467792318415e-01 -6.5964188940842369e-02 1.9273567515484807e+01 
B C Ca F H O 
2 140 1 48 298 66 
Cartesian
  10.2532519093    2.3132832337   16.5784157262
  -1.1872052801    5.3837765891   12.0310978048
  18.5122805790    0.3138364205    1.1945982637
   7.9509478193   14.4249478187    7.1493220577
   5.6517133998    6.7373185026    0.8797973168
  14.0115960184   13.2066473311   12.3901876525
   3.9504939223    1.6820211073   16.0239998474
   2.0214041222    0.0540139988   18.7510565031
   1.2027771733    2.5606916070    4.4263084315
   2.8104761841    0.0792325644   17.3887037112
  -0.4890858034    3.2668216008    5.9532032635
   4.2934753582    4.8805274902    0.5457274583
   2.0516794384   15.7198753915   17.7213993993
   1.0710448930    2.2602869800   18.4957360269
  12.0196898122   15.1332304507   15.6036948981
   4.5686085292   10.0716791873    0.1153742080
   6.3022040519   16.4167454552    9.1712874689
  13.9053414830   11.5686990542   15.8775365213
   9.2902870709   11.5407043897    6.5894511801
   9.8741532743   12.9783216278    6.4442775983
  13.8141992821   11.6210109007   14.2764812180
   4.4569199895    7.7649749289    0.6494438864
  11.9058116287   10.7091113706   16.9330366782
  11.2541530251   10.1565559523    6.5583397648
  -0.0145330522    4.3695414876    6.8461487724
  -0.0927697341    6.8489135483    6.7899399320
   4.7403066702   18.1185217758    9.3392324019
   2.5417467007   16.2405866917    0.7225459133
  17.0760379195    0.8759027141    2.9391151884
   3.7927593946   18.6832856092   10.3905414830
   2.2807358442   15.1718152721    1.7453623299
  13.4864498110   16.1759926268   17.1368895526
   5.9328745575    1.3486119187   11.0504145827
   7.6256090945   12.8609366062    3.7224820918
  15.7819416525    0.6308431958    3.4457660189
   6.2422105867   13.6838694297    1.9378454026
   6.2848496634   14.1241139344    0.4183338853
  -1.2406891438   15.0413846492   11.5124924154
   3.3485984878   13.6035667477    3.1963079635
  13.6407374032   14.9637390771   18.0478975979
   5.2343836232   13.1481037576   17.4639332414
   4.6016697738   17.2813261482    4.2477071177
   4.6693081415   19.5793549219    3.3961705748
   6.6685199954    1.1903967451    3.4696931939
   4.8988644435    2.2801419273    2.3938642244
  -2.1836200536   17.1380611973   10.9309764774
   6.3196101868    0.8442348205    7.0454233155
  12.9826624876   14.0766281692    8.5344182061
  15.1260842470   17.1625661636   10.7325119940
   3.7044893555   15.4789659486   11.9925361078
  13.4807571990   18.0202300874    4.0678720337
   7.1442989683    2.2274924078   17.7758083515
   8.4264268184    4.4118730015   18.6989404629
   8.2893238490    3.2224749303   17.6381867487
   3.8827251988   15.3742447251   14.3715376876
  12.9830799847   17.8337630691   11.4123361772
  11.2657179594   15.2072963571    9.9432435884
   9.4617664988    2.3642598737   13.0786736728
  14.0261466834   15.8928732766    0.8835295984
  13.8401842816   12.8086604465    5.4130919684
  10.5711359514   14.5789811452   11.1292102439
   4.7932781802    2.7581881062    6.5703345830
   1.3415924630   12.6342400311   11.6109420262
   4.0629803767   16.8728649660   14.6957520536
   1.0883703083   18.2091463599    7.9170297743
  10.4910933780    2.2949306545   14.2284935845
  11.7149460840    3.1747209409   13.9427522541
   4.9742333159    4.0346996881    5.9310514547
   5.3090314497   18.7516303768   14.1034018079
   9.9236713423   12.6882699311   10.0289970200
  -0.6488049058   13.2127297692    8.5125821468
  16.6533893864   11.5591658472    7.8532390229
  -0.6953719218   16.9209088359    6.6918948164
  -1.1511007118   10.7287532311    7.1243819330
   5.9832944557    6.0939108584   14.6573993153
  14.9914853973   14.4628240500    4.1326878932
  -0.8697644821   17.9925532181    5.6027193721
   2.6772400103   12.6036145722    9.5551602190
  16.6817910082    9.8398016041    5.0360321296
   3.9403224677    6.0980113208    6.2704880106
  11.7161792484    1.1252053767   18.1460660916
   2.2322721846    4.6213066156   13.1204372413
   9.6517548669   19.3930878933   18.4011991863
  16.5656086237   14.3592416484    3.9377260649
   7.0992082912    6.4637293276   15.6420827174
   3.2205827385   13.6612724069    8.5280611593
   8.8966365934    7.5538281796    5.3443563262
   0.2732025179   18.5533524958    3.6517175511
   7.5875762328    7.9202737360   15.5507622082
  10.2784722976    7.3119113666    9.7912710967
   1.2135257550    6.2174574254    2.6312988088
  12.7377005531    2.2512789185   18.4335046990
   1.9642927853    4.9975057409   10.5754621035
   1.1839396519    4.6615225695   11.9484243574
  10.7696109811    4.9372758948    3.5200768733
   9.6018363302    5.6997961298    4.2186047122
   8.7676609980   15.5858538043   18.0561902833
   9.4149551797    7.7693988850   11.0167482398
  13.3458928277    8.1246252586    3.4716713990
   8.6657500866   17.9926998771   12.2347928438
  -0.5258727548   12.8137899437    3.2421749356
  14.5759266364    5.3269684985    5.5205851857
   7.9841100071    8.0414915353   10.5766912577
  14.5801697130    9.7500872678    2.0426410803
  12.2202562823    5.3106502998    1.7339885771
   2.4387700402   14.6884148435    6.5150799095
  13.5600616194    7.3331838389    4.7084112703
  -1.0156102603    6.6185524105    2.7982292320
   8.9438937875   17.5620878228   14.5910131897
   9.0741347262   13.2174060128   17.9295178829
  15.7831636960    7.5912316272   14.2546145755
  17.0453547249    7.3916925769   13.3200570183
  17.0173054069    5.6856113178    1.7541388465
  15.3888696716    2.7981973137   11.1970002095
   8.6813178023   11.8542172760   18.5222468567
  15.8463473964    4.2069957143   11.0169712241
  10.4731608219   17.6449054174   14.3437675215
  15.3954719966    4.6366789338    9.6092101026
  -1.4570181679    8.6669643967   12.5213513052
  10.5650803471   18.8751719013    6.9970138526
   2.5899802705   10.0425304984   15.4657154186
  -1.9158074900   10.8939644984   18.9794742199
   0.5303771788   12.9195396450   15.2090622693
  16.6140461454   12.8192605078    0.0046424302
   4.6744175754   10.2132649002    6.5445303093
   5.8303031158    9.1690336985    3.7956083188
   9.9346917337   16.5863849188    4.7990743065
   9.0541145822   17.7305449778    5.4384969473
   1.5555128422   12.1410274282   16.0920185381
   2.4107880749    0.6056978735   12.9168553794
   1.0963244274    0.8850191279   12.5514475553
   0.8053369234   18.1793100062   12.6616765995
   0.5801062401    1.0141745763   10.2045523349
   9.8748653571   10.7898135523    1.3826252914
   2.3453900174    9.8445868215    6.4010645396
   5.9375018401    9.6127788847    6.1891125459
  11.9953201861   19.3438457216   14.7260381655
  -1.2315831332    8.2941895629   18.3800375715
  17.2707490804    3.9593624624    0.1583105912
  -1.5648046105   11.8183702077   15.0989187665
   0.3379720596   10.3404836063    0.1236199711
   9.7108678247   17.0903780863    2.5025108070
   9.3687631224    5.8030937740   13.6258083644
   6.8047586903    1.6771469223   16.6046437679
   9.4993609553    5.2088335369   18.6128739713
   9.0535724573    3.5816310898   12.5544822660
   7.4299367465    1.2961802637   18.7211523290
   9.3629969671    4.0682681648    0.7059727196
   6.1053687317    2.9062200142   18.3015564510
   7.2803076961    5.2989598371   18.7621257877
   8.3293449182    1.7823285670   13.4527609029
  12.1509589637    3.2103818052   12.7150904551
   9.9575827093    1.6546120685   12.0262026207
  12.7261957651    2.8609908310   14.6882146889
   4.8826449337    6.9135532965   14.9133042511
   5.6460151997    4.8160836230   14.8249216103
  11.3243292824    4.5530929466   14.2155967503
   6.3646359330    6.3330940657   13.3062184077
   3.2390404695    3.8061060753   12.8279523071
   8.8805813662   18.4193604364   18.0443563688
   2.7677325409    5.8404484563   13.3508908397
  11.4234083444    6.8060806266   10.3659294549
   1.1380696697    5.0133784314    9.5333347772
   8.0798326295    8.1237199799   14.2198497743
   8.5814796363    8.1725545170   16.4329711388
   1.6280478610    4.2700800173   14.4026949346
  10.6284411284    8.2910647195    8.8950503784
  10.9746850174   19.2243203468    0.4509928925
  13.9014995658    2.3162364615   17.7831066135
  10.8406944399   19.1963242700   17.6981232348
   2.7184089617    3.9067910305   10.3009692645
   9.6412408450    6.4030413005    9.0852488766
   7.2198986514    8.3405161560   11.6720829447
  13.8667319246    2.2113212428    0.4856558028
  12.2423574060    3.5813813000   18.1186641093
   6.7564793908    8.9156518662   15.7077106479
   2.5802709652    6.2059079818   10.4940600403
   7.4784081889    6.8626374691    9.9150936408
  15.6613346781    8.6737178031   15.0087688795
   7.8280027308    9.0662488124    9.6523839673
  14.0628955221    2.7221312107   11.1314698504
  14.5724900520    7.5272568965   13.4470085665
  15.9608583109    3.9014529540    8.6301716525
  15.8383178050    1.8284893710   10.4309032821
  15.6995346294    5.9370056547    9.3039202149
  15.6314548254    6.5109227785   15.1272646919
  -0.3948957038    8.5337945071   11.6513065279
  15.6458673585    2.5072774347   12.6067032825
  -0.9949798640    9.6749550599   13.4067644375
  14.0653239997    4.6449751653    9.6130664282
  16.1989794983    9.1193431066   11.9001782702
  -1.6091147146   19.1886985917   18.5703828293
  14.5618936218   12.4453935992   16.1531433203
   1.4068514278    2.5109895465    3.3340889558
   6.3351578812    7.2499618271    1.5709991403
   6.3948411838   16.2637528998    8.0672287555
   9.4724697812   11.3515476914    7.6351694935
   5.0051417274    6.4286975169   19.1235702440
   4.4071251091    2.6869904767   16.2224085027
  17.2416039324    3.1833545528    5.8322680573
   0.3691625772    0.9328442549    1.6934140939
   1.8509447830   16.8268446567   17.4563872150
  18.2720637087    0.7800472712    0.1877894201
   8.0336347173   15.4436107527    7.4544575664
   0.2926271652    1.8532395006   17.8863454152
  -2.4839892496   19.1146565182    1.0444112642
  13.1243565404   12.9207661224   11.8552660875
   0.7081813113   18.8331484077   17.5755780003
   7.7653207321   14.3210166213    6.0568694505
  13.0821395175   14.7844695432   15.2745765209
   4.2432754224   10.8161851885   18.9494428194
  14.8304859767   12.6267587914   11.9605395972
   4.0485423759    3.8451105538    0.8597960217
   3.3482725651    5.3955775158    0.5426155227
  12.3366712292   10.2146022226   17.8250552627
  12.0603101552    9.6931153469    5.9214666228
   1.1471366012    1.4580417332    4.8318476942
  -0.1282810027    2.2589343091    6.3738873725
  10.9553540771   12.9937964116    6.7248308989
   3.1811895264    1.8598710239   15.2815075634
   5.6154118244   18.6880106139    9.1903251421
  11.3250369846   14.4167338137   15.9785165652
  12.8485158929   11.3003523527   14.0600123475
   1.1390158201   15.1185022253   17.4379308402
   2.9878966763   15.4334984735   17.2463141156
  11.5239493910   15.5517463571   14.7173626859
   7.0441179713   17.2245453761    9.4598357274
   1.8140735193    2.6696145355   17.8385072975
   3.0957598022   17.0180047826    1.2308549619
  -0.6650994165    7.6198381131    6.2640203852
  14.2917439688   10.5643607229   16.1189617452
   2.0083186764    3.1278277991    4.9045430260
   6.6785783688   15.5193728502    9.6475725068
   8.2056291503   11.3581940585    6.3344956631
   4.2207523258   10.5175589828    1.0783569012
   7.1329147031   13.8678375222    7.6048095307
   2.5883894530    9.9103968110   18.9048408789
   3.6195312013    4.7147726460   18.7568114009
  14.1583215869   14.2783516520   12.3125371573
   0.9235342148   19.3561762553    0.2261793970
   4.7694636248    0.9711902480   15.4947016787
   0.5784268129    2.9387990041   19.1110663077
  -0.5937819483   19.6355075659   16.6092933092
  17.7370486767    0.7791252958    3.8624310673
  17.0123602300    1.9304150978    2.6969715997
  11.9372165715    9.9165259245   16.0579647969
   3.8418543086    7.9204078259    1.6129036974
   2.8303259304    7.3889681833   19.1499838812
   0.8582353859    6.8777242404    6.2616777695
   1.0292141986    4.5522705382    6.6136697985
   1.5762332413   16.6164439938    0.2388771007
  11.6956023109   10.9526598018    7.2181673162
   4.3092948565   18.7155545613   11.3222674151
  11.0670565308    9.3462001918    7.2640719919
  10.9758536990   11.2500078233   17.0608355727
   9.7525094454   13.5241314067    5.4666677253
  14.7186059343   10.8672157612   13.9552747273
   4.1257124365   18.2261777509    8.4224049702
   7.9323334042   13.7395629001    4.2520947186
  -0.0834001763    4.0072493166    7.9112213937
  -0.0400726039    7.1706687783    7.8648333744
   6.1256334368   14.5895882436    2.6002629690
   6.8644725726    1.7185375587   11.4923949906
   1.9429422987   14.1724985899    1.1865484559
  13.5928272864   17.1218050735   17.7651270816
  14.4035332037   16.0343194367   16.4699235171
   5.5214439643   14.8932806134    0.3566838584
  -1.9381164834   14.9006190628   12.2726218494
   8.3826786062   12.1671417081    3.9396487567
   5.5555279014    2.2611420056   10.6466746025
   2.8748645178   18.1118202002   10.6138156892
   4.2665568320   13.2963677494   16.9380566042
  -0.9356305029   14.1027610244   11.0552765469
  15.0499057949    0.3359115282    2.6960917850
  15.3228085380    1.5878073807    4.0015955899
   5.5943618618   17.1123557826    3.7408814281
   5.8818052226    0.9089293019    8.0083018440
   4.3810356351   19.0701711769    2.4251276685
   1.4824579559   15.3982409229    2.4369708500
   6.7237142298    1.5108415037    4.4872248290
   3.8026303461    2.3433372694    2.2244253125
  -1.8423117293   17.2410869290   11.9672996862
   2.3767254340   13.4440223989    3.5224377031
   3.5872976427   12.7454054304    2.4272857789
   6.7178815249   12.5265241783    4.2316005948
  13.6215129945   14.0845426517   17.4339464702
   5.1997256749    1.2680785532   11.8251930387
  14.6595434629   15.1130526335   18.4431579073
   5.7561886523   12.3119150146   16.9687035173
  12.2271356587   13.6884399641    7.8377217560
  14.6316591255   16.1054285409   10.6069679155
   5.4371163805   12.9300793586    1.9869348823
   3.1394721335   14.8937393127   11.3115416260
   3.8095360755   16.8120841780    3.6677118384
   4.7911868625   15.3606230605   11.9977586548
  13.5720877314   13.0896893338    8.6919308377
   5.2724279228    2.3826865467    1.3657755879
  -0.2847976483   15.4792836761   11.9107507068
   7.3081171123   14.5812530572    0.2179843200
   4.0343505661   13.5952018392    4.0728101743
   7.3767820913    0.5738148357    7.0866977772
   3.1068511167   19.5895101151    6.6781493886
   5.8231207518   14.0052889588   17.2880614864
   8.1676469502    3.7855565229   16.6042727554
  12.4176769658   18.6028962667   11.9739095824
   3.4416580869   14.6838180037   15.0415191882
   4.9605398530   14.9819220240   14.3268338493
  10.5809924663   15.1706566132    9.0237345318
   3.5994629016   16.5811460256   11.8450673722
   4.7579822217   16.8524352638    5.2764040524
   5.7707383615   19.5676128851    3.1559463357
  -1.7081398151   17.8953911641   10.3008740022
  14.3058663740   17.7170285740    4.7575236489
   7.1491002171    1.8046988193    2.6745185515
  13.9615749022   18.1292263776    3.0091174047
  12.7915141026   17.1762313721    4.0215149627
   5.1220202976    3.2486796809    2.8346309835
  13.5284350138   14.8779924374    7.9372311300
  15.0775323533   17.6490925149    9.6736801459
  11.0032730317   14.8512591802   12.0833629502
   0.8311772487   19.0990402955    8.4873986173
   1.1904443577   13.4447127491   12.3355553701
  13.8339910082   12.3875551392    6.3733606354
  14.0782565505   12.0036099143    4.6629037325
  12.7997201061   18.0117607585   10.2949595593
  13.2199162228   15.7635372134    1.6993400586
  15.0382815449   15.7091631411    1.2382147384
   0.3014836460   12.1836873885   11.3978726431
  12.5450254056   16.8723820242   11.6231198275
   2.2411655188   11.8975390523   11.7647341798
  12.8980037844   13.1643365478    5.0955479011
   3.9496460381    2.2430424887    6.1987085340
  11.5336132347   16.2749536291   10.0477108424
  -1.1607076058   14.2358260968    8.5350982103
   9.5508452184   11.6047886017   10.2198565733
   4.6679060314    2.6342036055    7.6930648972
  14.0041479434   16.9847789324    0.5611568494
   4.9129444884    3.8887352112    4.8563172555
   5.8960457488    4.4932691950    6.3035848271
  16.0565872178   12.2236362040    7.2864135988
   6.0137175321   19.0457182440   13.3257991130
   1.3815867587   18.6158722383    6.8733125725
   1.9714018036   17.5779813081    8.2378132927
   9.5026222067   14.8791322433   11.3075862529
   4.1942280356   16.8801913853   15.7748842733
   3.1491223494   17.4260705120   14.4077242228
  -0.3700390169   13.0880892976    7.4825997572
  -0.5031177203   11.3283609105    6.4619297241
  11.0236174229    1.2959695663   14.4781921695
  14.5347951547   14.0285015569    3.2176067945
   5.7943423174   18.9515699054   15.1414564511
  10.4688956201   12.4383561041    9.0438863412
  16.8175207670   10.8483837490    4.8573448933
   4.4067630841   19.3585902835   13.9013494210
  -0.5235420180   18.9258878511    5.9824539701
  -1.9395022413   18.0739609972    5.3867654271
   9.0224597301   13.2021556454    9.7783679208
   2.2341970781   11.7495044689    8.9582942409
   0.2091174393   13.2047149914    9.0789655142
  14.7336072553   15.4500573181    4.3689107190
   3.5270264606   12.1811249852   10.1394005816
  -0.3220094528   15.9638084541    6.2549847157
  10.8593713192    1.0575103557   18.9156163457
  15.8818799317   10.7555791850    8.0736839428
  -1.6446862211   16.5424176172    7.0057944929
  15.5910357351    9.5638306994    4.8918913932
   3.3290189972    6.7829245812    6.8770435726
   9.3005794258    8.3928917479    5.8614342765
   3.6931478142    6.4801799146    5.2283373005
  -0.5452563490   10.2937034708    7.8928621081
  -1.7448281221   14.6614480512    4.8825754910
   1.4366871958    6.1402559946    3.7095908724
  17.2227705927    9.2093044114    4.2988320024
   0.3424122508   18.3379840660    2.5996140738
   1.2871581303   18.7295668233    3.9188633326
   3.1145265345   14.6208815287    8.9648652553
   1.1249251378    5.2028809945    2.1721144139
  -2.0156130718   15.2330569940    3.2614003445
   4.2408401441   13.3864359334    8.2320067521
  11.6090606546    4.8091411582    4.2949859524
   6.5263762343    6.4265324335   16.5889858412
   5.0576052651    6.3527170094    6.5291448208
   2.1884181582    6.5631130100    2.2355185471
   8.2171808655    7.7957681810    4.6254090545
   9.2868650752   16.1683643859   18.8981371662
  10.3989651263    3.9727169710    3.1598727580
   8.3242527922    7.0400060829    6.1228088900
   0.8924753524    3.6895894973   11.6855384975
   8.6176968739   19.1217639961   12.2526495695
  12.6238390683    9.0026107893    3.6585874317
   7.8524554958   16.1990698923   17.8724923315
  13.6286855851    4.8609912972    5.8204522080
  12.8129661676    7.7123392441    2.6506131632
   9.7267243320   17.5826610810   12.0334330780
  -0.2395245515   19.5833421699    3.7299565003
  15.2137050191    9.5304314596    1.1361924729
  13.1198269778    5.3306898790    2.4389371540
   8.8910684285    5.9527004357    3.4152138535
   0.0474902965   12.9117658428    4.1627175770
  14.9602607703   10.7111346993    2.4959661818
  11.9857947931    4.3154623462    1.3513462782
   9.5027495743   15.5590748268   17.2397496057
   9.1647417189    4.9566340205    4.9041453803
   8.0573203246   17.5912797855   11.4126453711
   2.2514265084   15.6630265293    7.0942903910
  -0.0674156869   13.5182623391    2.5160442135
   9.8195177350    8.7721439246   11.2904177458
  14.9866414807    5.8281693858    6.3063598392
  -0.3923883611   11.8290773415    2.8223852537
  17.1472388707    7.4274506762    2.7640359637
   3.3551064636   14.7815435442    5.9098272883
  15.2821419964    4.5552099708    5.1918861345
   8.7514272989   18.5323220356   15.1346660624
  -0.8795337318    6.2080744709    3.8465368940
  12.5845825497    7.0278158468    5.1462932162
  13.5343457225   10.0300471951    1.7255593795
   1.6699192988   14.5718800128    5.8267028855
  13.9207659512    7.9089037066    5.6115159639
  12.3527535160    5.9910753351    0.8670632272
   8.9342714551   13.1992568994   16.8317419506
  -0.9611942964    7.4471598396   14.0974746787
   8.9832060016   11.0030432528   17.8033182225
   8.5726647521   16.8076506324   15.2898127407
  10.1780302399   13.4854043734   18.1956066851
  16.2963793258    5.1992051198    2.3869840802
  10.8092079295   17.2002403255   13.4026732167
  16.6953390633    6.4354219427    0.9817781484
   7.5490152693   11.7619863552   18.5312803990
   2.1480030749    9.6413579986   16.2908368975
  -0.1080395159   13.5913009171   15.8904651323
  10.9537121887   16.9309684507    4.6223765744
  12.9406691344    0.1744825287    6.8992912180
   4.4879472001   10.2915592588    7.6368124179
   6.2899462767    9.5795941312    2.8351249846
  10.8151792958   18.6083482689    8.0425801524
  16.9470314906   10.5109521715    0.0926507506
  -2.0744125917   10.8438023947   17.8889961120
  15.1808867004    4.6675930749   11.6916244145
  16.7455224812   13.8356015926    0.3278552499
  15.2711741084   12.6921484814   18.2113807711
  -2.2560788477   19.5538419165   12.3894040011
   3.0115778530    1.5473736478   13.0363232561
   0.1157535114   17.8294148395   13.5412571311
  -0.5161826624    0.6212023379   10.3227366378
  11.0226465803   17.1726933653   15.1487843246
   4.6482013276   11.2020275436    5.9842609296
  16.4974300578   11.4906965191   14.4605861853
   9.3130721425   16.5991949596    1.5545437935
   2.0006433313    9.7549414200    7.4877801256
   2.1423693553    9.6122683984   14.5626798469
   9.2627116925   18.6064684171    4.7604646966
  -1.7593742928    8.3699839438   17.4252359742
   1.1490936254   13.6310007285   14.5403934832
  10.2746964613   10.8376614929    2.3591955346
   2.2441388917   10.8869563930    6.1751414967
  15.1697971251    0.1653907545   13.9167432099
   6.1961144826    8.0917232354    3.7766384892
   2.0717278644   12.8775975872   16.7477753572
   1.8266488353   18.3488699533   13.1003972525
   1.2897078313    0.2709840268    9.9179245584
   9.9703700647   15.7364570012    5.5303810250
  -1.4706200460   10.9220908329   15.8219872722
  16.4419162483    3.1321085211    0.4563619265
   3.6576837606    9.7418047065   15.4359554354
  15.9766391444   12.3429292057    0.7579129209
  11.4506043648   18.7192124327    6.2591226600
   4.7428015127    9.4056811208    3.6127041173
  10.1585338186    9.8270108571    0.8950631104
  15.6100839364    4.5231042239   18.9178992491
   6.7705548660    9.9665898335    6.8378973310
  14.4987842744    0.2577690774   15.6478101533
  -1.9602371075    8.4486239614   19.2320632051
   9.2276427584   17.9919429452    2.6451554140
  -0.8232955577    7.3317022568   18.4368013678
   2.4603835884    0.1981069387   13.9506376893
   0.5881522720    1.3989835803   13.3454204370
   0.8856960203   17.2594845946   12.0098137971
   0.6458035975    1.8329364316    9.5000585563
   0.3098735576    9.8626013904    1.0778358612
  17.0979429353    3.3845525988   18.8951324925
   1.1730796539   11.0481608824    0.0782461441
   1.1363507002   11.4133522076   16.7663292187
  12.6017853619   18.3589700760   15.0212191378
  10.7821526362   17.4052687351    2.3732187277
   1.6788191574    9.1471053615    5.9405419434
   8.0408169183   17.4243815888    5.3178761081
   5.8497301651    8.4777626463    6.2485266591
   8.7502872768   10.8148427386    1.5017276695
  -1.8810098694   12.6988434819   15.7393082047
   5.2157393217    8.8683588944    0.2794559925
   9.2604068586   13.7961866273    7.4623673984
  13.8689309244   12.9587912829   13.8358754590
   3.5610550690    1.3377860356   17.3250610297
   2.5311892986    1.3089800470    0.1018182114
  -0.7810623068    5.5481310300    6.6187407428
   5.3026977490    5.4171320275    1.3920827043
  -0.0674651555    3.2363810651    4.6009238827
  10.1837547154   10.6736098595    5.8088742690
   5.0574093237   16.8037911494    9.6905029327
  14.5865739441   19.6911168081    1.8931032669
  12.7239638092   11.8548970465   16.7295774159
   2.5274929345   15.7518703014   19.0291751117
  12.2326189631   16.2715570053   16.3984074504
   6.2070637143    0.3152599544   10.0443363730
   3.4105148864   14.9224894552    2.5380124443
   7.4093852554   12.9820384041    2.3366182291
  12.9323758407   19.3556075351    4.4691830121
   5.0810462174   12.8661700672   18.8645008500
  -1.7291139210   15.8583641214   10.4563643155
   4.2881093308   18.6418019831    4.4937194359
   5.2389406389    1.1084744548    3.0374797100
  12.7342804279   14.8883305921   19.1702640006
   5.9642598067    1.9992901333    6.1494628908
  14.3946493122   17.7280665806   11.6986778821
  12.5276869466   14.6050346078    9.7339492489
   3.1102027627   15.1126989565   13.2313567310
   5.1447251529   17.3688817590   13.9937175614
  10.0049827023    2.7575232983   15.3982669390
   9.5809126036    2.5691631567   17.7155106370
  -0.0074748516   17.3334958020    7.9114393302
  10.7261964009   13.1544820842   11.0220086985
  14.7783687412   13.7886021694    5.3694819579
   1.8740361994   13.4146063031   10.4239743172
  -1.4957332533   12.1947256617    8.9556260485
  17.1180017127    9.7026305626    6.3961555293
  11.2528706458    1.2364261266   16.8834858362
   3.7379478972    4.7486181417    6.3675969522
  -0.3872356167   17.4911542065    4.3276496314
  10.0821668908    6.9037498946    4.8187248290
   7.9656115880    5.4114086571   15.4459044236
  -1.8820560724   13.1105531783    3.4413166620
   2.4392687408   13.5907431609    7.3711800360
   9.5378484283    6.8762882556   12.0005216036
  14.1894302578    6.1315910420    4.3661632361
   0.1702521645    7.1305829201    2.3650941736
   0.1802316131    5.5775653489   12.2772038921
   8.3152940765   14.3327269873   18.5008042402
  11.0563676029    5.7698863590    2.4858527851
  14.5768492124    8.6010497298    2.9153747874
   8.1707463951   17.3481469101   13.4506633283
  17.2068250116    4.3433308202   11.2111251622
  16.7316193388    6.3414014092   12.4275644220
  17.7705761834    4.6194022891    1.2216496707
   2.5481311204   11.4419681965   15.2861875188
  10.6761222007   19.0439538728   14.3679117748
   6.3952818541    9.9556906740    4.8296977580
   9.4433499783   17.8989570734    6.7429831249
  10.2572136340   11.8839153792    0.5311718143
  -0.1601901126    9.2572660725   18.3809919335
   0.2465862167   19.2587864128   11.9223432565
   0.9982575709    1.6360373848   11.3593117552
  -1.8588491083   12.3111152854   19.2621100726
   9.3854562275   16.2076182826    3.5679802457
  -0.4290920516   12.1031773780   14.4095609905
   3.6576649399    9.3350735926    6.0746470211
