B2 C140 Ca1 F48 H298 O66 
1.0
1.8621365226226015e+01 -5.5586560331725349e-16 -4.1640926827660874e-16 
-2.4779325376047847e+00 1.9869401489202907e+01 1.3287871840420098e-17 
-1.1695732630564597e+00 -1.8673094745039392e-01 1.9523308300714870e+01 
B C Ca F H O 
2 140 1 48 298 66 
Cartesian
   9.9723371883    2.0970910350   16.9365121870
  -1.2396132216    5.5325327224   12.1478664532
  18.2776506621    0.0818623184    1.4164117024
   7.7943878645   14.2638690849    6.5028274845
   5.7641197105    6.6050724981    1.0561611367
  14.1638968709   13.2524825022   12.6615984364
   3.7154322788    1.4714823665   16.2816262647
   1.6540725879    0.1369253410   19.0503137846
   1.2848460056    2.5213503506    5.1395220188
   2.1867875304    0.1568516810   17.6386380251
  17.8448635286    3.2128678013    5.9749192901
   4.0847491843    5.0153990523    0.1290426468
   1.5182985994   15.4452803764   18.1562225277
   0.5644151301    2.1710563284   18.6483280971
  11.8593418840   15.1509661021   15.7260722148
   4.2337025160    9.9811541145    0.3588090590
   6.3265581543   16.6677189489    9.4455658900
  13.4028556705   11.7208486400   15.9943441532
   9.3560744065   11.5991683619    6.3757079244
   9.8862298875   12.9857013144    6.1744773125
  13.3871580095   11.8575653024   14.4348288938
   4.8563879183    7.8673438398    1.0837633912
  11.6884750511   10.7262489496   17.2578031920
  11.5032223888   10.4952224311    6.8839433429
  -0.2044261750    4.2328064514    6.9096762054
   0.0551453048    6.6535664806    6.7626187346
   4.6919870398   18.4836136701    9.4894208871
   2.5095652749   16.3207291681    0.8313724230
  16.7719210115    1.2565838738    2.9742580042
   3.8142614936   19.0099721991   10.5944287969
   2.2244486175   15.0141492488    1.6305060210
  13.3467993079   16.2977732934   17.2719123291
   5.7827998507    1.2644398109   11.4627581754
   7.6534294464   13.0977058834    3.5397578938
  15.4505466250    0.8870623034    3.5816611584
   6.6062537166   14.0546716997    1.6393791552
   6.7152222807   14.1480703163    0.1028270928
  -1.8269107182   14.9430086257   12.0004890812
   3.2473918211   13.3288228492    2.8192562176
  13.2459958443   15.3391461738   18.4044609578
   5.1415031121   12.4884985797   17.7559248979
   5.0265870145   17.4992915458    4.1302270315
   4.6682900174   19.5468050846    2.9740679972
   6.5534262249    1.0361261934    2.9098641230
   4.7207544179    2.3643048102    2.5857819787
  -2.2235818106   17.1539773051   11.1731292773
   5.9494285582    0.6215673710    6.4288669737
  12.7138371381   14.3630779163    8.4113130630
  14.8659317296   17.1331669370   10.7629222587
   3.3149366776   15.7544498758   12.2783506507
  13.3265478963   18.2345284473    3.6899576365
   7.0019619566    2.1454325130   18.0095445201
   8.1509152995    4.1063042907   19.1373078920
   8.0917138428    3.1653296386   18.0604983760
   3.8532731449   15.2036851285   14.6933849589
  12.8914615817   17.9171823441   11.9728910464
  10.9893355572   14.7930726305   10.0360003313
   9.2698964654    2.1081030609   13.3839345341
  13.7170824168   16.5440459137    0.9052812118
  13.6851024334   12.8099876519    4.7691805366
  10.2412132327   14.1952170614   11.2508568208
   4.8333608269    2.7097308782    6.5980259800
   1.3699037703   12.6567907373   11.4710596696
   4.4146977698   16.5212269966   15.2038414761
   0.9357670851   18.5362516205    8.2090247047
  10.3764120870    2.1847955968   14.4901926241
  11.4757615809    3.2614163993   14.0977582740
   4.9564270557    4.0198371702    6.0919337389
   5.2119125942   18.5176074187   14.0621965622
   9.4359770647   12.1699033338   10.0525418674
  -0.7488088314   13.6089939206    8.3954946744
  16.3538633791   11.8111745117    8.0423341458
  -0.1700608250   16.9290093874    6.8431892947
  -1.3334369573   10.8039146763    7.3933168607
   5.5858985773    6.2900702332   14.9791364609
  15.0386265524   14.6314238028    4.2460057649
  -0.8604942252   17.8374016724    5.7937703687
   2.8031603220   12.8093730809    9.5772549368
  16.4641811937   10.2392833618    5.1030602111
   3.7867407661    6.1408959902    5.9982883243
  11.6048655838    1.0743909691   18.4355489579
   1.9526587710    4.6054195625   13.1856466786
   9.6392279958   19.5023240474   18.7055968925
  -2.0068927200   14.5133913527    4.2083260589
   6.7426105507    6.4773681551   15.9138472649
   3.1646065340   13.6040909858    8.3403054342
   8.5978903888    7.6804462280    5.1190531727
   0.4047713078   18.4506301573    3.8239987145
   7.1758186734    8.0354232500   15.7995064972
  10.2395040227    7.4605248629    9.8076503785
   1.2495634920    6.8630838025    2.6353673072
  12.6000224457    2.2468156039   18.7664963376
   1.7786494013    5.0111261459   10.6122223621
   1.0721784238    4.5541495385   11.9411337245
  10.7772381707    5.2137353040    3.4552679507
   9.5074302998    5.8081250819    4.1607570257
   8.3676291411   15.2399070474   17.9208564455
   9.2453036696    7.9625640812   11.0785858068
  12.8968930177    8.2291358989    3.8066487793
   8.4109245271   18.5423724443   12.4043206365
  -0.3691295842   12.9067542513    4.0002182928
  14.4746905595    5.7149848346    5.9676788114
   7.8239420943    8.2119916755   10.6537549304
  13.9351283856    9.7557299235    2.2464730020
  12.1313623444    5.5016634069    1.6118860428
   2.3380086090   14.5247685460    6.3013156897
  13.2774443279    7.6346498514    5.1242668325
  17.3499045356    6.7959964517    3.0103101604
   8.9973344034   17.7130264946   14.5246591781
   8.8285955072   12.9841858827   18.3338632691
  15.4818952741    7.5788454486   14.4364111401
  16.7384338902    7.4906200164   13.6109407666
  16.6890115596    5.9244158633    1.9794383525
  15.0888874888    2.7665296345   11.5398722680
   8.3574864692   11.7959228669   19.1062155808
  15.3896529763    4.2442928322   11.3369928657
  10.4466072337   18.1051824502   14.7596658849
  15.2452385003    4.7420626492    9.8178618501
  -1.5729984767    8.8262941660   12.8468692915
  10.1844080226   19.3632783083    7.3758083578
   2.5757545001    9.8626377819   15.9893611491
  -2.1203032478   10.8350012804   19.1280157417
   0.7555803373   12.8329526925   15.5366476864
  16.4282654654   12.7744030210    0.2490478057
   4.7697767151   10.2803465035    6.7940900391
   5.4820569826    9.3867702220    4.2028158494
  10.0477111044   16.9437408928    5.0289584813
   8.9669571645   17.7506308234    5.7906942819
   1.4238685940   11.8935205675   16.4108946194
   2.1531000369    0.2451468758   12.8275579041
   0.8080316515    0.5660791002   12.1598159922
   0.9118216175   18.0785972581   12.6210600383
   0.8220089968    0.6214251857    9.6435426355
   9.6598132101   10.4365864985    1.2597031067
   2.3715506203    9.9215855780    6.5635061123
   6.0692695995    9.6870247256    6.4883998820
  14.4324271378   -0.0682124519   14.9709412672
  -0.9023087156    8.0300885775   18.3565435443
  16.9528158125    4.0800989471    0.6539529601
  -1.4865029827   12.0171790538   15.7428590305
  -0.6808083648   10.2095042330   19.4360763252
   9.6850258690   16.7723906771    2.6624726013
   9.1032988843    5.8473093242   13.7100590910
   6.7622714089    1.8482082767   16.7399644874
   9.1378692640    5.0515706701   18.9377525850
   8.9988035393    3.4663796194   13.0052766555
   7.2987727441    1.0124353866   18.6887525038
   9.5277523500    3.7146739606    0.8220393313
   5.7853785418    2.3958916545   18.5479060517
   6.9454250057    4.6735645719   19.1654008635
   8.1769083670    1.5731104169   13.8598834326
  11.5534277705    3.2626728194   12.7470457875
   9.5778419208    1.4617551515   12.1641796221
  12.6073617751    2.9345714394   14.7430178132
   4.5333529035    6.9649951425   15.3652999522
   5.2805900481    4.9737737377   15.0054517136
  11.0785854900    4.4925114285   14.4693636430
   5.8548422825    6.5018034298   13.6717406181
   3.0632666480    3.6614619986   13.1871680932
   8.7823957653   18.5443674267   18.2149953937
   2.5170993598    5.8456569086   13.3687948827
  11.4751364697    7.1152411471   10.1745538531
   0.8227678242    4.9653649253    9.5528429982
   7.5607694871    8.3180175560   14.5237119815
   8.1564126500    8.3966691054   16.6160198213
   1.2093538746    4.3600424055   14.2816682613
  10.1215575516    8.4457640585    8.8562577511
  10.9398727410   19.5898024107    0.5421148643
  13.7707874219    1.9179421474   18.1336029290
  10.7939039492   19.1320476396   18.1214556066
   2.7933949829    4.0968897180   10.3300246412
   9.7326463870    6.3035316229    9.2382012765
   7.1083030372    8.6809890258   11.6756449051
  13.9916663701    2.6484516391    0.5863143546
  12.2110308076    3.4408564745   18.1199088979
   6.2032733137    9.0089802769   15.9918691246
   2.3333583580    6.1916341077   10.5942293052
   7.1415678423    7.1802639846   10.1795612414
  15.3887128208    8.6826533321   15.2303541022
   7.9112913781    9.2338181220    9.7487326765
  13.8504279954    2.3207493056   11.4237476845
  14.3836640762    7.5622073529   13.5642313180
  15.7227585268    3.8570503127    8.9662339361
  15.8442715348    2.0548770699   10.5417258586
  15.7679995649    5.9975876087    9.7386923399
  15.2611393506    6.4620449787   15.2333711182
  -0.5906067971    8.5276427640   11.8350750233
  15.5537907671    2.3469798588   12.7129190916
  -1.0932257787    9.8095964459   13.5649132681
  13.9332865505    4.9547566560    9.5060199435
  15.9460335864    9.3833385938   12.1151828306
  -1.8191411983   19.3606316927   19.1195525406
  14.1908859337   12.3598572938   16.5128076745
   1.5142458513    1.8963097734    4.2999313971
   6.4696615884    6.6562393558    1.9004379223
   6.4868872549   16.6048478067    8.3236139312
   8.9826804689   11.5112611034    7.3928074478
   6.3586104484    6.5903599426    0.1443359236
   4.6545780713    2.1811335029   16.5012520100
  16.8381939266    3.4217825639    5.6425284339
   0.6368103729    0.4499413054    1.8606490769
   1.2484887746   16.1018751760   17.3159653775
  18.1262328794    0.7338396143    0.5026850863
   7.2181862184   14.2488610944    7.5533871695
  -0.1185998637    1.5412716467   18.2487303174
  16.0984213748   18.9271481093    0.9539177684
  13.6672932903   12.5254035910   11.9511681570
  -0.2936683509   18.9521602499   17.2907649786
   7.6252473187   15.1980157582    6.0814985530
  12.4095367309   14.3441984369   15.9377682806
   4.5742662939   11.0735312181    0.4056885171
  15.1784812162   13.0006185565   12.6551807952
   3.5974237545    4.1724711782    0.4987833543
   2.2791171485    5.5611383453   19.2176711782
  12.3874222399   10.5847612881   18.1519779387
  12.0848206076    9.5613077192    6.5920091574
   1.4431086414    1.9639803690    6.1303125640
  17.9464726775    2.2236843473    6.4963483320
  10.9217926986   13.0711894786    6.6781408348
   2.8134380412    2.0812314227   15.8964645485
   5.5804256579   19.1351430164    9.2851216979
  10.8392258063   14.8252035804   16.0469515590
  12.4814171502   11.6421296978   14.0269033626
   0.6878130722   14.7773833209   18.4236366719
   2.3053901289   14.7695363729   17.6778888283
  11.9137619735   15.2717395577   14.5609512895
   7.0578653480   17.3063017682    9.8944057362
   1.1802622412    2.6482380252   17.8433320568
   2.9791192964   17.0019002416    1.6158828933
  -0.5448852615    7.5945252322    6.8259785277
  13.7393450320   10.7550990163   16.3625607941
   2.0416094111    3.3718694516    5.2356802110
   6.4039470590   15.6151629902    9.9350730504
   8.5019871419   11.5948128781    5.7527015866
   3.3264612216    9.8701935535    1.0930271411
   7.4020614147   13.3330614888    5.9743214747
   2.6637228661    9.5693722430   18.8801062848
   3.7061042088    4.6006386279   18.8504063086
  14.0404954287   14.2577117836   12.2697673002
   1.0637366279   19.7995962334    0.2427292281
   4.1661783418    0.7281738389   15.6287048408
   0.1970732220    3.0723377353   19.2800160000
   1.6259628360    0.6124375372   16.8565168407
  17.6056529528    1.5525453893    3.6113269209
  16.7235004784    2.0689767917    2.1374729462
  11.6005642744    9.9172032662   16.5631878313
   4.2598450671    7.8929929394    2.0359343431
   4.1327388096    7.6920389053    0.3209381832
   0.8105611399    6.7368631722    5.9864208678
   0.9311613617    4.2121324380    6.7973269103
   1.5525996822   16.7691132032    0.5680165846
  12.1864341484   11.3946055881    6.8888324163
   4.5241723044   19.0638530109   11.5006263688
  11.2080555359   10.3114414020    7.8940925207
  10.7080068580   10.9100568368   17.7608424698
  10.0649541803   13.3090948517    5.1636669301
  13.9558971205   11.0181477762   14.0500976495
   4.2663129354   18.3533025315    8.5744038356
   7.7492063023   14.0376546296    3.9541090408
  -0.4194154130    3.9820439080    7.9573090453
   0.7169976625    6.4871956114    7.6018669842
   6.5678336054   15.0247697157    2.0774771941
   6.8852320973    1.6836067746   11.5536283748
   1.7410078610   14.0441390294    1.1520793207
  13.5380989592   17.4076993509   17.4520984698
  14.3217761596   15.9000023256   16.7951301741
   4.7946037683   14.5562994582   19.0883377937
  15.7895893553   14.6956722424   12.4512513583
   8.6519108681   12.6506495726    3.7622138582
   5.1689141425    2.0744406503   11.3727778382
   3.1583376814   18.1522151826   10.8672985598
   4.3238360027   11.8186216217   17.3433488071
  -1.4215412736   14.0085238571   11.6433519237
  14.8108679249    0.6098668841    2.6533306347
  15.0149417679    1.7292486851    3.9928183030
   4.9571857089   17.0483905911    3.1300268981
   6.0293438849    0.3482112116    7.5399448229
   4.1236161997   18.9421724076    2.2213045874
   1.5488376767   15.4229891436    2.4506950836
   6.8634697418    1.5759375161    3.8687969324
   3.7657927707    2.2330489782    2.2413834505
  -2.2351481114   17.4030200305   12.3052327442
   2.2100622948   13.2923390993    3.3322505346
   3.2503231955   12.5831208178    2.0365159305
   6.8613659968   12.4403108821    3.8692336970
  13.1702560258   14.2844476788   18.0760000602
   5.7045694353    0.7023267895   12.3426885276
  14.2035716058   15.3619550472   18.9398208899
   6.0473579666   12.0801129257   17.2937850157
  11.8296473704   13.9124407087    7.8242219710
  14.5925331408   16.0400695820   11.0807614576
   5.5156047969   13.5583391792    1.7710953237
   2.4929244031   15.5759385407   11.6106075331
   4.3783787142   16.8592896283    4.7405062257
   4.0070499232   14.9651685940   11.9193225733
  13.6836075339   13.8884196521    8.3306825062
   5.4045976188    2.9122054759    1.9494064539
  -1.1822617110   15.2682861588   12.8486387126
   6.5509358848   14.0887253004   19.4024629721
   4.0159403898   13.1404728742    3.5410691996
   6.8487526106    0.1228150937    6.0302003231
   5.0374229921    0.2439490421    5.9036031580
   5.0370501383   13.5369902356   17.2617720720
   7.8814450635    3.7388915817   17.1278994112
  12.6172483658   18.6905206245   12.6837415271
   3.2576365631   14.6325270352   15.4722744231
   4.6879212886   14.5586755989   14.4341404474
  10.3277070471   14.5220474156    9.2276163012
   3.6178715469   16.7572118637   12.4959377374
   6.0769061449   17.3925178542    4.5848674538
   5.7986925071   19.8027817812    2.9575957691
  -1.5877830443   17.8859254737   10.6473509079
  14.0478001974   18.4014234705    2.9445314857
   6.9885761056    1.5581234297    2.0882403460
  12.3786354557   17.9257647296    3.1491655695
  13.4751181571   17.4083076125    4.4869262248
   4.5343165495    2.9927808397    3.4558102330
  12.8926206063   15.4953310582    8.1250179082
  14.7700866733   17.1311363431    9.6236810776
  10.8998534607   14.3886051796   12.1117873900
   1.3845659334   18.5420818387    9.2334569067
   1.5054907531   13.0979079030   12.4940959805
  12.8652584190   12.4916350821    5.4698832102
  14.2059992880   11.9929490194    4.5472609105
  12.0750202092   17.8076123858   11.1215022273
  13.0288882767   16.4142500331    1.7530461104
  14.7442545161   16.2044644626    1.3196810696
   0.3747213451   12.3087003184   11.2433701343
  12.8615297651   16.9626640857   12.4832249758
   2.0796904579   11.7997588112   11.5410488680
  13.1382813209   13.2123991951    3.8997788994
   3.9892413132    2.1018319121    6.1191080854
  11.1527818040   15.8600141484   10.0581906283
  -1.3255406300   14.4331389632    7.9031927591
   9.1154352214   11.1680654323   10.3190290770
   4.6653418330    2.7751301097    7.6179349889
  13.7983070966   17.6031296633    0.8172676908
   5.2740292706    4.0144964838    4.9966743979
   5.7383734727    4.6071443291    6.6439815043
  16.0177874845   12.4435595564    7.1993784298
   5.9496998698   18.6642403615   13.1980478406
   0.6473692811   19.5990337133    7.9338308431
   1.8589162260   18.1941380026    7.6603628843
   9.2858709970   14.7077569923   11.1128706097
   5.0844935847   16.3498628630   16.0908246438
   3.6766320258   17.2411765273   15.5846798673
  -0.0398257036   13.2967719090    7.6045572405
  -0.5780486438   11.3724833261    6.8893297474
  10.9811616984    1.3006886686   14.5093391810
  14.5406374855   14.5226468108    3.2747669409
   5.8795139663   18.9609912924   14.8846791223
  10.0865226773   12.2875217140    9.1999005089
  16.1590101326   11.3638842315    4.7600791533
   4.2655770671   19.1202300257   14.1788662491
  -0.5537086855   18.9462191699    5.9623703254
  -1.9830952665   17.9149815461    5.7038282707
   8.4937716628   12.7793590888    9.6479672370
   2.4862622166   11.7725186472    9.3596974714
  -0.0523080736   14.1917555606    9.1242639826
  14.8583706455   15.6355252991    4.5721917720
   3.7194899269   12.6603671962   10.2583155520
   0.8649781594   16.8489062730    6.4291765991
  10.8071832549    1.1197113141   19.1576680967
  15.5321542987   11.3206029610    8.5599651772
  -0.7058086973   15.9140578645    7.0002919967
  15.6808257058    9.6154959021    4.6643979825
   2.8646992543    6.5865497455    6.4333163447
   8.7091056069    8.7338957860    5.1305217507
   3.9965720617    6.2987730551    4.8834469505
  -0.7829102965   10.2342260799    8.1841088350
  -1.6213075507   14.7869351755    5.2174460519
   1.1453073694    6.2424164600    3.5439048916
  -1.2286300684   10.0104846187    4.5863781747
   0.7765897176   18.1269257168    2.8529197896
   1.2870963964   18.6492889336    4.5058165068
   3.3628200064   14.7306271233    8.5081008357
   1.6648966373    6.2316128722    1.7636945971
  -1.6201465607   15.2313252492    3.4914707625
   4.1246223346   13.2893674093    8.0370299069
  11.6052614825    5.3468508052    4.2103173287
   6.3484522665    6.3106157866   16.9287383676
   4.6611563551    6.4756786826    6.6052453507
   1.8055730599    7.7241699707    2.7245892619
   7.8004654059    7.4928619340    4.4121017217
   8.2748829616   16.1454737751   18.4480333598
  10.5898078788    4.1742360767    3.1132786263
   8.4629483990    7.1497774767    6.0969423256
   0.6411438121    3.5835303685   11.5816331565
   8.1078443025   19.3666611362   12.9925463655
  12.0333552787    8.8668232136    3.9340238972
   7.5772722083   14.9001537572   17.2197856795
  13.4990371664    5.3390757985    6.3310961854
  12.4603408788    7.4429020752    3.1387927477
   9.4705341350   18.8672642820   12.0768224117
  -0.1765244145   19.3598029885    3.7384721110
  14.6290385395    9.5151801495    1.4472132359
  12.8630613038    5.3277028004    2.3900763756
   8.7498492362    5.8049066059    3.3331969126
  -0.1020708493   12.7948933110    5.0444858643
  14.2357931077   10.7875634799    2.5709279971
  12.0878303264    4.5263441565    1.1443436677
   9.2504997360   15.2961496956   17.1950340959
   9.1540514615    5.1686383471    4.9793932810
   7.7228642872   18.5212698914   11.6145863052
   2.4547396703   15.3912854519    6.8228354375
   0.2418706309   13.7607595356    3.4895700945
   9.7009270204    8.9042124347   11.3770080308
  15.0406118970    6.2938394410    6.7694966662
  -0.2670683605   11.9422544240    3.4068342594
  16.6897528329    7.7301679414    3.2849778827
   3.1779420784   14.5878480684    5.5643306339
  14.9884226429    4.9118946491    5.5049019315
   8.2180748709   18.4412204592   14.9374516691
  -0.9188607297    6.3697502531    3.9473807623
  12.3282135400    7.1474511999    5.4902564303
  12.9818050018    9.8710046493    1.8063103202
   1.3901874326   14.5955257442    5.6612000860
  13.6770561746    8.2642443964    5.9788111180
  12.4427786837    6.3302792889    0.8463135583
   8.3005641634   12.7812275294   17.3598237344
  -1.0579537713    7.3468350881   14.3216592071
   8.3645905284   10.9550941139   18.3576393283
   8.8403497588   16.8132931644   15.1307946155
   9.9299570493   12.9500167018   18.0337640042
  15.6208431587    5.4948720768    2.2612418295
  11.0671588126   17.4232698168   14.1367294185
  16.3786780312    6.5533292507    1.1189866918
   7.2882886728   12.0596372439   19.3955297955
   1.7899239171    9.4902846255   16.7470767908
   0.3943303368   13.8374889241   15.9583402780
  10.9046627604   17.6159663285    4.6182953718
  12.1081883447    0.4431003576    7.6213742471
   4.4624689009   10.3686829093    7.8115445295
   5.9972403243    9.2630983030    3.2743475532
  10.6030035381   19.0707797483    8.3030379968
  16.9045748031   10.4082957282    0.0466789761
  -2.3007643414   10.8581854048   18.0021100066
  14.5700136174    4.6794388803   12.0387032488
  16.2792735058   13.6775075122    0.8756203060
  14.9542962184   12.7870426667   18.7712597397
  -2.3564757681   19.5842585985   12.1782589614
   2.7685659221    1.2180015609   13.0075387418
   0.2722756113   17.6043407459   13.3157144076
  -0.1209089685    0.0002252721    9.5944487057
  10.6631003967   17.9952185183   15.8298855430
   4.6028069077   11.2521317328    6.2328134302
  -2.4016997575   12.0181150225   15.0711897706
   9.0801013532   16.1448795083    1.9814897083
   2.2006852484   10.0147079717    7.6596695219
   2.5093457050    9.2533090873   15.1282226420
   8.5993682016   18.5384092670    5.1410424535
  -0.4130864828    7.6299241508   17.4601019705
   1.4789249470   13.1067992797   14.7485293678
  10.3904644497    9.9350515255    1.9754588775
   2.0666935573   10.8357795882    5.9860447962
  12.7612782680   19.2119648294   14.4980215636
   4.9629489426    8.3897524354    4.4351528293
   1.9593213687   12.6133091686   17.1776817661
   1.8712392803   18.4474678383   13.1963772723
   1.7614749287   -0.0310088669    9.3513445152
  10.4983360325   16.3002018778    5.9047576210
  -1.2768716460   11.1094917855   16.4204019506
  15.9717426522    3.7065143468    1.0183802953
   3.6134552769    9.8052056579   16.2920392373
  15.7515060723   12.0224519071    0.6611773488
  11.0051500123   19.4808117706    6.7684133940
   4.6136275288   10.0091565029    4.1017531814
   9.4471992013    9.6209666480    0.4325649675
  15.8160870481    4.5939035700   19.3319612211
   6.8120219148   10.3142753461    7.0303267405
  14.6136546808    0.9967597590   14.7162078492
  -1.9119393106    8.3371626997   18.0531960511
   9.2160920860   17.7879224426    2.6008741718
  -0.9460208936    7.3049453365   19.2848603181
  -0.5829427381   19.6658323804   13.8469911906
   0.2819871098    1.3713111601   12.8010645859
   1.1758516609   17.2998360001   11.9583972937
   0.6566215523    1.4216625353    8.9190633969
   0.4543126766   10.0715586213    0.9453539226
  17.6547431681    3.3659696947    0.1271413117
   0.0082728748   10.9895091056   19.5209835124
   0.7527097745   11.1864171558   16.8962716312
  12.0174839854   19.4542609635   16.0933058637
  10.7198777162   16.9088373646    2.2655775202
   1.7134721397    9.2254922258    6.0077798976
   8.1543142413   17.0391147493    6.0403463290
   6.0750664101    8.5866412785    6.7703586068
   8.7692171959   10.5559856673    1.8185639622
  -1.6029947896   12.9107840937   16.4429992398
   5.3451016189    9.1414523840    0.7059773994
   9.1630568984   14.0705941181    6.8854461519
  13.6705871118   13.1683647960   13.9950941925
   3.4266386302    0.7615937347   17.5109660394
   1.3394086039    1.4344995392   19.4916557409
  -0.7974699652    5.5015736621    6.5684809714
   4.7647415044    5.5390855468    1.2708888444
   0.0339031526    2.9654057119    4.8222570938
  10.4544099509   10.7299617679    5.9640008364
   5.0644475664   17.1733540563    9.8729475518
  17.1193231932    0.1032233953    2.2202667492
  12.1951176805   11.9345301834   16.6583139968
   2.1755025202   16.0204662436   19.3002216703
  12.3992070318   16.4438468009   16.2319156445
   5.6410978576    0.3905513265   10.3573534045
   3.4386956877   14.5974722909    2.3085701367
   7.7610171107   13.2407853473    2.0760913095
  13.1618397321   19.5301739049    4.4163010219
   5.1289285030   12.6147442041   19.1518699002
  -1.6894529682   15.8518408749   10.9123082817
   4.4611135468   18.8438928711    4.2458226376
   5.1723190357    1.0342670545    2.8653892766
  12.0574859412   15.5633061548   19.2878733051
   6.0753816441    2.0271220606    6.3211696822
  14.1264949291   18.2787726445   11.3628444231
  12.3403314915   14.4262585410    9.7918953538
   2.9182448225   15.1330778839   13.6281245521
   5.1484393580   17.1041222853   14.1066681997
   9.6702416097    2.5346706855   15.6557752180
   9.2831850831    2.4940914706   18.0228168445
  -0.0747680660   17.5415613718    8.1582787691
  10.0085887108   12.7383604812   11.2389963513
  14.4626083115   13.8707043030    5.2670329431
   1.9212970058   13.4859166837   10.4645897877
  -1.4770725040   12.5203091166    9.0197889915
  16.3599173647    9.9556260793    6.5360371406
  11.1392829145    1.2746278396   17.0832788496
   3.6340113815    4.7449037195    6.2191835031
  -0.3079354386   17.4629248479    4.4558511997
   9.8687161830    7.1482685810    4.4779570687
   7.7566075978    5.5860986681   15.6786502985
  -1.7394406708   13.1744859972    3.8173588447
   2.2509806230   13.5247926695    7.2728077394
   9.2214494120    7.0541736866   12.0964048057
  14.1425731198    6.4972219645    4.8555264345
  -0.0573313892    7.3109421732    2.3205875100
   0.0927474974    5.6396872290   12.2200425121
   8.5531738959   14.2574233141   18.8623994504
  10.8918691395    5.9609608949    2.1660303817
  14.0730279419    8.8449312939    3.2291167850
   8.7035875721   17.3194400034   13.1408271373
  16.6910836581    4.4573432507   11.6113413993
  16.4948105592    6.4171115870   12.7646411610
  17.6092644948    4.8382128797    1.6905763071
   2.2424204316   11.1645526415   15.6141997966
  10.6423523277   19.4524965247   14.4864922347
   6.4007633626    9.8763701778    5.1634884413
   9.3101663607   18.2803593543    7.1378564539
  10.2151565805   11.6177758065    0.7259580486
  -0.0856508575    9.1865999980   18.6144212836
   0.2586882081   19.2044914944   11.9361168459
   0.9633536787    1.3028382250   10.9316938374
  -0.8987541962   12.2282986771    0.2318962244
   9.4971267508   16.1523337724    3.9347419223
  -0.2826186033   12.1986759792   14.7884385104
   3.6733104840    9.4366627111    6.2564038017
