B2 C140 Ca1 F48 H298 O66 
1.0
1.8997571365099990e+01 -7.8972610748362840e-16 -1.2878179076699695e-16 
-2.7081487215843860e+00 1.9767918793225856e+01 -2.4200794770180153e-17 
-6.4414604433077161e-01 -1.9317228439828918e-01 1.9298217688574695e+01 
B C Ca F H O 
2 140 1 48 298 66 
Cartesian
  10.4690003120    2.0986432601   16.6369743205
  -0.9506130022    5.3955601623   11.8701257056
  18.7508487494    0.3195984968    1.0663100407
   8.2008303333   14.4630839706    7.1858100466
   5.6979720656    6.6955075285    0.7646787715
  14.4218643605   13.0106277737   12.4558098047
   4.0525700930    1.5444623213   15.9674232017
   2.4340327060   -0.1283790501   18.7530966621
   1.2087566490    2.6897156943    4.2868397971
   3.2345830688    0.0419150198   17.3818234006
  -0.3378211878    3.2054517577    5.9466147687
   4.3009373100    4.7828577369    0.6108190400
   2.5775066943   15.7392274106   17.6359910886
   1.3716220310    2.0440484995   18.4499150444
  12.5741011543   14.9425784006   15.5676761006
   4.6555290217   10.2027349690    0.1843681736
   6.4202510744   16.2595241453    9.0918203834
  14.2463426619   11.4944412194   15.8757716881
   9.5101546935   11.4333858802    6.6863854663
  10.0296363947   12.9247158836    6.6181720378
  14.1129610913   11.4821909333   14.3142325156
   4.5854974176    7.7186639961    0.6837948998
  12.2030016458   10.6880698590   16.9045066307
  11.4983332728   10.2538861177    6.6182168723
   0.1848379415    4.3429463963    6.7666064364
  -0.0728544536    6.7406527117    6.7468443981
   4.9010350759   18.1187722208    9.3098136982
   2.6407459263   16.2630961058    0.8070227014
  17.3679645475    0.7528273455    2.9989656980
   4.0377136448   18.8090582197   10.4165115840
   2.4413791399   15.1280026691    1.7899131753
  13.9856645421   16.0669919218   17.1165013395
   6.1605430535    1.1723184197   11.0145442416
   7.7139376578   12.9183276310    3.6908546729
  15.8702290665    0.6831872776    3.4495404812
   6.2606195000   13.6737091514    2.0063493160
   6.2647292648   14.1250293145    0.5589933385
  -0.9195273429   15.0311336799   11.4909748210
   3.4637884075   13.6642072253    3.3210843236
  14.2128158521   14.8365144390   18.0577702735
   5.6036281858   13.3922602066   17.6078416720
   4.7248326958   17.4408887378    4.2572695744
   4.7381422849   19.6010505594    3.3972216279
   6.8600580263    1.1635376883    3.4296499496
   4.9825722572    2.1135610684    2.3153781549
  -2.0015603198   17.1152393792   10.9785381488
   6.4459413658    0.8571467738    7.0986663230
  13.3029227257   14.1666130916    8.6050121319
  15.5326889079   17.1421132964   10.6127674598
   4.1078165910   15.3471686007   12.0082636903
  13.7774021624   18.0813676685    4.1135177066
   7.5467374709    2.2537979598   17.9119482100
   8.8075840113    4.3452909427   18.7626867780
   8.6456941426    3.3188281671   17.6532148883
   4.1710324806   15.3692156945   14.3593392016
  13.3361747754   17.9418195262   11.3869952700
  11.6351819999   15.2925147967    9.9762542538
   9.7520505723    2.2580552635   13.0439132510
  14.2551981795   15.7410192409    0.9977137552
  14.0927165470   12.7131932558    5.4107809527
  10.9862145616   14.6334185497   11.1061377625
   4.8871894487    2.6471040556    6.5571268783
   1.5873946379   12.5843191717   11.7015617723
   4.2939967827   16.8740443341   14.6955189817
   1.0934320763   18.0483704730    7.8977377593
  10.8384320014    2.2251867189   14.1505755659
  12.1337108315    3.1535214302   13.9378316393
   4.9908224676    4.0040094874    5.9995198298
   5.5452327273   18.8757213207   14.2145706439
  10.2990786192   12.5643328876   10.2171981766
  -0.6009991694   13.1523530309    8.4672812657
  17.0250508060   11.3143499563    7.8696264113
  -0.7765620417   17.0832351036    6.6995161237
  -0.9736640032   10.4642378421    7.0442852963
   6.2518667390    6.0145861919   14.6883001528
  15.2592969729   14.4296980417    4.3455414166
  -0.7121015882   18.1715222334    5.5950834383
   2.9923103264   12.5192843558    9.6689337350
  16.8934400476    9.8593367028    4.9931555787
   4.0785952059    6.1892681012    6.3245074844
  12.0903243084    1.0243173469   18.1791270611
   2.4757919744    4.6088810808   13.0845415854
  10.0454771997   19.3255446516   18.3517906561
  16.7067523022   14.4771818147    3.7586850578
   7.3893874535    6.2728240635   15.7335132748
   3.5524564813   13.5658306115    8.5983392309
   9.0277978041    7.4124521307    5.4499202878
   0.2988056383   18.6642598939    3.6202868711
   7.9003128572    7.8587319233   15.5069845234
  10.5627125645    7.2079301007    9.8126728925
   1.2628139352    6.1754140740    2.6332401225
  13.0586823560    2.2716447883   18.4904666669
   2.1312917116    4.8083195083   10.6076823026
   1.3773255079    4.5750905033   12.0275294096
  10.8350903627    4.9059029238    3.5551040773
   9.6936688423    5.6564847107    4.2469065296
   9.2783084525   15.5031968384   18.2101653944
   9.6777472690    7.8157141040   10.9572164021
  13.7011156826    8.0785350454    3.4523357153
   8.8422504842   17.8051443645   12.2626896329
  -0.5670544246   13.0146101066    3.1174604040
  14.7570920220    5.1473653812    5.4424457124
   8.2871786484    7.9685488920   10.5338415306
  14.7608389520    9.6925700656    2.0291994203
  12.4666623718    5.2968992800    1.7960749070
   2.6644464893   14.7197913413    6.7626471677
  13.8284741855    7.2223376607    4.6325048676
  17.8860013529    6.5605803209    2.7514958731
   9.1068441321   17.4089567923   14.6578555778
   9.3980854764   13.1987499060   18.0130481987
  16.0982264362    7.4365323409   14.2787941762
  17.4011089797    7.2830856312   13.3916028682
  17.1611472565    5.6996009668    1.6831949008
  15.5923399831    2.7482130625   11.2534425598
   9.2010838346   11.8523379641   18.6699458359
  16.1101986155    4.2431714179   11.0188403529
  10.6497079887   17.6179347075   14.5419331076
  15.6333929286    4.6703949112    9.6162879848
  -1.1843197012    8.5866902256   12.5436115551
  10.8220032717   18.8328879998    7.0228135392
   2.7923256619   10.1598350796   15.2543873691
  -1.5562656053   10.6532145592   19.0096795090
   0.8449430136   13.0035360122   15.1812594340
  16.8737846506   12.9926941661    0.0345573931
   4.8412493503   10.1887472365    6.5295626065
   6.0815543407    9.2274293811    3.7183549289
  10.0551571834   16.5645588901    4.7618895144
   9.2490239988   17.7334156780    5.5209017087
   1.7889014154   12.2102335892   16.0499992236
   2.6872201761    0.4598937895   12.9458647916
   1.2986098340    0.8837176948   12.7335341816
   1.0427719572   18.1418076637   12.5974434344
   0.6049294242    1.1139775431   10.3212843739
  10.1692349222   10.9779620526    1.4408833186
   2.5303604153    9.9242404330    6.3871028473
   6.2182687612    9.6142031247    6.0772756283
  12.3504670637   19.2996194555   14.7177273416
  -0.9938282249    8.1468635426   18.4520001762
  17.3155803589    4.0362778665    0.1264226542
  -1.2673711411   11.8269823051   15.0962747367
   0.4180462107   10.3318512825    0.0753385591
   9.8001442753   17.3928528992    2.4748014248
   9.7186749461    5.7232871723   13.5915174934
   7.2596335344    1.5695883098   16.7355025925
   9.9166983047    4.9953868258   18.5631773115
   9.4477394857    3.5302810036   12.6012905234
   7.7529281039    1.2344859819   18.8677492002
   9.4099754994    3.9273757168    0.7233979917
   6.4027741745    2.9223531065   18.2652699711
   7.7200181552    5.2210173984   18.5470972498
   8.6426215219    1.5778508728   13.5493365889
  12.5262342858    2.9591496695   12.6132976190
  10.1719210887    1.6083400599   11.9161056625
  13.1047477614    2.8727585326   14.7868801092
   5.1300184397    6.8446262394   14.7538205084
   6.0016540646    4.7420553059   14.7919962743
  11.7863106206    4.4346793097   14.1800363105
   6.7585810541    6.1390540925   13.3792443337
   3.4850230536    3.7254771527   12.9134566364
   9.1465176297   18.4092264077   17.9882357325
   3.0706975046    5.8241896010   13.3819547005
  11.7174971192    6.7997656140   10.4016786250
   1.3234902236    5.0472399700    9.4963914248
   8.5498412231    8.0029339201   14.3148911010
   8.9897181686    7.9915415620   16.4003757456
   1.9815344639    4.1482124122   14.3302712497
  10.9584040458    8.1997972488    9.0078166653
  11.1439003638   19.2522071981    0.3330781938
  14.1626476601    2.0032776570   17.7793569967
  11.1306390180   19.2271849846   17.5304475825
   2.9391287595    3.7948036494   10.4814047652
  10.0541752062    6.2064207643    9.0275838420
   7.4933622446    8.2502497298   11.6153453058
  13.9877251500    2.3836403770    0.5663053536
  12.5724527489    3.4483430784   18.2439187562
   7.0628555465    8.9007967394   15.7095858761
   2.8747391736    5.9537126990   10.6790940086
   7.8056233058    6.7994408226   10.0160780952
  16.2244436003    8.5664509846   15.0327653855
   8.0617374907    8.9539974240    9.6769896371
  14.2282548413    2.5758414491   11.0277277410
  14.9199784860    7.5094997966   13.5788151908
  16.2825367043    3.8252944597    8.8063367811
  16.2488464679    1.7449310850   10.6241741542
  16.0183588753    5.9082618133    9.1773468669
  16.0050931242    6.3909252259   15.1824355439
  -0.1977364386    8.2791463082   11.7412789697
  15.8202519530    2.4953412646   12.5930382479
  -0.7301841865    9.6326688453   13.2878459319
  14.2366224988    4.5298909905    9.4958054734
  16.7957800063    8.9840666443   11.7348813921
  -1.0924101442   18.8729546734   18.5010628599
  15.0029235783   12.2658034413   16.1181534924
   1.3855541218    2.7821155282    3.2251177534
   6.5312689161    7.0143037070    1.4394946350
   6.1739209803   16.2491941350    7.9850185005
   9.3996071634   11.0569005916    7.7535688787
   5.7334295733    6.6393287911   19.2163225086
   4.5750394839    2.6430365227   15.7712927996
  17.5636354064    3.1391033617    6.0517165451
   0.4747672822    0.9642303546    1.6777511052
   2.2795629184   16.7612769326   17.2930985533
  18.3286896105    0.7766752074    0.1453813897
   8.1653028612   15.5843487320    7.2875134904
   0.8102629548    1.4490533244   17.7307606267
  -2.3147928811   19.2216418577    0.7471247662
  13.4429048322   12.8577322768   11.9508675658
   1.3742436965   19.1076821301   17.2705078788
   7.8414203077   14.2548317072    6.1875618912
  13.5783325741   14.7407028281   15.1783798616
   4.7868407665   10.5891257946   19.1807972828
  15.3494917173   12.5315230488   12.0184456886
   4.2396008982    3.8666486793    1.1884678171
   3.3458680244    5.3321439136    0.6413530336
  12.7539711565    9.8342931587   17.3923709741
  12.2031408423    9.9410222304    5.8909970794
   1.2950153231    1.6063331456    4.6135074779
   0.0699197701    2.2806328363    6.2942755148
  11.0873960586   12.9369204943    6.8318988190
   3.1854956421    1.5745258026   15.3077997064
   5.8715774607   18.8218774301    9.3258827771
  12.1422813695   14.1285963902   16.1119185827
  13.1840631970   11.0095811797   13.8180071836
   1.6441323844   15.1668217236   17.5579717823
   3.3754418215   15.2999217326   17.0395723200
  11.9850503014   15.3955708177   14.7125292750
   7.3236990644   16.8688431190    9.1368406541
   2.2326770359    2.6312821832   17.8794268487
   2.8677375863   17.2038102543    1.3012452485
  -0.7419175610    7.4597964008    6.2518394854
  14.7470455839   10.5630563885   16.1043755803
   1.9948367086    3.2849782938    4.6727610526
   6.4815906629   15.1937685291    9.4147908996
   8.5769947766   11.6086044080    6.1498442355
   4.4825676575   10.5983008487    1.2536342607
   7.5002417325   13.9054814432    7.8424197907
   3.0485330353   10.1721806741   18.9308476827
   3.9339126172    4.2769085313   18.8224716791
  14.6972446560   14.1058539909   12.3646471179
   0.9615976657   19.3466534911    0.2150873610
   4.7663046273    0.8807369708   15.5699212663
   0.7019976634    2.8882819574   19.0266829265
   2.6063945870   -0.1560496253   16.4445491613
  17.9649780731    0.3992358425    3.8736443776
  17.7363391866    1.7840630096    2.8194814183
  11.8268327467   10.3228425297   16.0174965624
   4.2701853319    7.8918883737    1.6690772114
   3.1003167696    7.2200612018   19.2917516759
   0.8182082283    6.8698763208    6.0986482370
   1.3106408374    4.5834443946    6.4591906893
   1.6431025823   16.3966713968    0.4418878015
  11.8013459892   11.0181118834    7.3503941456
   4.6442777007   18.8151412990   11.4075575473
  11.1877635372    9.4052746971    7.1953175543
  11.3187677554   11.1306054458   17.5030001912
   9.8008329861   13.3361613857    5.5980467428
  14.8113374265   10.7954768623   13.9163080267
   4.4424933667   18.0231998050    8.3142175136
   7.9404077785   13.9845111909    4.1954412775
   0.0462376898    4.1317570569    7.8333373679
   0.0125450361    7.0616676049    7.8072277783
   6.1334966414   14.6209779955    2.5671451685
   7.1035875461    1.4669978413   11.5682763882
   2.0711160704   14.2236910722    1.2777746359
  13.9107919011   16.9584676235   17.7601923119
  14.7643590112   16.2239550208   16.3282092847
   5.4457173669   14.9110571500    0.4185705794
  -1.7045196837   14.7398001967   12.3212080199
   8.6079414209   12.2180795872    3.8089035813
   5.7482060668    2.1350630224   10.6449762910
   3.1461261566   18.2248830232   10.5428324290
   4.6259019397   14.0107831118   17.3033392611
  -0.5384361290   14.0786287571   11.0685524734
  15.1443273218    0.3904620730    2.6478709912
  15.4815269044    1.5006094173    3.9152638691
   5.8275352212   17.3356496124    4.1123731467
   6.2758622828    1.0942560372    8.1708551659
   4.5068073699   19.0841570416    2.4714021946
   1.5900217089   15.4406567204    2.4725551768
   6.9415357418    1.5655008762    4.4790656418
   3.9044716906    1.9078609367    2.1449033869
  -2.0947788834   16.9777300265   12.0662027121
   2.4671314620   13.7485040006    3.9344429199
   3.2724085211   12.8560171149    2.6275445575
   6.7906934966   12.5573391395    4.2734690081
  14.1272533809   13.7865308985   17.5404384354
   5.2655138142    0.7416188331   11.5930599174
  15.2617945187   14.6501315516   18.3288322904
   5.7138386060   12.5502629333   16.9091711272
  12.4674883604   13.9951684435    7.8851016819
  15.3630563354   16.1590562180   10.3388183437
   5.3025741479   13.1052413087    2.0929462772
   3.6143239053   15.0176023910   11.0570777188
   4.1063756709   17.0924704907    3.3883863418
   5.1345318163   14.9879756203   12.0801234452
  13.7278208048   13.1996764809    8.6828201788
   5.4015216412    1.9484733174    1.3123336274
   0.0012577136   15.4918405385   11.9165075660
   7.2178813856   14.7170261537    0.4044873322
   4.2854185531   13.6721753529    4.0114609901
   7.5655311859    0.6741319137    6.8270282925
   5.8870780598   -0.0072062795    6.8894799145
   6.4084618084   14.1517075046   17.4714841625
   8.5885380455    3.8089340678   16.6497024307
  12.9364959291   18.4992465757   12.1513927397
   3.6918367858   14.9380417022   15.2271170913
   5.1818698768   14.9286692387   14.2526671582
  11.0384915444   15.0356812344    9.1194106127
   4.1486693980   16.3871681341   11.8369164542
   4.4237635072   16.9155579711    5.1308210363
   5.8366164973   19.6642233105    3.3747331599
  -1.2570319006   17.8957307517   10.5811111146
  14.4674253160   17.9161010095    4.8853005698
   7.3168661859    1.7840751674    2.6833632984
  14.3781745194   18.2358728912    3.2329399071
  12.9317221577   17.3579202371    4.0813405512
   5.1815392552    3.1866321088    2.6115297650
  13.9034130938   14.7648911173    7.9517622299
  15.2417461404   17.6823607128    9.7468513534
  11.4557996839   14.9312416794   12.0552374025
   1.1020453391   19.0056507289    8.3896999318
   1.1978007074   13.4053162084   12.2262269295
  14.1504404793   12.0425194549    6.2966346181
  14.0522731653   12.1308015861    4.4800711365
  13.3108806792   18.4508739530   10.3756704917
  13.4473020983   15.3331534288    1.7324992617
  15.3484351176   15.6646735151    1.1685321305
   0.8328724827   11.9577375356   11.3150895912
  12.7778413562   16.9440496886   11.3188574270
   2.3026732676   11.9903897877   12.2580082425
  13.0495415405   13.2408437921    5.3911390158
   4.0069941234    1.9886046051    6.2934776635
  11.6398301951   16.4099128643    9.9499115332
  -1.0105590452   14.1058448398    8.8549627462
  10.0993179270   11.5526468262   10.5246603296
   4.8610209162    2.6748097830    7.6398078673
  14.0301654734   16.7917930136    0.8652383996
   4.9833573211    4.2301523083    4.9130140038
   5.8675798732    4.4688108974    6.4584451054
  16.3984032945   11.9762647537    7.1649267018
   6.3736557081   19.0939499426   13.5698574295
   1.4009229999   18.2640114186    6.8001265302
   2.0069792416   17.5089167194    8.3403440320
   9.9380268196   15.0184768855   11.1154397061
   4.2488112362   17.0527245820   15.8142477785
   3.3540780909   17.3965119808   14.3242963770
  -0.6256104896   13.2647511656    7.3635351381
  -0.4211963054   11.1427697050    6.3734155941
  11.1671438267    1.2039001127   14.2046168826
  14.5942579215   14.0180624385    3.5359178228
   5.7840518459   19.1515817772   15.2129124887
  10.6851426534   12.4346327064    9.2237865032
  17.0113509154   10.9775262134    4.7585626967
   4.5843570699   19.2168413707   13.8793966572
   0.1071359398   18.8562706826    5.8383094063
  -1.6538607744   18.7701680480    5.4877215679
   9.3520574404   13.1368562711   10.0753585375
   2.4215204326   11.8038123058    9.1180715851
   0.4283315852   12.9689134892    8.8152239432
  14.8012465448   15.5054281600    4.3888792989
   3.8755012047   12.0476241909   10.1525604497
  -0.2131683911   16.1538610734    6.2902844693
  11.2795282405    1.0354206772   18.9920545053
  16.2222356395   10.8092092875    8.4708472707
  -1.8180268732   16.7434038428    7.0873303057
  15.8355888036    9.7047668066    5.0117124571
   3.4242510869    6.6497548180    7.0011067303
   9.3473835712    8.3274634042    6.0628264835
   3.7482977904    6.6662356186    5.3234835790
  -0.1746999403   10.0522114757    7.7162031319
  -1.6671896628   14.8364642587    4.5684774140
   1.5273474939    6.0270191298    3.6757123693
  17.4351682716    9.2996560871    4.2062104098
   0.2576764290   18.3871393822    2.6064376090
   1.4029214206   18.7918748583    3.8103201795
   3.4186773060   14.7399291032    8.9423707025
   1.1559836006    5.1530907355    2.1152251172
  16.7844155800   15.1154711607    2.8791675532
   4.5902297658   13.3645601357    8.3222766325
  11.6051908021    4.6694311313    4.2370713775
   6.9374873175    6.2723176698   16.7545529708
   5.0784563711    6.5123658478    6.4317583884
   2.1012817890    6.6039478962    2.0822927137
   8.2229615931    7.8895380981    4.7532724078
  10.0922821109   15.7351088302   18.8218792210
  10.5253050905    3.9039797330    3.1013318938
   8.5410791442    6.6482103731    6.1764295933
   1.0142439018    3.4493415850   11.9643275505
   9.0654742329   18.8202642129   12.3691456044
  13.2528399007    8.9590933388    3.7626591630
   8.4639635881   16.2046370299   18.2288086142
  13.8482572998    4.4670770734    5.7947368008
  13.2110955476    7.4832584513    2.6503880034
   9.8369894681   17.3030954338   12.0078754527
  -0.2077390426   19.6251992495    3.7106572575
  15.3839397520    9.4881272342    1.2056502163
  13.3936998816    5.5619386206    2.2771525025
   8.9510663600    5.9369563254    3.4360184739
  -0.0142738443   13.2105792267    4.0581212572
  15.1278095891   10.6518060159    2.4462899239
  12.3537928647    4.1887154684    1.5255796639
   9.6383921277   15.3182492877   17.1280805886
   9.1423039763    4.9164892483    4.8810258589
   8.0733684680   17.7583485904   11.5548135146
   2.5190491850   15.4942146954    7.4731451187
  -0.3573492890   13.7753521688    2.2753452668
  10.0612590296    8.7701961641   11.4352380937
  15.1422008575    5.8029448812    6.3315498909
  -0.3882691740   12.0354764360    2.6589211811
  17.1675428391    7.3757243493    3.0684261082
   3.6579201125   14.7841060033    6.3048634303
  15.5497177273    4.4445932306    5.1650276790
   8.6796763653   18.2645922748   15.1800623606
  17.8960421620    5.9899897151    3.7314472023
  12.8472815579    7.2002969195    5.0230203713
  13.7465962698    9.8366672370    1.6826273140
   1.9017998811   14.6155044763    5.9273166087
  14.4046884543    7.7271896469    5.4844436045
  12.5425930357    5.9555169496    0.9435293268
   9.2438794249   13.0733482183   16.9365266319
  -0.7809634637    6.8914467816   14.0470800014
   9.5497139227   11.0569977908   17.9973611318
   9.0416323264   16.4909753597   15.2037580904
  10.4999253245   13.2043374091   18.0347027100
  16.2077689391    5.1580991624    2.1450249283
  11.0290186209   16.8805245999   13.8243941035
  16.7628502843    6.3075910898    0.8741998549
   8.1933646609   11.5450861467   18.9536284653
   2.7139842792    9.8799849557   16.4070837129
   0.3393475535   13.7407690984   15.8210868824
  11.1753735286   16.7053677086    4.6725724418
  13.3621928761    0.1720721825    6.9466350012
   4.9227711554   10.2750208934    7.6257500534
   6.4632479822    9.6390835615    2.7421835142
  11.1893949069   18.5575473729    8.0142560625
  17.2441604000   10.5707763027    0.3370976828
  -1.7942091436   10.3798530212   17.9004345959
  15.5377309372    4.9598905120   11.7004271734
  17.0683276449   14.0270714927    0.2141436331
  15.6885311314   12.6702327795   18.4248592698
   0.5658055300    0.0883342681   12.7494018778
   3.4689434920    1.1574246550   12.8336816281
   0.5583893252   17.6666159868   13.4064222856
  -0.3584217110    0.8303635194   10.7038434913
  11.0650049218   17.3475108589   15.5853743985
   4.7260039173   11.1858831516    6.0607989884
  -1.9524771436   11.4560680018   14.2568810520
   9.3326694711   17.0540497975    1.5509675532
   2.4168475886   10.1343783982    7.4627509267
   2.1851063055    9.5283072184   14.5743113719
   9.3436726401   18.5882934030    4.7701856409
  17.1591366875    8.3249826746   17.7536500547
   1.4862353083   13.4008840594   14.4514441097
  10.6848658337   11.1897752598    2.4380677113
   2.3676110680   10.9299746316    5.9174700685
  15.4887954967    0.2791628208   13.9969929239
   6.6924563051    8.2920451290    3.8297737765
   2.3220396920   12.8474489165   16.7295105573
   2.1482284207   18.4233477500   12.8613761265
   1.2308495258    0.2542212579    9.8093226178
   9.9599443451   15.5929510158    5.2168295985
  -1.0949792776   10.8820128270   15.7054016685
  16.8312423591    3.1812664514    0.4755644202
   3.8263650594    9.6911178020   15.0645270272
  16.3915663099   12.5936732215    0.9924707816
  11.6467067355   18.6337582624    6.3416889998
   5.0183672773    9.0971710763    3.7795028575
  10.5163602925    9.9424633603    1.0809355754
  15.8473290121    4.4236076860   18.7960342370
   7.0104581194   10.1194412914    6.6672939021
  15.1052872668   -0.0155260057   15.7305633477
  -0.7210449004    8.1507000425    0.1358674043
   9.3870306311   18.4606506699    2.6382118043
  -0.5021132801    7.1544956486   18.0142399613
   2.9590086242   -0.0265655549   13.9286008910
   0.8425649997    1.5659686319   13.4822105530
   1.1105593216   17.3515364160   11.9060095751
   0.5396114429    1.8989118977    9.5505202358
   0.3981605480    9.8323194769    1.1434359195
  17.4058755146    3.6866243470   18.6153124177
   1.3077055824   10.9592721421    0.0984866847
   1.2398828792   11.4583610832   16.6721407414
  13.0692733820   18.5497027170   14.6268383468
  10.8658055779   17.6177488746    2.4672052519
   1.6765643613    9.2292369320    6.0979436137
   8.1925539711   17.1553851451    5.5474332930
   6.3101238774    8.5358492643    6.0579904445
   9.0737163773   10.9757504839    1.4312307277
  -1.8812109500   12.5682106124   15.6915542842
   5.2182058422    8.8712617326    0.1161669677
   9.4709789102   13.9737782654    7.4972040035
  14.3978211451   12.8445791166   13.8549353727
   3.8061969691    1.3540374076   17.3019892098
   2.7131962787    1.2592332474    0.0209173339
  -0.7289428472    5.4996414112    6.6405891613
   5.3062521138    5.4337747146    1.3014151616
  -0.0754721462    3.2351755243    4.5021974341
  10.3355436880   10.6767316309    5.8317211723
   5.3037298655   16.7656764373    9.7877307404
  14.8953402143   19.6981294296    1.8411054556
  13.1717783500   11.7668232026   16.6590660763
   2.9676000171   15.6660589618   19.0999200016
  12.6273454301   16.0003631074   16.5922155773
   6.3930092892    0.2787625306    9.9767404379
   3.5270234240   14.8739029649    2.5908222800
   7.4735456921   13.0204086210    2.3146920138
  12.9991421235   19.3039329583    4.3890837261
   5.4971684294   12.9011667337   18.9182524745
  -1.4444832762   15.8458110100   10.4513824210
   4.4373529484   18.7744210964    4.5173378680
   5.4084391061    1.1006088391    3.2703903083
  13.3074552018   14.8276282041   19.1609092800
   6.1438143327    1.9527771107    6.2826533284
  14.7113932359   17.7449413862   11.7430466476
  12.9977372830   14.8341197961    9.8482033919
   3.3407857180   14.9774608614   13.2356929569
   5.4873491985   17.4313980045   14.1743166395
  10.2191950980    2.5732604740   15.4051519799
   9.9168600954    2.6688234005   17.7144134144
  -0.0879384566   17.4205527819    7.9761462873
  11.0398031525   13.1963707392   11.1945731226
  15.1403769350   13.6590289134    5.6269421548
   2.1790379595   13.1769398250   10.5840985570
  -1.4111697748   12.0385284519    8.9490651695
  17.4297556413    9.5140446435    6.3079895079
  11.5387092003    1.0715487802   16.8329220038
   3.8694175115    4.8233146813    6.4860829939
  -0.2482742798   17.6532293016    4.4195679520
  10.1793114513    6.7804624166    4.8569408073
   8.4079697737    5.3610355527   15.4828280277
  17.0478070630   13.1577810972    3.3427007241
   2.6473638000   13.5059089071    7.4446576208
   9.6391861373    6.8827639703   11.9179098076
  14.4559276188    5.9939050585    4.3284121997
   0.1263427940    6.9960662918    2.3146157459
   0.4203523620    5.5776935314   12.1988201595
   8.6498474662   14.2409162825   18.5511803055
  11.3331215771    5.7429805884    2.5123489359
  14.9206616400    8.6161576539    2.9474296448
   8.3798221095   17.1949464703   13.4165094516
  17.5685391444    4.2603981597   11.1726937422
  17.1062511381    6.2623015751   12.4070779987
  18.0891812190    4.7043001883    1.1257676057
   2.8131497906   11.5156160239   15.2189434585
  11.0360323789   19.0429414060   14.1855194721
   6.5455754556   10.1053387345    4.7471203436
   9.6261946941   18.0307955913    6.7857756804
  10.6054468438   12.0108178034    0.5801749440
   0.1696847075    9.0606968640   18.4731075538
   0.3677276037   19.2053626537   12.0571969682
   1.2879778593    1.7196943605   11.4413285793
  -0.8525422682   12.3018336477    0.0026470890
   9.4952121205   16.2953654804    3.4197736205
  -0.1344731914   12.3006130943   14.4651114892
   3.7684122723    9.3119594005    6.1111996351
