B2 C140 Ca1 F48 H298 O66 
1.0
1.8995084014495703e+01 1.7687008011674504e-16 9.3565046944766527e-17 
-2.6937812733976139e+00 1.9767075531471853e+01 -2.6964124545997220e-17 
-6.6041996681857806e-01 -1.9850193358216994e-01 1.9304860279791910e+01 
B C Ca F H O 
2 140 1 48 298 66 
Cartesian
  10.4658888115    2.1019555879   16.6460502566
  -0.9463476902    5.3907094035   11.8878281197
  18.7411573806    0.3201334640    1.0661962809
   8.2046079320   14.4561177237    7.1882129825
   5.6993314593    6.6902642526    0.7646661580
  14.4113247748   13.0103895515   12.4583827444
   4.0564764572    1.5471338415   15.9706619785
   2.4039771550   -0.1277683819   18.7612535467
   1.2078126531    2.6813050357    4.2941830711
   3.2177610738    0.0405421154   17.3963148889
  -0.3414013874    3.2011724018    5.9482646477
   4.3016394521    4.7883382327    0.6085279571
   2.5736727472   15.7395332795   17.6420630374
   1.3638982388    2.0438876250   18.4598187360
  12.5647325705   14.9456406942   15.5645074319
   4.6593633443   10.2136258999    0.1854781239
   6.4313525919   16.2584362615    9.0998475318
  14.2434874861   11.4982440727   15.8795667070
   9.5271953438   11.4365892464    6.6811082023
  10.0275057624   12.9237944932    6.6144728733
  14.1099795646   11.4794355377   14.3230168593
   4.5888747600    7.7139387835    0.6813977407
  12.1982111237   10.6802092698   16.9161670072
  11.5040332161   10.2457958434    6.6194369693
   0.1849426229    4.3354515444    6.7696987885
  -0.0768469450    6.7432793144    6.7526404643
   4.9100834160   18.1165652418    9.3064637367
   2.6544062858   16.2617470951    0.8076888730
  17.3633526158    0.7570994319    3.0019657010
   4.0388767063   18.8057365369   10.4309073384
   2.4493941971   15.1299090924    1.7827306930
  13.9770708702   16.0626374585   17.1263164851
   6.1555738072    1.1766815916   11.0218952265
   7.7130841925   12.9093609900    3.7042735651
  15.8574424311    0.6816992111    3.4544349019
   6.2740585486   13.6713730366    2.0039423865
   6.2740770487   14.1283140243    0.5539942898
  -0.9177664627   15.0316530925   11.4956149260
   3.4654407814   13.6646691189    3.3163483786
  14.2049089317   14.8321861951   18.0647199886
   5.5956826858   13.3756663495   17.6091282824
   4.7342363966   17.4348039245    4.2634716121
   4.7414310170   19.5890580925    3.3983130821
   6.8536445356    1.1652371604    3.4351474969
   4.9713051080    2.1291173655    2.3090606217
  -1.9965665822   17.1170722874   10.9851769199
   6.4340803705    0.8626025830    7.0951064128
  13.2997239287   14.1593802254    8.5998565332
  15.5421154337   17.1311427101   10.6108694107
   4.1025457572   15.3475683216   12.0170592157
  13.7855546340   18.0802949191    4.1054724709
   7.5483516734    2.2435965458   17.9192218612
   8.7924540540    4.3417945404   18.7685078067
   8.6336529613    3.3096662565   17.6590954403
   4.1737277795   15.3593862436   14.3554447724
  13.3381447316   17.9297552137   11.3844791530
  11.6369181361   15.2869519031    9.9764624681
   9.7445155724    2.2472891049   13.0482579217
  14.2579049175   15.7459183633    0.9953509518
  14.0880009122   12.7100345207    5.4072579321
  10.9858578221   14.6298684049   11.1220219242
   4.8858224348    2.6415503515    6.5615744753
   1.5919723150   12.5851614625   11.6973070364
   4.2888697617   16.8589622994   14.7023919629
   1.1180819428   18.0555563002    7.8953455223
  10.8338169529    2.2238290465   14.1539929494
  12.1181799836    3.1591228963   13.9423991891
   4.9876219452    4.0051249434    6.0034610667
   5.5549498842   18.8668447398   14.2169904583
  10.2906508679   12.5531824311   10.2040189964
  -0.5910137620   13.1554073940    8.4675156867
  17.0187826044   11.3151297480    7.8763860929
  -0.7672151712   17.0679447119    6.6969780617
  -0.9685736027   10.4782912051    7.0422492332
   6.2506590714    6.0235407496   14.6914110275
  15.2674126433   14.4232628638    4.3400346798
  -0.7127186747   18.1597525505    5.5959187070
   2.9932167405   12.5223304394    9.6728370222
  16.8909386906    9.8650857979    4.9954584294
   4.0804008206    6.1878802564    6.3183353310
  12.0747554428    1.0125091334   18.1860010753
   2.4572551323    4.6040598878   13.0958677462
  10.0536590633   19.3186902117   18.3646402820
  16.7068032956   14.4753484962    3.7626620991
   7.3739550904    6.2669205849   15.7327492522
   3.5530513654   13.5698861154    8.6036198482
   9.0361873351    7.4112498472    5.4570171414
   0.3077777430   18.6626677778    3.6242588236
   7.8947218309    7.8487747179   15.5039425231
  10.5463837614    7.2074044873    9.8222658717
   1.2725197870    6.1750962381    2.6332085143
  13.0431897980    2.2707420323   18.4925650552
   2.1246715504    4.8054474641   10.6045087097
   1.3705119880    4.5753389446   12.0309199703
  10.8269143414    4.9008494268    3.5615640315
   9.6984465775    5.6547050437    4.2444055396
   9.2685189798   15.5063687095   18.2119652632
   9.6797646157    7.8034656233   10.9671825705
  13.6916651491    8.0862960473    3.4541797708
   8.8511472510   17.7945035619   12.2678598974
  -0.5478269535   13.0128983422    3.1218903559
  14.7472876512    5.1471703894    5.4421845745
   8.2762125785    7.9564692021   10.5365954008
  14.7562523136    9.6945708582    2.0312056126
  12.4603806784    5.2971698679    1.8038915435
   2.6683833971   14.7231086713    6.7575083063
  13.8319306335    7.2322969556    4.6352323883
  17.8904175310    6.5587339258    2.7558254169
   9.1153339390   17.4077733124   14.6673174170
   9.3926804069   13.1941576982   18.0245605475
  16.0766136852    7.4261992410   14.2736503569
  17.3895980358    7.2849875311   13.3935568986
  17.1606705042    5.6973031817    1.6912360666
  15.5851084170    2.7524197145   11.2637206440
   9.1886703317   11.8439187244   18.6700723030
  16.1021368785    4.2350406907   11.0213777685
  10.6551984227   17.6087724714   14.5380957433
  15.6272996258    4.6642812955    9.6245243904
  -1.1932564990    8.5930785288   12.5433118847
  10.8249386759   18.8248855115    7.0223748991
   2.7943734448   10.1486789345   15.2636511295
  -1.5682319054   10.6475056698   19.0103154749
   0.8342364994   12.9909778168   15.1881066295
  16.8788870381   12.9941370962    0.0343880429
   4.8352086604   10.1937196443    6.5323109946
   6.0798330140    9.2281251691    3.7113119607
  10.0633177030   16.5648218362    4.7667343826
   9.2567795568   17.7314577446    5.5140849154
   1.7923491594   12.1996907507   16.0553543939
   2.6797078918    0.4512207207   12.9507562285
   1.2830312287    0.8651443247   12.7323505600
   1.0412217887   18.1425416550   12.6062244645
   0.6018793451    1.1046960020   10.3153241429
  10.1723972064   10.9719949992    1.4265930508
   2.5337883811    9.9145517336    6.3921414521
   6.2225082089    9.6034237180    6.0821975602
  12.3516124234   19.2960693980   14.7280027316
  -1.0094870591    8.1501296797   18.4608148482
  17.3087153590    4.0332272938    0.1207464714
  -1.2825361218   11.8126280180   15.1122109022
   0.4264841865   10.3253568529    0.0731099917
   9.8063661653   17.3826408869    2.4725611687
   9.7116637643    5.7211091332   13.5961107214
   7.2356249996    1.5613399487   16.7348845503
   9.9042702352    4.9939249386   18.5742562613
   9.4412109060    3.5288495467   12.5982408492
   7.7367027219    1.2288521365   18.8752832178
   9.4159421625    3.9360323207    0.7205600893
   6.3955593267    2.9131356029   18.2715446451
   7.7086026873    5.2116456470   18.5622298913
   8.6305383590    1.5733813472   13.5544106141
  12.5150748533    2.9597585762   12.6188560180
  10.1623628094    1.6083393912   11.9286639268
  13.0960859713    2.8660577702   14.7931428264
   5.1236336891    6.8387725889   14.7653844423
   5.9952828570    4.7363558076   14.7994019790
  11.7699415292    4.4310299284   14.1879300670
   6.7490733010    6.1368985468   13.3880850211
   3.4754111780    3.7256619040   12.9146748469
   9.1479199872   18.3988320378   17.9944362927
   3.0651468576    5.8174674136   13.3844933551
  11.7091999628    6.7985852910   10.4038201950
   1.3194547141    5.0441866397    9.4979677093
   8.5363962179    8.0030152977   14.3237829451
   8.9775127292    7.9931783091   16.4047793183
   1.9694925105    4.1429848759   14.3377956580
  10.9530352178    8.1961070841    9.0116116789
  11.1558650365   19.2530474629    0.3386481200
  14.1528408671    2.0053509482   17.7872453372
  11.1292693664   19.2163695236   17.5490822027
   2.9308188574    3.7921236503   10.4838296911
  10.0413870146    6.2116184850    9.0309639088
   7.4883524038    8.2474879538   11.6232229805
  13.9862870583    2.3736426546    0.5695007960
  12.5675951163    3.4452128064   18.2452264369
   7.0584271728    8.9017865589   15.7164172008
   2.8639802146    5.9633614312   10.6797709815
   7.8085273503    6.8004459580   10.0182764702
  16.2094103539    8.5613482882   15.0361912101
   8.0627102786    8.9498419944    9.6837403397
  14.2166791248    2.5762983225   11.0320389793
  14.9207050575    7.5052831166   13.5816634623
  16.2794122190    3.8283991104    8.8012547314
  16.2403728943    1.7404151282   10.6181321780
  16.0145913099    5.9002515447    9.1823340920
  16.0014149120    6.3922437519   15.1896184436
  -0.2045334477    8.2866352967   11.7431555523
  15.8222112706    2.4904198313   12.5888991710
  -0.7311306596    9.6220743313   13.2966252142
  14.2216843106    4.5260042657    9.5053019711
  16.7790884490    8.9809991302   11.7463828155
  -1.0860706115   18.8660346790   18.5123253221
  14.9882702884   12.2450899027   16.1196070547
   1.3881441845    2.7572125017    3.2289893331
   6.5325654075    7.0061645093    1.4274415860
   6.1855866430   16.2487918820    8.0036673990
   9.4089952691   11.0656654620    7.7595329713
   5.7256951039    6.6418765121   19.2593991321
   4.5643484089    2.6183763870   15.7688746127
  17.5690429025    3.1421741540    6.0677209180
   0.4549014708    0.9645433599    1.6868991167
   2.2750846941   16.7421986568   17.2939862898
  18.3478000158    0.7558480021    0.1571860416
   8.1667508632   15.5886244034    7.2841174076
   0.7993996896    1.4496259289   17.7285468118
  -2.3122712152   19.2262525999    0.7486523822
  13.4416821876   12.8768848064   11.9533385709
   1.3735508718   19.1048401903   17.2794435148
   7.8542527350   14.2625622325    6.1848964636
  13.5515319451   14.7115760506   15.1845569365
   4.7690549229   10.5608471182   19.1833258772
  15.3426471930   12.5504047548   12.0155139450
   4.2535685767    3.8631404473    1.1830934691
   3.3560668534    5.3416317675    0.6509631586
  12.7256352241    9.8210344905   17.4283663684
  12.1980503056    9.9342970843    5.8801820311
   1.2821960309    1.6212267674    4.6184595161
   0.0689259368    2.2965611084    6.3102680372
  11.0948045275   12.9172281178    6.8206258590
   3.1867799754    1.5751948983   15.3155593744
   5.8721927850   18.8043133270    9.3489208676
  12.1376284198   14.1175385375   16.1434950338
  13.1717888727   10.9701347060   13.8110819236
   1.6407017349   15.1515746842   17.5670067459
   3.3813990630   15.2913075328   17.0367359874
  11.9827467573   15.3968907415   14.7096124557
   7.3184229579   16.8758130604    9.1525626201
   2.2023296637    2.6165925367   17.8929569704
   2.8798615165   17.2193723432    1.3077160052
  -0.7508254203    7.4656191271    6.2528324604
  14.7516506099   10.5612579748   16.1258484851
   2.0221249551    3.2763553598    4.6871881718
   6.4849056064   15.2020421028    9.4246800356
   8.5975276567   11.5909291467    6.1596981395
   4.4892196137   10.5995745454    1.2471839428
   7.4910491855   13.8988163937    7.8599790780
   3.0404491141   10.1414094930   18.9110942670
   3.9291437399    4.2872854099   18.8419465143
  14.6873369053   14.0987614033   12.3493836663
   0.9910762099   19.3414257797    0.2194641812
   4.7474698754    0.9015092779   15.5987143410
   0.7141199991    2.8928534100   19.0390070667
   2.5753123841   -0.1669362566   16.4303529504
  17.9633612497    0.3949900524    3.8544313003
  17.7423653029    1.7875000641    2.8004933773
  11.8436188179   10.3101486783   16.0419941934
   4.2675728891    7.8887888170    1.6724114353
   3.0627127739    7.2149035951   19.2890737815
   0.8395822139    6.8524059332    6.1067112058
   1.2939332513    4.5833367649    6.4772840761
   1.6617453696   16.4066269969    0.4417971031
  11.8071335753   11.0230533130    7.3509627657
   4.6561769448   18.7919876662   11.4168889410
  11.1785226743    9.3958442010    7.1941106033
  11.2951221288   11.0968102877   17.4979037656
   9.8102664279   13.3251117943    5.6165636683
  14.8018205292   10.8263583991   13.9112662447
   4.4385904788   18.0129652273    8.2998780252
   7.9486741153   13.9960874701    4.1785774233
   0.0366712521    4.1058771518    7.8345993491
   0.0236205224    7.0603323902    7.8024624601
   6.1174261770   14.6367720529    2.5905717044
   7.1063592464    1.4544554308   11.5769791030
   2.1102248387   14.2372554083    1.2916392151
  13.9181734911   16.9428777438   17.7688677498
  14.7419596328   16.2084832499   16.3378628046
   5.4776036278   14.9101706449    0.3844505074
  -1.7094873175   14.7404577425   12.3207610511
   8.6157637364   12.2112317008    3.7882741963
   5.7498382073    2.1292969841   10.6200567151
   3.1588745899   18.2112536424   10.5296657090
   4.6382201987   13.9548172339   17.2960761039
  -0.5410467086   14.0676543372   11.0767213129
  15.1433087001    0.4105710718    2.6090950048
  15.4695652861    1.5256441087    3.9129986849
   5.8366506619   17.3329274865    4.0995298299
   6.2795556172    1.1015508630    8.1783793987
   4.5145478138   19.0697282065    2.4674864234
   1.5652705330   15.4765509825    2.4705445628
   6.9212909787    1.5789498330    4.4780662671
   3.9023259328    1.9127412051    2.1576041082
  -2.0751138189   16.9808959163   12.0805303881
   2.4651878527   13.7370678468    3.9245231273
   3.3109402252   12.8472456611    2.6280077306
   6.7960709415   12.5576168858    4.2866292111
  14.1126449184   13.7881891132   17.5444459717
   5.2760229274    0.7318201646   11.5892051872
  15.2573902034   14.6514935263   18.3321261246
   5.7218599041   12.5253410833   16.9158422617
  12.4431814360   13.9940593996    7.8874799544
  15.3817275869   16.1551406532   10.3600668386
   5.3163786534   13.1123050340    2.1004175570
   3.6194893454   15.0135257809   11.0498152353
   4.1021448020   17.0678725710    3.3939667200
   5.1397651467   14.9871223856   12.0859398991
  13.7575851327   13.1970817627    8.6928907868
   5.4124592117    1.9467221467    1.3148548943
  -0.0093398144   15.4833954278   11.9202151459
   7.2176755487   14.6958565329    0.3908823092
   4.2840231755   13.6655862687    4.0104160976
   7.5628785348    0.6961385155    6.8324700416
   5.8824941564   -0.0264731087    6.8614436354
   6.4026496470   14.1505007986   17.4801369782
   8.5585396924    3.8185198757   16.6524447377
  12.9313936348   18.5171697815   12.1699199384
   3.6694792326   14.9470862597   15.2727533502
   5.1803398544   14.9309709080   14.2383020224
  11.0526308127   15.0383960473    9.1137326565
   4.1257500801   16.3939322981   11.8265434559
   4.4377685460   16.8852115477    5.1512041847
   5.8364398443   19.6765102915    3.3947158555
  -1.2490776535   17.8887405775   10.5747002079
  14.4769091198   17.9043016821    4.9018377804
   7.3166999463    1.8021996144    2.6912097244
  14.3666729516   18.2380735949    3.2428313373
  12.9315628230   17.3574942496    4.0791617820
   5.1914429052    3.1960299204    2.6309354315
  13.9145112145   14.7517862225    7.9411026436
  15.2304950583   17.6716298166    9.7654808037
  11.4422742878   14.9370703657   12.0751303099
   1.1257132231   19.0104484446    8.4014314160
   1.2047602064   13.4092243808   12.2671601879
  14.1522180918   12.0195144420    6.3261233688
  14.0657316838   12.1115381671    4.4829272945
  13.3142085057   18.4300305749   10.3903279207
  13.4595575695   15.3506126822    1.7263707005
  15.3912970576   15.6615140887    1.1923278472
   0.8222342844   11.9589226740   11.3184844009
  12.7762310808   16.9292532455   11.3278511353
   2.2570345808   11.9892790735   12.2565075366
  13.0331534016   13.2409161342    5.3830844568
   3.9883876284    1.9871236265    6.2800884999
  11.6288225038   16.4201167101    9.9702960852
  -0.9969274368   14.1020691091    8.8486389816
  10.0993604981   11.5565124637   10.5373798960
   4.8807190838    2.6908407864    7.6318687308
  14.0311537945   16.8170346461    0.8599091158
   4.9963518639    4.2297698346    4.9179360292
   5.8640879253    4.4871719446    6.4356848760
  16.4040986843   11.9834141016    7.1511160811
   6.3848059076   19.0929606543   13.5639690707
   1.4120285729   18.2663471768    6.8248687685
   1.9968903738   17.5490744950    8.3331449164
   9.9230694686   15.0048410879   11.1123741152
   4.2540515169   17.0480707215   15.8176857622
   3.3384190628   17.3865907801   14.3365764321
  -0.6175359368   13.2569181963    7.3540222976
  -0.4105130906   11.1526988475    6.3748931156
  11.1482938820    1.1734362877   14.1616854992
  14.5968034530   14.0317748099    3.5500712976
   5.8031027656   19.1514647594   15.2119332962
  10.6962445293   12.4473563238    9.2200308522
  17.0168551817   10.9754747581    4.7335366176
   4.5818257895   19.1991148536   13.8952503696
   0.1205704324   18.8510985821    5.8390265718
  -1.6533043624   18.7598943004    5.4993972376
   9.3598615260   13.1695424324   10.0689545364
   2.4153623929   11.8151187009    9.1042615258
   0.4617377430   12.9749991178    8.8382598533
  14.7953781781   15.5309805292    4.3624537772
   3.8670500741   12.0317203973   10.1558582488
  -0.1996476079   16.1845894872    6.2969499099
  11.2804056019    1.0603158826   18.9844038354
  16.2264267512   10.8088239262    8.4706028497
  -1.8100448518   16.7445905382    7.0920446183
  15.8456232994    9.7080392627    5.0158901706
   3.4055942536    6.6394821359    7.0312499431
   9.3265000167    8.3459760932    6.0502457348
   3.7666365704    6.6546715465    5.3197484842
  -0.1802261975   10.0496784452    7.7326871382
  -1.6660020258   14.8222774876    4.6064512699
   1.5217216164    6.0176031992    3.6690401540
  17.4522672482    9.2935520842    4.2347012981
   0.2805524042   18.3835516616    2.5844870903
   1.4390753599   18.7835502264    3.8210034749
   3.4177759308   14.7261238535    8.9627953843
   1.1412674663    5.1690137696    2.1223171448
  16.8086645197   15.1202840158    2.8765870665
   4.6096691433   13.3744219398    8.3145609121
  11.6003848678    4.6626736816    4.2112542666
   6.9182500357    6.2670003780   16.7576135900
   5.0797540036    6.5200867277    6.4285254152
   2.1086035642    6.6066826192    2.0722401191
   8.2386174987    7.9041943907    4.7311624314
  10.0895245425   15.7320005677   18.8449660536
  10.5248571956    3.9050275252    3.1329310172
   8.5480579725    6.6369421247    6.1670046889
   1.0030696541    3.4367779987   11.9572710488
   9.0754209333   18.8258028083   12.3892523549
  13.2371252644    8.9792959918    3.7746805552
   8.4568763593   16.2011751679   18.2164792989
  13.8614329625    4.4670528023    5.8098142634
  13.2075147877    7.4471808153    2.6627855742
   9.8402569423   17.3333514094   12.0318666131
  -0.2000110009   19.6168854430    3.7155520917
  15.3969824665    9.4828973366    1.2016371181
  13.4058997386    5.5536648758    2.2800363948
   8.9549506235    5.9284006485    3.4491022653
  -0.0018009550   13.1912556601    4.0725367650
  15.1561530219   10.6409350058    2.4586147206
  12.3573595011    4.2038134694    1.5210538915
   9.6394153611   15.3271429492   17.1367484799
   9.1232993788    4.9345816829    4.8910245038
   8.0865682635   17.7461090752   11.5599317505
   2.5316900850   15.4915497253    7.4559866736
  -0.3276841187   13.7642741860    2.2849042258
  10.0583600907    8.7650339088   11.4296218558
  15.1357703309    5.8079429905    6.3478634592
  -0.3946683222   12.0050849529    2.6762963283
  17.1511949621    7.3801047425    3.0682722144
   3.6847701573   14.7911210610    6.2827930692
  15.5447140656    4.4565263031    5.1542466246
   8.6976119865   18.2743892054   15.1639881145
  17.8783906887    6.0038948275    3.7191968227
  12.8213666936    7.2153816387    5.0129299265
  13.7416761447    9.8371670831    1.6777690713
   1.8745351600   14.6062989731    5.9107779907
  14.4011752822    7.7043924314    5.4625224052
  12.5432064968    5.9659609185    0.9285977340
   9.2434753687   13.0719974360   16.9441555113
  -0.8002295914    6.8779346066   14.0157626458
   9.5462150970   11.0499310738   18.0156800422
   9.0664591844   16.4838977286   15.2313223011
  10.4770787576   13.1707164971   18.0530414818
  16.2124961233    5.1993484697    2.1444716153
  11.0176616393   16.8797835292   13.8161665086
  16.7621803986    6.2976744392    0.8872392866
   8.2032718622   11.5344751206   18.9452688677
   2.6888826109    9.8760065285   16.4213805796
   0.3438528464   13.7067002487   15.8034182052
  11.1887738998   16.7125625090    4.6864187162
  13.3494798662    0.1666147139    6.9491867463
   4.9297823190   10.2865678289    7.6244245350
   6.4781980404    9.6343142442    2.7521239228
  11.1967250507   18.5749027684    8.0033220854
  17.2526459911   10.5816529819    0.3470349674
  -1.7961304005   10.3969276403   17.9200841732
  15.5552965799    4.9689108030   11.7185278410
  17.0577898977   14.0445862004    0.2063483677
  15.6545542279   12.6730010974   18.4192991743
   0.5893403718    0.0998130512   12.7501413465
   3.4743207360    1.1530663589   12.8175898696
   0.5500440607   17.6765092771   13.4256353582
  -0.3356969188    0.8249760308   10.6941471555
  11.0506739278   17.3275325481   15.5788897698
   4.7197619224   11.1914565846    6.0777169841
  -1.9752699584   11.4528817305   14.2554647251
   9.3584000965   17.0359917094    1.5530677571
   2.4357210659   10.1054773918    7.4673259850
   2.1945924824    9.5168928032   14.5860115499
   9.3448281690   18.5898361304    4.7688007207
  17.1520321465    8.3361726246   17.7502939093
   1.4764842012   13.3956709412   14.4680635717
  10.6938369671   11.1984209142    2.4274148321
   2.3651528544   10.9245928902    5.9099978877
  15.4886819535    0.2653626094   14.0104279685
   6.6656427423    8.2906129202    3.8354650850
   2.3316230067   12.8449587707   16.7564288191
   2.1249283886   18.4259484575   12.8561160290
   1.2130742116    0.2489416504    9.8150372493
   9.9752325021   15.5895854837    5.2095937310
  -1.1191449901   10.8960540102   15.7046759528
  16.8382049417    3.1615604694    0.5009657238
   3.8113295409    9.6693171729   15.0901325664
  16.3923296758   12.5807502385    0.9749050758
  11.6334690560   18.6353461881    6.3653106041
   5.0235742506    9.0777903481    3.7947186779
  10.5119376594    9.9411153839    1.0828790010
  15.8591473973    4.4224038868   18.7782100645
   7.0032261011   10.1192147902    6.6904868909
  15.0988121127   -0.0096968150   15.7203324411
  -0.7316376636    8.1748397383    0.1361074466
   9.3911764956   18.4536101066    2.6526465639
  -0.4966639316    7.1430098588   18.0398199200
   2.9455865390   -0.0335231107   13.9263768330
   0.8042222861    1.5685346296   13.4849886648
   1.0997445984   17.3335723950   11.9050654123
   0.5438564145    1.8891209536    9.5468813186
   0.4172657042    9.8241251966    1.1327596462
  17.3909107231    3.6736194395   18.6274277729
   1.3172520123   10.9698949572    0.1057878253
   1.2277745693   11.4529777836   16.6920152364
  13.0582530298   18.5558992726   14.6493954807
  10.8732723019   17.5844521884    2.4838778135
   1.6795201952    9.2312321922    6.0790141977
   8.1910624600   17.1599705700    5.5738954959
   6.3094091209    8.5314894116    6.0665934797
   9.0378616933   10.9716728274    1.4260116085
  -1.8773048962   12.5516613319   15.6787221701
   5.2269597008    8.8740548443    0.1239086539
   9.4706869550   13.9697182233    7.5036408352
  14.3936848675   12.8436454964   13.8544160737
   3.7900111132    1.3361433098   17.3061251243
   2.7095305358    1.2623162858    0.0235805584
  -0.7229951921    5.5055646781    6.6438818050
   5.3154764930    5.4359409260    1.3019559749
  -0.0697539263    3.2281452161    4.5059095811
  10.3316458612   10.6692620576    5.8263611094
   5.3077534794   16.7562666868    9.7877378115
  14.9058287692   19.7009991415    1.8419641037
  13.1659875524   11.7646982252   16.6665485923
   2.9526060155   15.6598108544   19.1106950056
  12.6248051674   16.0083443344   16.6012523164
   6.3806697801    0.2826556462    9.9788190352
   3.5404792855   14.8731441329    2.5917501457
   7.4893673269   13.0174828125    2.3184027547
  13.0176274691   19.2985372151    4.3960421880
   5.4881169988   12.8954754332   18.9230539134
  -1.4490740767   15.8380904109   10.4543136087
   4.4481114634   18.7701701213    4.5132608576
   5.4095897527    1.0954351659    3.2686644201
  13.2942884629   14.8248528637   19.1598902111
   6.1429338302    1.9410934924    6.2918531175
  14.7061653887   17.7460298771   11.7529562830
  12.9873320836   14.8155138037    9.8478142629
   3.3410777766   14.9781721349   13.2453330076
   5.4885933530   17.4226773763   14.1699116734
  10.2053280056    2.5763609720   15.4191550555
   9.9031357582    2.6594696912   17.7210849486
  -0.0753843647   17.4060760698    7.9805433145
  11.0413597136   13.1917276486   11.1911952934
  15.1380443676   13.6657866381    5.6226956256
   2.1708366460   13.1771391675   10.5831102960
  -1.4130051622   12.0325737252    8.9571672075
  17.4313757649    9.5125774053    6.3139530969
  11.5228662089    1.0702102844   16.8327032758
   3.8716023842    4.8108133299    6.4826609819
  -0.2381935511   17.6451533186    4.4183532936
  10.1830118539    6.7816411190    4.8565925047
   8.3890749426    5.3475995804   15.4897026020
  17.0529858336   13.1525310576    3.3488505162
   2.6433709292   13.4989994945    7.4416303851
   9.6374263750    6.8823795960   11.9177359848
  14.4570161090    5.9987620722    4.3332947749
   0.1366111728    7.0026152562    2.3160751909
   0.4111118041    5.5683909198   12.2023735970
   8.6446362458   14.2300863551   18.5551395734
  11.3343228565    5.7461511575    2.5092669393
  14.9184308941    8.6195993015    2.9502296806
   8.3842729845   17.1994322224   13.4195474873
  17.5698385807    4.2577529497   11.1796001353
  17.1017887486    6.2606645666   12.4175392055
  18.0966659815    4.6965644452    1.1262624491
   2.8043550406   11.5109804530   15.2279585474
  11.0354147314   19.0349487325   14.1942808004
   6.5478871357   10.1014869502    4.7547736290
   9.6338717855   18.0303281635    6.7851784209
  10.6020787896   12.0067867868    0.5797967890
   0.1596893662    9.0615405930   18.4807252072
   0.3754962133   19.2087120446   12.0630241326
   1.2817230519    1.7134091543   11.4436711187
  -0.8435444088   12.3007689578    0.0026242309
   9.5036261857   16.2854416144    3.4251534806
  -0.1325087214   12.2887686397   14.4608559060
   3.7686819661    9.3143564668    6.1128046587
