B2 C140 Ca1 F48 H298 O66 
1.0
1.7949439539500883e+01 -2.1176794938833945e-16 -5.4798122412272039e-17 
-2.2791605964040280e+00 1.9361601976436564e+01 3.4710704961120149e-17 
-6.4071656611758743e-01 5.1897961070760135e-01 1.9653814069381546e+01 
B C Ca F H O 
2 140 1 48 298 66 
Cartesian
  10.2594511882    2.7806743794   16.9465869674
  -0.8901841645    5.8941559408   12.1700165903
   0.2203177039    0.6510092260    1.7034276757
   7.5014610290   13.9646329158    6.8446623557
   5.2771816450    6.2826726228    1.3075298954
  12.6257532401   12.5663484372   12.7274189066
   4.0040961453    2.1674276006   16.0366603990
   2.0315337777    1.4121904598   18.9171480168
   1.5929631678    2.5743783648    5.3332529198
   2.5380301122    0.9262486966   17.4924337392
  -0.4972096231    3.4849473994    6.1988702949
   3.7179369091    5.6831392546   19.0450192410
   2.2792831332   15.6188085676   19.0331285261
   0.5289286005    3.2692178843   18.3577606802
  12.2408512312   15.4020057490   15.4889463882
   4.5053937200    9.7150228651    0.7886504510
   6.4683751689   16.7230702325    8.9639403750
  13.3334794175   11.7201042293   16.2653162403
   9.6138266705   11.5708182870    6.3184984037
   9.7514655377   13.1724053947    6.2127841727
  13.3700816763   11.5692123623   14.6991429333
   4.4360166671    7.5315580976    1.5932939197
  11.2299349958   10.5881004170   16.8431840687
  11.8557724704   11.1556273739    7.0556236060
   0.0067902158    4.6734116683    6.9636033359
   0.2337723458    6.9599981053    6.8496797006
   5.1554544900   18.5721505430    9.6743469828
   2.6084562967   16.0097303389    1.5836108055
  16.3958723126    1.6280018246    3.1527770802
   4.0675137953   18.9172686600   10.6159535098
   2.1785428984   14.7097376875    2.1187457105
  13.5169629021   16.3512970339   17.2770376963
   5.2957073046    1.7472578810   11.0858642611
   7.9182781664   13.2402257573    2.9208020825
  15.1784603080    1.0743906549    3.9103558361
   6.5370087546   14.1216632302    1.1387310940
   5.7825276994   14.4432675230   19.2787543112
  -1.5980097961   15.2522544050   12.3896514573
   3.0754318361   12.5912111869    2.6280290381
  13.1491365540   15.3974660760   18.5264999338
   5.9557551249   12.7248354940   17.7030088397
   5.7036777437   17.7900891597    3.7669546273
   7.1378804617    0.2873809775    2.5778648683
   6.0756765503    1.2930364440    2.7885704644
   3.9511212779    1.9056480701    2.3839325344
  -2.0819445591   17.1088822234   11.1073489046
   5.9960298728    1.1196141822    6.4717586476
  12.6566444347   14.9236567746    9.0683267388
  14.3680597033   17.1685858280   10.7287016679
   3.6438160161   15.3305516092   12.4306657321
  12.9903813141   18.0750327064    4.2942490167
   7.1191339206    2.2505804858   18.4816567429
   8.0658195538    4.3822933586   19.4261210866
   8.1652042064    3.4112479797   18.2140318673
   4.3462964307   15.1076888948   14.7464515582
  12.6421244570   17.8280181329   12.0859205440
  10.5139849041   14.6150616086   10.1004158681
   9.4358884209    2.5625142007   13.2685555220
  12.6988662603   16.1502121243    0.6826320668
  13.1318473756   12.7065438004    3.5867309634
  10.0092447880   13.8433204903   11.3084781913
   5.0632082681    3.1617185959    6.6490745995
   2.1343537873   12.4539391407   10.9614022743
   4.7612349392   16.4418664276   15.3702855802
   1.4422900255   18.4631766295    8.4787280423
  10.4343123750    2.7179595991   14.4812003078
  11.5088595460    3.8668261912   14.1742797719
   5.3285147376    4.6067079051    6.5444511428
   5.2774315920   18.4967303248   14.2866733604
   9.7090711100   11.7602759254   10.1474373378
  -0.9617265208   13.2783393506    8.3256619337
  15.7235087479   11.2029102148    8.4074420404
   0.3171551527   17.0825912494    6.7160153383
  -1.1376062468   10.1962308618    7.9078708781
   5.5112183570    6.6169332102   15.7409690913
  14.4658598047   14.7252324816    4.3430576595
  -0.8304786188   17.7013136484    5.7990056457
   3.7919003471   12.9255483354    9.2967455921
  16.3210966760   10.2140269534    5.5951042443
   3.9364650548    6.2653022543    5.5201313769
  11.9188112430    1.9515155508   18.6075901133
   2.2170957690    4.8163350232   13.4157960920
   9.9173077741   19.7812834941   18.7579603983
  15.8135795503   14.1648105497    4.6568061285
   6.9162047791    7.1071786749   16.0926765872
   3.8644119021   13.6670592332    7.9989636604
   8.0024396910    7.4307510725    4.5417383889
   0.4936417795   18.0370226811    3.8169953079
   7.2454731814    8.6708558610   15.9468689452
  10.1726113619    7.5084239553    9.6712729828
   0.7610374475    7.6659408022    2.8844338105
  13.1388130207    2.8488340822   18.9855156860
   2.0919408193    5.4453366556   10.8297820074
   1.4197743872    5.0725766016   12.1260622873
  10.7189393791    5.3580970376    3.2554407828
   9.3140246253    5.7416305191    3.7747483516
   8.9648329059   15.2349976962   17.5750712472
   9.1946817129    8.1067546661   10.7925501682
  12.5649840962    8.3223353777    4.2912244352
   9.0463479645   18.5021621402   11.7788251149
  -0.4679436637   12.9881967664    3.3780416670
  14.2100328652    6.2135939831    6.5577126068
   7.7159175691    8.4796922919   10.3896213833
  13.4646101991    9.4186778287    2.3135338217
  12.2984908154    5.4718407938    1.5927168918
   2.7498069742   14.0607388959    5.7867287066
  12.7900127508    7.8518154895    5.6313353747
  16.5023613387    7.2194610473    3.3201040481
   9.0468640605   17.6493686332   13.9659932647
   9.4299381739   12.9459474690   18.3591811851
  15.2540710135    7.8273003718   14.5896632813
  16.3222629106    7.7540661775   13.5692611855
  16.1417400412    6.3692169296    2.0594820278
  15.0714840119    2.9863093702   11.2753324187
   8.8620837618   11.9626499246   19.3181303070
  15.2086265590    4.5213825677   11.3463922081
   9.9403635622   18.4040573945   14.8638441029
  14.5432104588    5.1626597113   10.1024566687
  16.4552831097    9.0921709218   12.6938314568
  11.7495021908    0.4103802368    6.9140880095
   3.0631273781    9.6917519838   16.1403897625
  -0.5644831387   10.1668229797    0.2327988588
   1.3685493719   12.9847599171   15.7695000048
  15.9651809285   12.1869656411    0.4569140477
   4.9875898342   10.2000840115    7.3563611124
   5.5119294290    9.9892844718    4.3998627525
   9.7506173185   16.4986121499    5.7997487513
   8.5836740846   17.6427183646    6.3218738053
   1.9364366487   11.8097833635   16.5415847033
   2.5867304053    0.3343738508   12.5752437815
   1.3373120295    1.0359049435   11.9931884659
   1.2942979289   17.6372342449   12.6288358101
   0.5993520275    1.4176539803    9.6816388680
   9.9446029909   10.2991156248    1.7907541352
   2.6165600261    9.9407604467    7.4781519349
   6.2738611244    9.7411081166    6.6510860979
  13.6837871891    0.9398098732   15.0503332901
   0.1174738221    8.1788689424   18.6755977769
  16.5206913439    4.5035225577    0.6150078527
  -1.0555013196   12.9880630623   15.6554277288
   0.3000715978   10.3701390409   19.5177034135
   9.6347137695   16.6217069738    3.3642055017
   8.8532611492    6.1624558613   13.6002633287
   6.7964308428    1.6778768456   17.1914915031
   8.9153446225    5.4129914671   19.2845942308
   9.0779822682    3.8648157866   12.8222973765
   7.7522452741    1.3569310224   19.1572688901
   8.8473104210    3.3446297927    1.0232382805
   5.9541038434    2.5472043386   19.1054324427
   6.8356907184    4.9327738026   19.4377910086
   8.2692427170    2.0578229590   13.7384243060
  12.0024211795    3.8025722717   12.8999510361
   9.9133249707    1.7785695180   12.2486726806
  12.5553906191    3.8569530184   15.0679727357
   4.5525324619    7.1970126038   16.4858137629
   5.4924518373    5.2879004071   16.2925362549
  10.8050499817    5.0305102442   14.3070710765
   5.2274433751    6.4056030080   14.3673243707
   2.8568526584    3.6810116032   13.1905089728
   8.7416417553   19.2290382667   18.4542401076
   2.9460627982    5.7671374017   13.9490834306
  11.4870263440    7.5771838588   10.0908100348
   1.2703561391    5.3109376371    9.7633003294
   7.5496979258    8.8463566256   14.5714589832
   8.2955300853    8.8939993795   16.6595300053
   1.3623342420    4.6744945903   14.5788796047
  10.1347842523    8.2685872225    8.5680260266
  10.8426139825   18.9676850635    0.4287951805
  14.2905344067    2.5268339501   18.2407296494
  10.9093718279   19.3744971834   17.9569015334
   3.2027199259    4.7280395442   10.6276684142
  10.0213185021    6.1151407093    9.2975154449
   7.1418274073    9.0218725994   11.5277484275
  14.1115207684    2.0442594571    0.6033797779
  12.8771871581    4.1450300154   18.8406695147
   6.2792977988    9.5094601725   16.1743843890
   2.4565633257    6.7446194696   10.6829504757
   6.8412770049    7.4643225174   10.0027914322
  15.6156480637    8.8397866615   15.3933344246
   7.6008504003    9.3762826215    9.4504935099
  13.8059837675    2.5551009239   11.0667664291
  13.9548022849    8.1049684265   14.2606793942
  15.1842737111    4.4957635742    9.0141551841
  15.8072276098    2.3668959465   10.3800317038
  14.8783538314    6.4819159641   10.0365891588
  15.3900240153    6.7104263769   15.4484625484
  -0.8308871518    8.9021176282   11.4913229195
  15.3948136863    2.4834039474   12.5279827226
  -0.7889371425   10.0278653499   13.4246780220
  13.2154428702    5.1191051485   10.1587178759
  15.2085654319    9.7309330970   12.4671424478
   1.0656010945    0.8584443515   19.1062918053
  13.6331625838   12.8014043491   16.4651552187
   1.8633103816    2.4014477366    4.3874597024
   5.8994001475    6.0248242548    2.2616878095
   5.6999764829   16.0786083078    8.4189062336
   9.2855312151   11.3665305446    7.3366098131
   6.0903666820    6.5694686050    0.4629377465
   4.5635215265    3.0976561556   16.2605263751
  16.4593550453    3.7033905655    5.7716818092
   0.4820649911    1.7392926462    1.4579854464
   1.1965820507   15.5239401931   19.2524790453
   0.3450236328    0.1159567869    0.7862396518
   6.8087242728   14.3328689251    7.6774056613
   0.1287287975    2.3827503603   17.7841389861
   0.9953170405    0.2964128971    2.4925293094
  11.7379128127   11.9915585167   12.9509116576
   0.3981774612   19.1960645443   17.5129539536
   7.3886625726   14.5874868407    5.9829383497
  13.0366891268   15.1994372316   14.7620935213
   5.0370182183   10.4300845339    0.1163300004
  13.1081036747   12.0442092955   11.8635560632
   3.6795134980    4.6439674766   18.7802813722
   2.7161590528    5.9902143322   18.6910772910
  11.6291388440   10.1150788306   17.7100782579
  11.9108836650   10.2056392321    7.6494038984
   1.6831823100    1.6004504189    5.9067204774
  17.3513750213    2.6455893213    6.9360573359
  10.7135312639   13.5784002146    6.5744065792
   3.0508513670    2.3027338148   15.3996622255
   6.0614901677   19.2479533670    9.8563982879
  12.3001061936   14.5483639247   16.0331161585
  12.4562756730   10.8648464203   14.4785482393
   2.8612375592   14.6878906921   19.0057798575
   2.3636133589   16.2166586511   18.0654818704
  11.2445605989   15.5550461600   14.9062559990
   6.8934597907   17.4367728721    8.2705370909
   0.9204846892    4.0268663363   17.5659494201
   3.1754563184   16.5803266352    2.2834999796
  -0.8197877514    6.8706318794    7.0751195736
  13.8378545092   10.9804542712   16.8563079446
   2.3035601816    3.4144510776    5.7728109083
   7.3163818625   16.0547593506    9.3679081669
   8.7978716093   11.1526886374    5.7133911966
   4.0769274406   10.2430053728    1.6055629525
   7.0084859162   12.8610595072    6.6430136181
   3.6493754025    9.2645394055    0.1190652432
   4.4875788011    6.2660126995   18.4066286859
  12.5140242974   13.6039411583   12.4006779246
   2.6661070512    1.0299105619   19.6013339330
   4.7142626141    1.4220234159   15.4458281803
  -0.1956016697    3.7337054896   19.1373623295
   1.7032320318    1.1814096091   16.7495483798
  17.3178982543    1.7516071253    3.7233592179
  16.1415871322    2.6517654658    2.7435151588
  11.2881438857    9.9095992894   15.9552304163
   4.2053693527    7.6665219165    2.6448348310
   3.4732254688    7.5570898403    0.9124023918
   0.4290643835    7.6798716948    6.0738865194
   0.8259130266    4.3360663612    7.6516682071
   1.6658075223   16.4696727566    1.1889459111
  12.8845719582   11.2338871815    6.5763371661
   4.4567801909   19.0500745620   11.6881009595
  11.6438397957   11.8330226461    7.8019449501
  10.1625399745   10.8557931459   17.0730269572
   9.3852617150   13.5820507214    5.2436370221
  14.2225250927   10.8049512294   14.6142670494
   4.6108608153   18.7005725804    8.6612702758
   7.8540905705   14.1870231909    3.4823056752
  -0.7620214616    4.9875895340    7.6388165301
   0.8482957962    7.1765101130    7.6517082992
   6.5643320850   15.1841614123    1.5596792877
   6.2226776906    2.3768968557   11.1542554821
   1.4108399375   14.1210469908    1.6526822307
  13.7106272404   17.3221629701   17.5681372598
  14.4502930169   15.9410551838   16.7697251109
   4.8386667533   14.9362973187   18.8047372558
  15.3547179389   15.3803606324   12.7444986451
   8.9002185941   12.8727065414    3.1297951964
   4.5276027648    2.3947349291   10.6881941898
   3.4369169982   18.0910186323   10.4782418454
   6.0115790703   11.6441003922   17.5894501696
  -1.5177420404   14.1376186931   12.3770520818
  14.4764078093    0.8231815164    3.0228065363
  14.7622976881    1.8470920782    4.4368874998
   5.4189304594   16.7897377576    4.0949503698
   6.0109868262    0.7098598354    7.5089278324
   7.4080659545    0.1194690268    1.5171029346
   1.5395942040   14.9782166899    2.9262506643
   5.9774225845    1.5595997234    3.8316542200
   2.9070900584    1.6764110221    2.1590371837
  -1.9879490419   17.5471626851   12.0375148802
   2.6036293349   12.4043278020    3.6119169590
   2.4910497381   12.0522566056    1.6531071897
   7.1751429168   12.3660464661    3.1007385556
  12.8480991844   14.3945715847   18.2239179865
   5.1554434032    1.3238952267   12.1397914294
  13.9910087859   15.3411298831   19.2127904080
   6.8764105397   13.1651962150   17.1875849776
  12.3604537155   14.5973091145    8.0764176004
  13.7937841155   16.2158141390   10.8592582399
   5.8183725244   13.8172748769    1.7925793347
   2.7390406278   15.2101770927   11.9006458816
   6.0191993823   18.3632277928    4.6772406188
   4.2765253187   14.4556241372   12.1236372377
  13.6835395539   14.6368544487    9.1680284995
   4.2569696722    2.8063832675    1.8063729121
  -0.8188065503   15.7149695218   13.1516732191
   6.6868716090   14.9090311556   18.8433993282
   4.0224838144   11.9801799422    2.6112719203
   6.6729596431    0.5069932687    5.9559966373
   5.0448300392    1.0330385708    5.9740733915
   5.1440767455   13.0750867891   17.0816045333
   7.9390482356    3.9670408872   17.2702828128
  12.3998042045   18.4417150801   13.0057551577
   4.0452519118   14.4056170401   15.5458813394
   5.1606584223   14.7172035017   14.0995400872
   9.9888470616   14.3653116713    9.0271672351
   3.9751093443   16.3156945365   12.2864388129
   6.5254867777   17.7160266905    3.0780506753
   7.9633438566    0.7817639905    3.0736739370
  -1.4251920004   17.5720199816   10.4142822939
  13.9444265034   17.6043895551    3.9909940484
   6.2876489429    2.1432909001    2.1130288762
  12.3691272485   18.2630081426    3.4937209820
  12.4182364028   17.2995408244    4.7410357657
   3.9120647686    2.2508794203    3.4755415975
  12.6002805856   15.9920935737    9.2926596430
  14.3536511198   17.3795042659    9.6516111156
  10.6107525805   14.1935926008   12.0917173658
   1.4207471138   18.6767285519    9.5229199534
   2.8948873711   12.4388809500   11.7755267474
  12.4673455002   11.9484481415    4.0076077779
  14.0732804892   12.3290639520    3.3693227361
  11.8551728914   18.0539457059   11.3009578940
  11.6477416021   16.5603289563    0.8105077367
  12.9765346804   15.6886810930    1.5583222463
   1.1214662309   12.7336752847   11.2087381851
  12.6620510649   16.7727351126   12.3621437119
   2.1228033285   11.4290122812   10.4708253937
  12.5844982597   13.2340033857    2.7941205223
   4.2714513698    2.8744758425    5.9812172447
  10.3312879586   15.6628115585   10.3722414361
  -1.6558417069   13.7594144579    7.6641300617
  10.4347350610   10.9303556484    9.9084789187
   4.6418920272    2.8030147796    7.6210095382
  13.4782222601   17.0222565124    0.5540167855
   5.9120473178    4.7613148344    5.6324771812
   5.9672776392    4.9528860034    7.3691782446
  15.0437295381   11.4640689923    7.5477149436
   5.6558654553   18.9567793331   13.3173702186
   1.2979301890   19.5053531154    7.9544797096
   2.4637722385   18.2499647322    8.1956655745
   8.9492197164   13.9576244431   11.5003545946
   5.4632588480   16.2667360990   16.2226410656
   3.8708884655   17.0098018957   15.7816734949
  -0.0895207956   12.8218389315    7.8864887554
  -0.1551187971   10.6173710823    7.6036837156
  11.0119828297    1.7649723912   14.5437433583
  14.4908988805   14.9301783129    3.2348021598
   6.0561877391   18.9483452351   15.0634163525
   9.6133548284   12.4384394803    9.2873819644
  15.7723315486   11.2003841886    5.6458118182
   4.2178192401   18.7876688179   14.5417085931
  -0.8455923265   18.7621307673    5.9263579235
  -1.7747000743   17.2260359930    6.1936770103
   8.7495707475   11.3842496589   10.3607130903
   3.6165281679   11.8350035885    9.1653796823
  -0.5947864455   14.1459223096    8.8502454405
  14.4099004499   15.5083025109    5.0751587845
   4.6056992502   13.1251784041    9.9993328818
   1.2798069969   17.2347247795    6.1125061993
  11.1511618899    2.1276491235   19.3763153515
  15.2926690660   10.6823038988    9.3159725111
   0.1420114811   16.0231302208    6.8521218662
  15.8998568009    9.6585355968    4.7482149870
   3.2272338062    5.9803642869    4.8391596706
   7.9339566616    8.5497444694    4.7176701890
   4.8848820251    6.2207187822    4.9743192489
  -0.8030077522    9.5025011937    8.6889082268
  15.8476010661   13.5749057016    5.6098251999
   1.1700028449    7.1021018985    3.7961513603
  -0.6012090740   10.4206353148    5.2821140090
   0.4273723095   17.8925413371    2.7540644720
   1.4998449424   17.9162766226    4.3250809786
   3.9777957354   14.7222681070    8.1609396820
   0.8630951781    6.9839136168    2.0812759303
  -1.4312293229   15.0051923554    4.8733361254
   4.6874568097   13.2017729966    7.3650799132
  11.5585071326    5.7078965947    3.9843386270
   7.0511953464    6.7108596809   17.1800751242
   3.5777226279    7.1380111714    6.0135757390
   1.4128484644    8.5322330922    2.7198943870
   7.1724961796    7.2789039445    3.8781989135
   8.4664177580   16.0672644844   17.9814667388
  10.7436419020    4.2480111679    3.1912261659
   7.8182634617    6.7408193742    5.3881057010
   0.8339177349    4.1495046520   11.9552231979
   7.9758318432   18.4913104028   11.5434062381
  11.6227677135    9.0354171981    4.3088073969
   8.6667407388   14.7021949077   16.6785809093
  13.4549812730    5.5913020870    7.2112116384
  12.2570048940    7.5392030356    3.5640853042
   9.3117091017   19.5314119713   12.1325246317
   0.2847658648   19.1614766776    3.9404040797
  14.3541507658    9.9737440389    2.1234161463
  13.0779342652    5.8166665133    2.3601314744
   8.4926961665    5.6228907872    2.9458506865
   0.0226244300   12.2617219113    4.1284361538
  12.5015161006    9.9356872406    2.1961410880
  12.3378726972    4.3278532254    1.7655231352
  10.0525873066   15.4682844060   17.6295941501
   9.0371280304    5.1096245370    4.6718719886
   9.6255185809   18.3539243140   10.8142527567
   2.1276577279   14.9406064254    5.7883824421
   0.0552875294   13.9137245237    3.5339330254
   9.7170610649    9.0517629161   10.9204051901
  14.4428455637    6.9681258943    7.3019730630
  -0.2645670705   12.5066607449    2.3887307602
  15.6739889245    7.7515873650    3.8688660288
   3.8585002620   14.1813150668    5.5049717000
  15.0933885775    5.7030286074    6.3852734099
   8.0100986268   17.9597507944   13.8411157842
  16.8749570703    6.3742209373    3.9052441316
  11.8380156545    7.6920483392    6.1246861368
  13.4908662592    8.4621212951    1.6893771526
   2.3195127399   13.2227705078    5.1611115508
  13.4013673612    8.7217219854    6.0515367811
  12.4617192846    5.7629053791    0.5504984026
   9.1854435409   12.8296342276   17.2141199589
  -0.7632485696    7.5582234373   14.2279168495
   8.7219450835   11.0563613872   18.7721464086
   8.8821379526   16.6924248706   14.3831514169
  10.5497186822   13.2049898314   18.4252278456
  15.2581247321    5.9253347686    2.3481459548
  10.8885765169   17.9113661670   14.6034985727
  16.1691659497    6.7875047863    1.0608620561
   8.5408922331   11.7028430416    0.0603981559
   2.3599045408    8.9725309510   16.5327847238
   1.0696300660   13.7137770447   16.6107996087
  10.7142833187   16.9786938544    5.7919239647
  11.2312860099    0.5954868957    5.9239150839
   5.1338903339   10.2944995329    8.4610462511
   5.1502408848   10.7679367038    3.8606150427
  11.6442502146    1.2249179454    7.6347933796
  -1.0955195311    9.3397384141    0.9449789786
  -1.7093478240   10.6512572428   18.8627113385
  14.5704340269    4.7917757379   12.1219832421
  16.0597655486   13.1292949827    1.0363927624
  15.2030656862   12.7471133603   19.0803500083
   0.4299809659    0.3591768614   11.9605406845
   3.3104386857    1.0945717349   12.6974272194
   0.7457693191   17.4682329680   13.5774618782
  -0.1166618867    0.6596374271   10.0406113676
   9.7549012481   18.1973095921   15.9470098739
   4.7791255167   11.2042366732    6.9349583669
  -1.7793255208   12.9299328850   14.8696747859
   8.8559002814   17.3568205060    3.1991389514
   2.2290977644    9.7656311829    8.5272941833
   3.6635849311    9.2702546823   15.3131508102
   8.1321734681   18.1876289805    5.4435395427
   0.8646278758    7.9167489095   19.4980319561
   2.1493888945   13.4584980724   15.0681681554
  10.6430070962   10.3570041276    2.6114561999
   2.5371260581   11.0278514873    7.0822761810
  12.0842206281   19.4960558041   15.2459784834
   5.6979092778    9.2078409053    3.7069180876
   2.7179797414   12.2377325471   17.2247005539
   2.3972047553   17.9062201918   12.8618672870
   1.0531132116    0.8675509007    8.7545470295
   9.6426893438   15.6888203383    6.5570935926
  -1.3150401914   12.2601864299   16.5034329042
  15.4070190672    4.5401184853    0.6353262706
   3.8227056145    9.8592389135   17.0305638965
  15.0962093324   11.6295602478    0.8384516308
  12.8416922439    0.2667922875    6.8124311525
   4.6325029439    9.5075925607    4.8644352440
   9.7664160677    9.2995731094    1.4141401078
  16.3364249275    5.4970464584   19.4166080806
   7.1258889327   10.1584438510    7.2217889561
  14.0603254337    1.6303863896   14.2676204215
   0.4234575655    7.6427089519   17.7909220307
  10.5498358732   17.1219032266    3.3010402538
  -0.9749569405    7.9658344091   18.8613894517
   0.1009216914   19.3410687512   13.6111070844
   1.1183112351    1.8459712294   12.7150178273
   1.1338004527   16.6717369869   12.1514912148
   0.0897564996    2.3001627740    9.3368544867
   1.4826975483    9.2328982510    0.7012798480
  17.0123340230    3.4572588437    0.6243129633
   0.8111261324   11.3771808643   19.2665298330
   1.3016927247   11.2884031246   17.2021261845
  13.5844888398    1.5519820661   16.0537800473
   9.6267735690   15.9208618527    2.4355510043
   1.9202822435    9.5641227438    6.7437845142
   7.7323801994   17.0142721648    6.6864265084
   6.2943670124    8.5660099319    6.5859591984
   9.0634630693   10.7937316678    2.1498303208
  -1.1340832186   14.0246697213   16.1299866428
   5.2405879675    8.6651475433    1.2872236767
   8.8960257965   13.8738615454    7.2019141519
  13.4668809252   12.7835172336   13.9328155140
   3.7629085451    1.6035931377   17.2591144928
   1.6770119146    2.7977292259   19.1261299357
   0.4818777959    5.7047474756    6.1353901757
   4.4854573794    5.1670902213    0.7734251089
   0.2874937395    3.0984659945    5.1357513728
  10.9516810868   10.9967860608    5.9072374384
   5.6638946830   17.3142292215   10.0166359899
  16.8273761621    0.6135169049    2.1034745946
  11.8704535519   11.7947838674   16.7296311567
   3.5719045424   15.9003569301    0.4598496726
  12.5030197191   16.5476148410   16.3560832690
   5.5917535793    0.6651307623   10.2451076011
   3.3705152533   13.9510636401    2.3898142039
   7.6903780991   13.3966656051    1.5968581500
  13.1646061135   19.3626540415    4.8996747477
   5.8204384052   13.0664999535   19.0687576030
  -1.4698347014   15.8225058549   11.0821323221
   4.5408865105   18.3950057763    3.1433633446
   4.8453100497    0.8032570421    2.2735047291
  11.9401314727   15.8489312221   19.1728279702
   6.2390335260    2.5115489872    6.3172746637
  13.9195710333   18.2003707343   11.5778285832
  11.8505026385   14.1597061574    9.9787548532
   3.2575255846   15.2039829349   13.8033393221
   5.3394377017   17.1441088778   14.2282776680
   9.7767249610    3.0961716625   15.6842307140
   9.4462902638    2.9507037280   18.0692919738
   0.5036357695   17.5062060645    8.0920024261
  10.3048611520   12.4325466239   11.2568016579
  13.4019371985   13.7839383532    4.6624888965
   2.5800403389   13.3689992511    9.9068902773
  16.2001696439   12.4110845123    9.2171441271
  16.1753993857    9.4390435055    6.8131053941
  11.4670349729    2.2966843915   17.2481638140
   4.1360139166    5.2384918015    6.5125733755
  -0.6241182698   17.4073704738    4.4201803615
   9.3042666943    7.1546525907    4.1410328956
   7.8145024806    6.5183342117   15.3192310951
  16.1308986027   13.2648571758    3.6088439873
   2.7485774224   13.4614705606    7.2035442484
   9.2689705584    7.4326739606   12.0059304259
  13.5643954655    6.6995773528    5.4081413132
  -0.5393882221    8.2371054140    3.0637356802
   0.4233142164    6.1197821364   12.4146314757
   8.7089336788   14.1909640736   18.6250235755
  10.9469898775    5.9282094585    2.0171992891
  13.6452641310    9.0240966166    3.6689293664
   9.5067848679   17.4060866265   12.5754199048
  16.6274286301    4.7783099185   11.4477352589
  16.0385964858    6.6988431333   12.6180655685
  17.0120734527    5.1340368998    1.7755080466
   2.4080371529   10.8223879888   15.5814218668
  12.3599075377    0.5000904075   14.5674492546
   6.4821144270   10.3525837817    5.3602222527
   8.9235227212   18.5096455327    7.3885486302
  10.4418358499   11.1862205057    0.7108262782
   0.2963110222    9.5347779528   18.3222895212
   0.6577532954   18.6256879541   11.7588598110
   1.6436582680    1.6567947830   10.7133009251
  -0.6751888963   11.4790846242    0.7048767089
   9.4102453353   15.8998356396    4.5750634338
   0.2224001378   12.7847767287   14.9771179778
   3.8527672870    9.3646488303    7.1017256483
