B2 C140 Ca1 F48 H298 O66 
1.0
1.9036771453173824e+01 -6.6700035064317735e-16 -3.4104950822379238e-16 
-2.7063551040661973e+00 1.9790580162084378e+01 5.8453388323521697e-18 
-1.0388063437819488e+00 5.8646434465029824e-02 1.9176487339270668e+01 
B C Ca F H O 
2 140 1 48 298 66 
Cartesian
  10.4215294916    2.2397788304   16.6780487163
  -1.1634357896    5.6089974877   12.0125422789
  18.7193295109    0.1552168179    1.2583164881
   8.0219504026   14.3990139409    6.8474030741
   5.7426511701    6.6776672871    0.9348383417
  14.2431522042   13.3442150835   12.5982330137
   3.9932509378    1.6994358499   16.0719448308
   1.9550392048    0.2944132513   18.7355479175
   1.2023174630    2.5524393372    4.6570200063
   2.6964141669    0.2107310597   17.3902095165
  -0.6986325693    3.3763352570    5.8652437033
   4.3230706709    4.8735487403    0.4407150513
   1.7615411085   15.7771566651   17.6328112861
   0.8414830226    2.4704376662   18.4893576227
  12.0106068054   15.2445294117   15.4970160566
   4.4771971619   10.0600345040    0.1713580933
   6.4089903769   16.7583959270    9.2171714500
  14.0471625315   11.7411760191   15.7554138417
   9.5006178878   11.6066832744    6.4375712711
   9.9933192617   13.0924760216    6.2384323994
  13.8887191934   11.8455928618   14.2472395590
   4.7955548953    7.8164595386    0.7155890967
  12.1407085096   10.8512521662   16.7904590645
  11.5135048620   10.2000240010    6.6726717760
  -0.2036804379    4.4125654940    6.8121325734
   0.0969238802    6.7744409701    6.7449013138
   4.7282021817   18.3386086589    9.2746142529
   2.5068607205   16.3045109929    0.6992963459
  17.1551402580    1.0931306643    2.8986524548
   3.8403379580   18.8038548979   10.4758920815
   2.2118422696   15.1903691875    1.6380494605
  13.6524675569   16.4128206003   16.9987542890
   6.1077487344    1.4074355524   11.0886736105
   7.7243593167   12.9852725405    3.6606729442
  15.7998805773    0.8313841580    3.5683576175
   6.5173195940   13.8156175070    1.8259022741
   6.5241573440   14.1070615672    0.2900965394
  -1.5458184407   15.0822769452   11.6311094343
   3.3929488396   13.4835582781    3.0266285758
  13.6241293737   15.2610655641   17.9653682598
   5.3349660569   12.8880397979   17.3232103558
   4.7618060777   17.4250694284    4.1159152072
   4.5891313777   19.5901369865    3.1884012096
   6.7758738050    1.1911148135    3.2156510330
   4.9414606166    2.4718442942    2.4405158266
  -2.3881070005   17.2425075600   10.8334306247
   6.2891583185    0.7182008688    6.7478658078
  12.9974276255   14.2068349214    8.5030414487
  15.1841912955   17.3405159895   10.5872077526
   3.6088536012   15.8736721110   12.0425998422
  13.4802618893   18.1082446179    3.8729845737
   7.2480426748    2.3429036666   17.7944454691
   8.4670297984    4.4212674914   18.7875738058
   8.3149791238    3.3613672711   17.7283101534
   3.9742083567   15.4269472141   14.3352536976
  13.1921331828   18.0165307128   11.5278218589
  11.2267590357   15.0915337533    9.7561324534
   9.4734837189    2.4149462765   13.0291337242
  14.0160254714   16.2663018598    0.9491754290
  13.9427493849   12.8534789801    5.1670284106
  10.6291821712   14.5489841998   11.0391699359
   4.8951845187    2.7174684461    6.7006794101
   1.3141642663   12.8132413659   11.3549430303
   4.2481496296   16.9004457153   14.8322116961
   0.9921634561   18.3971867892    7.8997890962
  10.5641524203    2.4302291715   14.1550863738
  11.7854145397    3.3832019322   13.8101792987
   4.9634179364    4.0600636556    5.8637811544
   5.3894911360   18.7825514839   13.9446873400
   9.8151255151   12.6491924193    9.8119556938
  -0.5910848989   13.5586309667    8.5007675796
  16.8080038862   11.9265620462    7.8900134393
  -0.5058636066   16.9216387435    6.7202525082
  -1.3268460415   10.9683382589    7.1968143581
   5.9115293914    6.3320963579   14.6615885947
  15.4092534237   14.5667555172    4.1342247060
  -0.9278312968   17.9739182333    5.6329374213
   2.6851876243   12.8335638674    9.4231041315
  16.7918224697    9.9954517568    5.0174564537
   4.0073820806    6.2313353619    6.1143053605
  12.0227386335    1.1834519026   18.0243532093
   2.1517246812    4.7908828318   12.9610949770
   9.8318616214   19.6120288847   18.3395524338
  -2.1344967622   14.4827597500    4.0914245099
   7.1030818101    6.7245044649   15.5847286595
   3.2445043192   13.7341596947    8.2856275034
   8.9807811243    7.8276473655    5.2068153087
   0.3369879175   18.6279700873    3.6701531017
   7.5956189743    8.1272750259   15.4101304773
  10.3761949805    7.4630493056    9.7412580380
   1.2984570230    6.4833710565    2.6265941796
  13.0037175970    2.3304735255   18.4102696756
   1.8802732357    5.0465371707   10.4756207640
   1.1619117450    4.7681625596   11.8769218169
  10.8840323108    5.1221937291    3.4426153531
   9.6768034567    5.6853621737    4.1772539698
   8.7126740632   15.6936935270   17.8173228029
   9.5653463159    7.9288274823   10.9062568300
  13.1993929159    8.2749791407    3.5195913806
   8.6945664476   18.3477640348   12.2211695302
  -0.5580481354   12.8464998125    3.4921432168
  14.8264635984    5.6377528061    5.6419922703
   7.9659855770    8.2462977033   10.4034073679
  14.5061338447    9.8067286504    2.1512574400
  12.3127416517    5.3391772714    1.4834961422
   2.3754332646   14.7236938541    6.3097145730
  13.6775618697    7.4549038182    4.7466025388
  -0.9227668879    6.7160289274    2.8480901684
   9.0833119773   17.7240646364   14.4768147055
   9.1239888785   13.3153751224   17.9072762612
  15.9130817215    7.6862344739   14.1096194559
  -1.7552275989    7.6400020783   13.4056252986
  17.1330733182    5.8841897843    1.8754954187
  15.5332551260    2.9232650234   11.2410861532
   8.5750044174   12.0212711461   18.4642508824
  15.9988115399    4.3469700061   11.1199230980
  10.5901332931   18.0197040285   14.2877801531
  15.5557998888    4.7920741841    9.6476885600
  -1.5804833784    8.9285699442   12.5839657151
  10.4988114459   19.1131441096    7.0093717279
   2.6125700732   10.0312113353   15.5806072213
  -1.9236960612   11.1348417092   18.6737574093
   0.5771382821   12.9927833444   15.1965902054
  16.6483240383   12.8811422280    0.1339800111
   4.6666967733   10.3030696812    6.4731915400
   5.7262251055    9.2548436299    3.9343250377
  10.1744672218   16.9510473147    4.8902878055
   9.2016682129   17.9417461414    5.5005788324
   1.5731071967   12.1504565890   16.0148374337
   2.2831986173    0.5692905201   12.7119724005
   0.9328680352    0.8263012212   12.1601459948
   0.9506424924   18.2208037519   12.5539172033
   0.6877612810    0.8025107858    9.9223739495
   9.8346400775   10.5929867882    1.2311880575
   2.3861042634    9.9133468464    6.3673961195
   6.0529668002    9.6782883821    6.2593505215
  12.2307441604   19.7235930098   14.6810872688
  -1.1419022484    8.3423713406   18.1125489235
  17.4500846718    3.9896198451    0.3651202714
  -1.6000459042   12.0428815452   15.3239713831
   0.3774293350   10.4427929353    0.0265548995
   9.7843452937   16.9604311217    2.3978463720
   9.3296367957    5.8929657918   13.7151493732
   6.9520965050    1.9498061874   16.5161303581
   9.3712461037    5.3443674250   18.5473923500
   9.1571497813    3.6707673271   12.6319044470
   7.5945158557    1.2822742232   18.3985527855
   9.6521446349    3.8986708345    0.8776301883
   6.1711834406    2.9132527426   18.2247270156
   7.3004680232    5.1867335590   18.6787756552
   8.3429110692    1.8099469473   13.4006327376
  12.1084233578    3.4951510958   12.5271450331
  10.0209164301    1.6426433119   12.0816819846
  12.8627888979    2.9784163551   14.5569988036
   4.7153671572    7.0263012507   14.8795468304
   5.5447779875    5.0311995742   14.6537416391
  11.5241606309    4.6175921363   14.2924765531
   6.1891676337    6.5703416639   13.3308143848
   3.1434769987    3.8011418177   12.9312387035
   8.9701311299   18.6343741478   17.9698729113
   2.6914534707    6.0765217838   13.2292674272
  11.7046686120    7.0151400570   10.0490667484
   0.8539530179    5.0697706105    9.6049060479
   8.2122648373    8.4219674623   14.2673273148
   8.6300127644    8.3625150480   16.2272839244
   1.5028740115    4.3360647295   14.1525465737
  10.6514174703    8.4892341024    8.8357115035
  11.0490158607   19.5089989418    0.5353759519
  14.1922325587    2.1959206619   17.8485238367
  11.0381018070   19.3972156806   17.7581015300
   2.9153427196    4.2485651971   10.1546343802
   9.8215926989    6.3821070848    9.0940192429
   7.3178243154    8.5604630473   11.5722347406
  14.2546491935    2.5138935515    0.5796867234
  12.2850071609    3.3988023546   17.9799292659
   6.5892999855    8.9368012185   15.6700370219
   2.5160511958    6.2646199965   10.3438675757
   7.3116376089    7.2269621172    9.9214678405
  15.8179418141    8.8301621252   14.8786694256
   7.7321712228    9.3120787566    9.4813512162
  14.1320485475    2.7745422620   11.2080487427
  14.8927478376    7.7309793785   13.2172210112
  16.0174363461    4.0315051110    8.5873643862
  16.0877273297    2.0656842619   10.4209926540
  16.1366855513    6.0662194171    9.4998413396
  15.7821975148    6.6453639239   14.9661262558
  -0.7103272052    8.6717023226   11.6265117961
  15.9583649057    2.3785754288   12.4528038512
  -1.1619419001   10.0216868375   13.4722316196
  14.1926059260    4.8033888811    9.3173419348
  16.3223588971    9.3263680556   11.9933911638
  -1.6575812473   19.3663480719   18.5645945675
  14.7466994010   12.6187112602   15.9497783640
   1.3748138604    2.2029151020    3.6652413182
   6.4104878298    6.9979334365    1.8337747093
   6.5874145334   16.5067858796    8.1377256416
   9.2966649101   11.4135785818    7.5035945297
   6.4971976127    6.3288179656    0.1422239299
   4.5888478337    2.7580415905   16.3726904014
  17.3228990690    3.5886028885    5.5300808925
   0.5396816399    0.6191486232    1.8347059257
   1.4116017010   16.7643103094   17.2654485549
  18.5517058455    0.5318527449    0.2185823252
   7.7649490439   15.3087098832    7.4766076503
  -0.0665286442    2.1060822204   18.0260743529
  -2.6345539620   18.8925823969    1.2267019135
  13.3734053783   13.0254449628   11.9669235558
   0.2590706413   19.0045554999   17.1855181263
   7.9522523169   14.7802823602    5.8595278482
  12.6838191142   14.4774931617   15.4757120220
   3.9922742340   11.0116431814   19.0730424311
  15.1460052393   12.7515556171   12.4198473333
   4.1640921722    3.8509984180    0.7268585716
   3.3391470022    5.3402193480    0.2467033263
  12.5319807037   10.6159304515   17.8423770167
  12.0514307647    9.5611144608    5.9698176844
   1.1731060853    1.6217319619    5.3452829123
  -0.6447155295    2.4733261756    6.4825643566
  11.1402743621   13.2661499302    6.2771992429
   3.0037678402    2.1075375679   15.6110092201
   5.7343489330   19.0707560884    9.2617232831
  11.0324245541   14.9454086198   16.0814467102
  12.8442694872   11.5274358485   14.0193408060
   0.9739090654   15.0193383708   17.5180228686
   2.6966667882   15.3852159003   17.1553290530
  11.7237915774   15.6496920921   14.4425358992
   6.9865876887   17.6554402660    9.4496064431
   1.4468760326    3.0067256298   17.6900224480
   3.0131708314   17.1403017729    1.2159898598
  -0.3563700521    7.7541511907    6.3621881902
  14.4671407041   10.7646140656   16.1057076459
   2.0488355742    3.2838801882    4.7794854718
   6.7566266041   15.8310518527    9.8717888390
   8.5764617979   11.4132352725    5.9079053248
   3.9349557765   10.3072114573    1.1724329997
   7.2135487988   13.6035856774    6.8030795461
   2.6458868735    9.7330176863   18.6565174904
   3.7363263571    4.7312150907   18.5349164432
  14.4815663780   14.3594075327   12.2232182166
   0.9715871682   19.6447870910    0.3308399112
   4.5532861542    1.0859940392   15.2607798145
   1.5426305181    3.1016133270    0.2430983174
   2.0285359718    0.5692912669   16.5606197802
  17.7917016097    1.1954840308    3.7204192163
  16.8919594694    1.9977082265    2.4042782367
  12.3400352454   10.0035895998   16.1772188060
   4.2633251832    7.8548673040    1.6345024087
   3.1095407337    7.6932927511   19.0671890833
   0.9551322587    6.7506974605    6.0245574568
   0.9416762546    4.5896735177    6.6660009144
   1.6139578178   16.6582360228    0.1949772180
  12.0080239627   11.0765302817    7.1605408303
   4.6182358620   18.8627809884   11.3422319973
  11.0939307365    9.5929912176    7.4954485969
  11.0413520146   11.0812777988   16.7403674583
   9.6848031719   13.5103524040    5.2482640433
  14.6663610167   11.3163003164   13.6848435511
   4.0883966022   18.4550916453    8.4645409081
   7.7778454461   13.9844066162    4.0760850713
  -0.4178774575    4.0687903428    7.8179934705
   0.1650118021    6.8702005526    7.8195101004
   6.5237419130   14.6518067545    2.3800800548
   7.1761030116    1.6673893378   11.3104441303
   1.8531145928   14.3292139801    1.0831301843
  13.6752444531   17.3634636717   17.5688005012
  14.6457165163   16.1936206296   16.4195991858
   5.7746420706   15.0594818917    0.0062289339
  -2.5249584840   14.7841379975   12.2050999482
   8.4742545385   12.2572720428    3.9923159449
   5.5265649972    2.2209001857   10.7060305403
   2.9988286398   18.1447238189   10.7159792033
   4.2371173571   12.6222947534   16.9836291045
  -1.0028065527   14.2200551428   11.1725411674
  15.0199458564    0.5135004812    2.8257700727
  15.4227069548    1.6251799814    4.1087454102
   5.3334149729   17.2323872872    3.1942189945
   5.9263032423    0.6835992599    7.7980765960
   4.3202359601   18.9913125765    2.2829752006
   1.4044849116   15.4578687146    2.3247301026
   6.8373370029    1.3902581396    4.3266792595
   3.8678467260    2.3707426424    2.3126035593
  -2.2460894642   17.3623928640   11.9697453103
   2.3079726263   13.3213043765    3.3961690460
   3.5610633376   12.6618010530    2.3678039503
   6.7162542849   12.6584199745    4.0643442459
  13.4902457419   14.3686138124   17.2955378900
   5.4798480894    1.1664401863   11.9492394951
  14.7157515823   15.0944967035   18.1998585487
   6.0598279950   12.1844608233   16.9802439153
  12.2547729034   13.8473225081    7.7666266163
  14.7170895420   16.3252927200   10.7830695232
   5.6711498727   13.1030579270    2.0594007898
   3.0537759673   15.3891711518   11.2481978141
   3.8401325029   16.8109591403    4.0952256636
   4.6759898420   15.8359946716   11.8312071942
  13.6225172679   13.3693153715    8.5792828989
   5.3598023841    2.7081351821    1.4721907380
  -0.7484866589   15.5441108649   12.3058487725
   6.4049624553   14.6699148634   19.1638497157
   4.1110099479   13.5683240478    3.8084488030
   7.3603127560    0.4306716607    6.6819872081
   3.0208795711   19.7644944666    6.2346039022
   5.4710677760   13.9170246292   16.8631943898
   8.1978122699    4.0041543202   16.8562988337
  12.5517192946   18.7794274719   11.9236927596
   3.5027005822   14.8201314742   15.1302498976
   4.9406391270   15.0275031685   14.1441983778
  10.6374722413   14.9481515297    8.8608201106
   3.4677632917   16.9003502032   11.8666945158
   5.5074272236   17.1053733393    4.8803457798
   5.6239139165   19.6905075083    2.8922524647
  -1.7456229001   17.9451300934   10.2439119615
  14.5326434246   17.9009041323    4.0386557182
   7.3468518504    1.8411509901    2.5590265453
  13.3137698239   18.1428577534    2.8265762724
  12.8912510926   17.2373594015    4.4228312441
   5.2215946411    3.2680004765    3.1118833876
  13.4321918311   15.0146351466    7.8853744234
  14.8882298037   17.6829319156    9.5902389408
  11.3169355098   14.6495729441   11.8816315200
   0.9905629678   18.9938653585    8.8829243188
   1.3324333136   13.5548015560   12.1231449214
  13.6349770222   12.5951183124    6.2053244997
  14.3429802203   11.9671458590    4.7371627191
  12.8846824769   17.8797125133   10.3968983087
  13.1414966826   16.2043023456    1.6006571965
  15.0185104914   15.8950173551    1.3524772543
   0.3099636916   12.4204303556   11.3564262667
  12.9873292964   17.0598104688   11.9907552432
   2.0027262333   11.9943233662   11.4356074710
  13.1000744497   13.0955773010    4.4908146009
   3.9768788158    2.1199004570    6.5461048895
  11.2690227362   16.1919108134    9.8181393364
  -1.1438415441   14.3930611609    8.1545716724
   9.6692968823   11.6390299698    9.7111944405
   5.0111377737    2.9963438302    7.7387744760
  14.1424917530   17.2679458534    0.6023980728
   5.2194448378    3.7877538145    4.8558311938
   5.9234359345    4.3411498969    6.3240974393
  16.4377739876   12.6891755935    7.1835207887
   6.0112347322   19.0228090305   13.0454138170
   0.9416435303   19.2016371329    7.0706220380
   2.0242821158   17.8882203560    7.7291914184
   9.7621941721   15.1327952450   11.3561962407
   4.7060086755   16.9727312300   15.8505126865
   3.3141300494   17.4954692274   14.7521547510
   0.0599117850   13.2041500273    7.7606463221
  -0.8008052885   11.5463563120    6.4413539228
  10.9897490125    1.4861485634   14.2185636554
  14.9781977597   14.2106691987    3.1578317523
   5.8956910410   18.9289858123   14.9304689564
  10.5068849208   12.7756855778    9.0456220693
  16.7837585091   11.1311481451    4.9900418617
   4.4409086683   19.2823286212   13.7770949679
  -0.5249936899   18.9200375169    6.1279351953
  -1.9901971100   17.9093027230    5.4317845905
   8.8425212478   13.2025628320    9.6493576261
   2.3211251419   11.9549413961    8.9052540723
   0.0821347338   13.7654723250    9.3583407415
  15.0811899557   15.6352885743    4.2870807915
   3.4773934758   12.5066410530   10.1463160623
   0.3740059985   16.3723867244    6.2110451997
  11.1710408446    1.2880072923   18.6808586950
  15.8647107384   11.4140821571    8.1162067014
  -1.2003358063   15.9622568133    6.9091547742
  15.8257026043    9.5912538473    4.8418942750
   3.3061636880    6.7808947330    6.7345482776
   9.4817560915    8.7621324575    5.5442255410
   3.9272414246    6.8071956034    5.1603508654
  -0.7143428987   10.4349904602    7.9405664782
  -1.6485354553   14.7368651734    5.0560715538
   1.1794026395    6.1834685203    3.7524637407
  17.4897085828    9.5419508265    4.2883500654
   0.5381665227   18.3401837377    2.6522289393
   1.3529675567   18.7676826006    4.1184404774
   3.2482919233   14.8597372558    8.7693555801
   1.4201926116    5.4711865858    2.0328379422
  -1.7127201351   15.1616103437    3.3189313615
   4.1571996271   13.2905145844    7.9414156060
  11.7491763450    5.0158797151    4.1539614909
   6.6009525707    6.5791732112   16.5510007932
   5.0298881871    6.4259106578    6.4163033722
   2.2818372538    6.9625490947    2.6146556450
   8.1682965344    8.1481835482    4.4263919535
   8.8620261925   16.4190913144   18.5341190029
  10.6511508449    4.0607527456    3.1039124343
   8.3961939159    7.5051171063    6.1380468449
   0.8214126472    3.7624491074   11.6413490093
   8.5736637832   19.3479082829   12.6019748338
  12.6346830575    9.1099654231    3.8149895034
   7.7983634457   15.9644123363   17.2391206750
  13.9426853717    5.1142732516    6.0781367107
  12.8596591542    7.6628241446    2.6451798938
   9.9211273054   18.2692532137   11.9846481524
  -0.1354037985   19.5925150086    3.6250891623
  15.0936554414    9.5659439443    1.2704489098
  13.2103171846    5.2169578566    2.0473284626
   8.7363837564    5.6718359878    3.5142330117
  -0.0404623022   12.8365631038    4.4683641901
  14.9350909279   10.7229954727    2.6653772960
  11.8866929918    4.5132476559    0.9233100825
   9.6394769872   15.7483879441   17.2246873441
   9.3633441288    5.0993857601    5.0565093230
   8.1698467645   18.0974921489   11.3018007887
   2.2310592037   15.6016834955    6.8710184027
  -0.1134976905   13.6503535109    2.8308835701
   9.8060633742    8.9896017892   11.1823036004
  15.3898453136    6.2003973163    6.4774150917
  -0.4358825284   11.8490817509    3.0291972644
  17.3887579806    7.5808135658    3.1438574651
   3.3291963145   14.6954703543    5.7506399228
  15.4836504917    4.8434958544    5.3829754032
   8.6523494739   18.5905175339   14.9927051335
  -0.7287519024    6.1111289758    3.7722291623
  12.7959881848    7.0076007786    5.1835447730
  13.5246860191   10.0293521468    1.7883768835
   1.5573463215   14.4854804281    5.5541109159
  13.9711353555    8.1127299066    5.6026006458
  12.7537202598    6.0596565098    0.7424006426
   8.9514478062   13.2674533760   16.7990319858
  -1.0356887141    7.6016587743   14.2507043122
   8.7937945997   11.1395841072   17.7806239538
   9.0795292574   16.8091859053   15.0443574447
  10.2603241380   13.3271469011   18.0002326603
  16.3104761455    5.4398747897    2.5438284806
  11.0155672026   17.5386250161   13.3922462663
  16.7842191865    6.4860351936    1.0477719085
   7.4541723152   12.0206145561   18.5551491484
   1.9779518078    9.5781607758   16.4858629407
   0.0629401089   13.7320398133   15.8977087763
  11.1947405029   17.2084834602    4.5079179657
  12.6676334106    0.3468636832    6.9736111859
   4.6275733657   10.4995603256    7.5401623031
   6.2484041010    9.5084365553    2.9777510597
  10.9436064137   18.9846741256    7.9710159134
  16.2339219388   10.5334794197   18.9655210610
  -2.0032882593   11.3444132905   17.5309237349
  15.3713405411    5.0429097978   11.8468047132
  16.7693554882   13.7183173684    0.8063377031
  15.2951127621   13.1860566456   18.3807405002
  -2.4177737362   19.7611657763   12.0346888040
   2.7355525383    1.5367949548   12.8846098277
   0.2249626942   17.7315683987   13.1976136423
  -0.2263948780    0.2956415267    9.8630067397
  10.9686422339   17.5054671175   15.1639613634
   4.6848385532   11.3554281708    5.9566605908
  16.5639042351   11.5638547098   14.7497120602
   9.3588715606   16.2882980055    1.7181261973
   2.0273876629    9.6858818304    7.3617476819
   2.3359861383    9.4979161279   14.6562073540
   9.2573486839   18.8899187692    4.9905561156
  -1.1948889613    8.2660031680   16.9833275558
   1.2299215456   13.5300210427   14.4936170541
  10.5448292654   10.3971830114    2.0868777635
   2.1891221744   10.9953607903    6.1836169893
  13.0452023002   19.7987242915   13.8290815977
   5.7563967355    8.1365320438    4.0199378471
   2.1066582005   12.8460260942   16.6362664662
   1.8602566398   18.4962367173   13.3063133134
   1.6271876362    0.0600669093    9.9382392630
  10.2315052540   16.0748633314    5.5324818910
  -1.4960016247   11.2097501363   16.0874147001
  16.5889914500    3.4203833491    0.5597668215
   3.6263080686    9.6745349243   15.7706799608
  15.9633882534   12.1891924305    0.6309238544
  11.2036559437   19.1440777253    6.2115013910
   4.8146102812    9.8007317271    3.9783923402
   9.8790902096    9.6805614044    0.5010564203
  15.9661989771    4.7740301697   18.7837806161
   6.7734355592   10.1267696068    6.9236176363
  14.7883881166    1.0251647461   15.0962035919
  16.8420913250    8.4034480933   18.3900972038
   9.2572615827   17.9902522545    2.4345648470
  -0.6814045652    7.2740913147   18.3881949310
   2.2590778821    0.1179252836   13.6986451391
   0.5335063086    1.4158351831   13.0391546942
   1.2643612530   17.5121709216   11.8309187936
   0.9117513511    1.4155455779    9.0684636839
   0.1780419239   10.0772660957    1.0798129025
  17.1454833137    3.3193716131   19.0967514347
   0.2059804107   11.0858078531   19.1213113762
   1.0947024323   11.4730730519   16.7026786878
  12.6646802694   19.0553374885   15.5194714289
  10.8208712900   17.1987368114    2.2284869249
   1.7427373480    9.2243390048    5.8029706862
   8.1746509260   17.4261211948    5.3990316092
   5.9982775297    8.6032331947    6.4938296381
   8.8625824108   10.6985701691    1.5810496246
  -1.9106487139   12.9881857778   15.8500263562
   5.4701605459    9.0618482661    0.4982871189
   9.3141049396   13.9622354631    7.2237939725
  13.8444716569   13.3085538795   13.9631814393
   3.8574848927    1.1066389932   17.3366187228
   2.5444988156    1.4016566116    0.0355771233
  -0.8618387582    5.6657194119    6.5195253797
   5.1245650545    5.4841084487    1.4593604638
  -0.0358893149    3.2502889567    4.6607081760
  10.4436990278   10.7453467345    5.8129867335
   5.0832343881   16.9940296553    9.5690167950
  17.4660786482    0.0183018492    1.9975102891
  12.7577198854   12.0618454060   16.3300309227
   2.3950567315   15.9688706783   18.8965194828
  12.5295174339   16.4587149057   16.0749655889
   6.2115328368    0.3529711156   10.0530565174
   3.3571931045   14.8864957257    2.4091734341
   7.6359727162   13.0042973395    2.2057270615
  13.1821078093   19.4567184157    4.4745526374
   5.2461402213   12.9085851296   18.7876737322
  -1.7566551961   15.9760335996   10.4815473586
   4.4537559558   18.7831412175    4.3717308738
   5.4119473987    1.1590550711    2.8488837539
  12.6945470539   15.3827772190   19.0781586146
   6.0615029859    2.0333892295    6.1180603977
  14.6085128099   18.1733909571   11.6019855501
  12.5240343183   14.5817284926    9.6899633689
   3.1003903704   15.3569875761   13.2523710051
   5.1494114685   17.3943541968   13.8256254762
  10.0452358788    2.7789463599   15.3726808685
   9.5869230287    2.5837925671   17.6894186266
  -0.0765824737   17.4975107009    7.9890277180
  10.4458353043   13.0501558370   11.0421038340
  14.9290852213   13.8315587519    5.2898341200
   1.7403934781   13.6175636201   10.2358785678
  -1.5200297348   12.5173846578    9.0337322308
  17.0658755842    9.8625657923    6.4620778159
  11.4951604758    1.3967246149   16.6751730444
   3.8388791562    4.8261599089    6.0841976660
  -0.3712545507   17.5609879717    4.4072141677
   9.9766177856    7.0741373111    4.6137514025
   8.2510165452    5.9198909329   15.4339575738
  -1.8819632863   13.1615968449    3.6876859158
   2.2638054268   13.6420586683    7.2225101294
   9.6835009472    7.1565851573   11.9641899632
  14.4539997104    6.3422118452    4.4356722865
   0.1518614872    7.2827213936    2.2342661411
   0.1630272459    5.6860352521   12.1858215939
   8.5660733624   14.4414182802   18.4969252408
  11.2639026466    5.8955637924    2.3194918388
  14.4637903350    8.7344679263    3.0485092182
   8.4058053864   17.3836354534   13.2062310232
  17.3657889631    4.4594111030   11.3822565663
  16.9683784314    6.5391300978   12.4965356834
  17.9088281152    4.7373955662    1.4846449828
   2.5402879723   11.3798882011   15.3023602067
  10.9332949885   19.4028908136   14.3058848830
   6.5706866079    9.8586657490    4.9313634378
   9.4929119858   18.0231866284    6.8567156037
  10.2423323981   11.7584174054    0.5471070232
  -0.2342283593    9.4464241391   18.3299839967
   0.4014415664   19.3775273597   11.8729577656
   0.7648302031    1.6797574361   11.0255940802
  -1.0645483078   12.4061298092    0.0796889745
   9.5669703364   16.3298252892    3.7186938939
  -0.4619277765   12.2553069330   14.5152672271
   3.6744237859    9.4150030183    6.0501989276
