B2 C140 Ca1 F48 H298 O66 
1.0
1.7950278361226641e+01 -1.5665188735433502e-17 -8.9152062740502689e-17 
-2.2886386147490305e+00 1.9355437539885255e+01 8.0085725185173330e-17 
-6.4654442770624709e-01 5.1587027130059337e-01 1.9646377116199609e+01 
B C Ca F H O 
2 140 1 48 298 66 
Cartesian
  10.2450360865    2.7773768362   16.9282558000
  -0.8872580536    5.8876588621   12.1662548618
   0.2248300005    0.6494969470    1.7157116615
   7.4936125865   13.9605891156    6.8435570491
   5.2689955388    6.2834703248    1.3069271407
  12.6195849893   12.5545229345   12.7226196870
   4.0050389300    2.1621007142   16.0265183030
   2.0217484371    1.4064545677   18.9043188465
   1.5936116968    2.5694417090    5.3328196552
   2.5220397482    0.9302779241   17.4839335523
  -0.4931933669    3.4934309971    6.1930264797
   3.7033493184    5.6794009556   19.0342560387
   2.2708635862   15.6160964463   19.0410373105
   0.5248245063    3.2626134283   18.3443689723
  12.2341446383   15.3962054516   15.4719294974
   4.4980388793    9.7109118315    0.7873408898
   6.4686628058   16.7212013159    8.9720371806
  13.3201164765   11.7174488426   16.2551198791
   9.6151471608   11.5657604626    6.3261923628
   9.7444074767   13.1656330111    6.2111987383
  13.3747775868   11.5596521431   14.7003507895
   4.4335922693    7.5261006478    1.5925120344
  11.2213688012   10.5773861915   16.8377978564
  11.8536733425   11.1664629330    7.0464979293
   0.0034260728    4.6700998740    6.9603951110
   0.2334621641    6.9619031563    6.8373253571
   5.1414734243   18.5600221851    9.6677343539
   2.6003319127   16.0152439665    1.5709566382
  16.3939327528    1.6337676557    3.1579958187
   4.0664096901   18.9109692344   10.6184508051
   2.1681001888   14.6901949538    2.1168000333
  13.5133769982   16.3403079914   17.2657801871
   5.2947512478    1.7453529696   11.0813303807
   7.9083509935   13.2530737975    2.9211333801
  15.1886490671    1.0690078590    3.9117194405
   6.5265717856   14.1261246544    1.1322731845
   5.7733856022   14.4309303711   19.2569735180
  -1.5977837478   15.2431884333   12.3863795984
   3.0686621744   12.5852037320    2.6221011828
  13.1353675090   15.3841344196   18.5116486959
   5.9445638125   12.7226438079   17.6881995018
   5.6995201622   17.7815275118    3.7654824954
   7.1391477497    0.2842871942    2.5762269090
   6.0853096990    1.2962810219    2.7813390939
   3.9429739064    1.9016057079    2.3819652811
  -2.0965691899   17.0990109218   11.0963411328
   5.9990416882    1.1195859483    6.4687617214
  12.6418294578   14.9149494986    9.0592340478
  14.3625188526   17.1649602802   10.7327634337
   3.6328504720   15.3153001358   12.4266765171
  12.9841258993   18.0756323015    4.2899785861
   7.1054307759    2.2425379504   18.4809211468
   8.0578760131    4.3745397054   19.4144316406
   8.1572266864    3.4092186923   18.2095266241
   4.3271241366   15.0976121553   14.7451371398
  12.6400938494   17.8169415788   12.0775259292
  10.5134494042   14.6155877886   10.0910798519
   9.4322565954    2.5569311161   13.2543733124
  12.6877001979   16.1453314265    0.6804580234
  13.1184562640   12.7006400424    3.5838008086
   9.9882568944   13.8339287097   11.2929217140
   5.0526891759    3.1677176862    6.6600131566
   2.1330865011   12.4498840127   10.9566661556
   4.7385960328   16.4345245263   15.3740296481
   1.4359830814   18.4599349232    8.4702338402
  10.4386690297    2.7205309227   14.4791561627
  11.5021428464    3.8689195733   14.1612843584
   5.3297697218    4.6004004135    6.5558455861
   5.2608824623   18.4952607127   14.2859369080
   9.7079610092   11.7554298111   10.1394731855
  -0.9699547642   13.2662716570    8.3344999284
  15.7161049379   11.2033467832    8.4076316041
   0.3097299178   17.0771986182    6.7067873665
  -1.1437685231   10.1914003913    7.9009490556
   5.5065297369    6.6046090072   15.7415078485
  14.4547678429   14.7146161215    4.3398320835
  -0.8456564093   17.6882519181    5.7975328534
   3.7817227575   12.9285856653    9.2865465784
  16.3126755156   10.2130297281    5.5958387230
   3.9396045896    6.2590853944    5.5160718996
  11.9111053460    1.9411715457   18.6050876638
   2.2159803143    4.8193878555   13.4052514215
   9.8995472650   19.7740783759   18.7464146553
  15.8033130028   14.1491844023    4.6537438750
   6.9095219106    7.1060571548   16.0959866563
   3.8676872544   13.6590892871    7.9904915699
   7.9911265981    7.4322108655    4.5353413848
   0.4865946294   18.0271569755    3.8031710659
   7.2407493981    8.6666657498   15.9392968734
  10.1598687806    7.5029837334    9.6597883184
   0.7486229299    7.6665819628    2.8916547316
  13.1371016233    2.8446723921   18.9877641413
   2.0915337795    5.4371708441   10.8255892060
   1.4190473768    5.0670228676   12.1298629037
  10.7173475791    5.3618194624    3.2604868777
   9.3159943471    5.7334144540    3.7733757471
   8.9539084812   15.2299464770   17.5682925888
   9.1928163384    8.1124457245   10.7869503217
  12.5587877749    8.3243980951    4.2948669672
   9.0382160239   18.4822901163   11.7729616393
  -0.4861971405   12.9853896307    3.3771971466
  14.2169270842    6.2242418278    6.5475169042
   7.7081655383    8.4726736159   10.3804348497
  13.4665718336    9.4161394434    2.3198755494
  12.3007781713    5.4775493444    1.5889945234
   2.7530159974   14.0564877273    5.7867251792
  12.7823466654    7.8511333401    5.6375518207
  16.5030290603    7.2190522208    3.3186477095
   9.0314851668   17.6432398135   13.9609989804
   9.4218089611   12.9315392833   18.3525188889
  15.2458113959    7.8254508656   14.5813400418
  16.3108710308    7.7572697044   13.5590130429
  16.1327902637    6.3751821038    2.0559952890
  15.0591834607    2.9896054795   11.2649647056
   8.8568576819   11.9567962088   19.3004942662
  15.2035385268    4.5234805230   11.3417085100
   9.9269564906   18.4021460476   14.8590072836
  14.5339791257    5.1643398052   10.1068478410
  16.4486252104    9.0842627711   12.6979472433
  11.7452788987    0.4041017738    6.9079368976
   3.0563691452    9.6885729637   16.1390020811
  -0.5774518059   10.1507721686    0.2314273801
   1.3593987023   12.9716468334   15.7613715879
  15.9626464741   12.1828801374    0.4654809668
   4.9852398520   10.1932942353    7.3525455815
   5.5019645880    9.9933329576    4.4083255441
   9.7513917885   16.4975976134    5.8046960384
   8.5701308853   17.6433765760    6.3100645185
   1.9239780057   11.8074576178   16.5373236726
   0.2933282514   19.6841130299   12.5765920249
   1.3387099505    1.0358924986   11.9893719250
   1.2715534061   17.6298916050   12.6231788232
   0.6043932128    1.4137620092    9.6897590800
   9.9396052923   10.3090557437    1.7938882308
   2.6108336249    9.9308411201    7.4847875671
   6.2660438440    9.7345932266    6.6580374991
  13.6798541452    0.9353555322   15.0422378369
   0.1070915545    8.1668089898   18.6624361155
  16.5350908750    4.5157049714    0.6137289518
  -1.0695159591   12.9848835631   15.6387231473
   0.2919592104   10.3656114584   19.5020831240
   9.6308143659   16.6194448827    3.3659464019
   8.8475445907    6.1580492079   13.5896010182
   6.7965469590    1.6615012862   17.1917873230
   8.8991496574    5.3963377841   19.2816087280
   9.0741229598    3.8644193817   12.8158484137
   7.7513438952    1.3456231046   19.1495006324
   8.8448765227    3.3499886536    1.0261920608
   5.9452297007    2.5430472426   19.0987468673
   6.8296370857    4.9282943917   19.4297032035
   8.2588098426    2.0606422557   13.7377081166
  11.9969605625    3.8054352116   12.8992324350
   9.9154724949    1.7745245732   12.2427421536
  12.5478696074    3.8553679248   15.0598085900
   4.5499461681    7.1851622114   16.4894668581
   5.4785150270    5.2851673765   16.2909679789
  10.7927106833    5.0211104005   14.2944389059
   5.2248759195    6.4032214038   14.3624498386
   2.8522451181    3.6778793550   13.1857544694
   8.7212015290   19.2265738379   18.4457180836
   2.9376706384    5.7612903308   13.9481607038
  11.4759630471    7.5681901178   10.0957966874
   1.2586414108    5.3138807800    9.7550907333
   7.5415727640    8.8437545879   14.5660767039
   8.2851233860    8.8875468033   16.6538335508
   1.3538935146    4.6728964984   14.5680683377
  10.1308492114    8.2616614770    8.5625394586
  10.8397018328   18.9640775733    0.4274534640
  14.2888298154    2.5259859012   18.2358880601
  10.9014825009   19.3634538595   17.9520377230
   3.2067970846    4.7247074497   10.6238416156
  10.0130968038    6.1116138195    9.2961725895
   7.1336241244    9.0128220392   11.5204623984
  14.1175949644    2.0335768239    0.5980353743
  12.8655960529    4.1424059219   18.8363375815
   6.2707806293    9.4988727492   16.1710969228
   2.4492030362    6.7351473153   10.6857537781
   6.8324614244    7.4637051910    9.9937893471
  15.6154402463    8.8323044313   15.3875326155
   7.5999082500    9.3699720606    9.4428853500
  13.8067936041    2.5500130651   11.0617388084
  13.9478936199    8.0939234421   14.2633698720
  15.1736725274    4.4943323992    9.0137708324
  15.8073974779    2.3621724363   10.3719960408
  14.8690172787    6.4820435718   10.0342502764
  15.3815807404    6.7021511042   15.4474599582
  -0.8478762870    8.9027447554   11.4857580545
  15.4005488330    2.4765012099   12.5132046137
  -0.8038009430   10.0235671349   13.4115274170
  13.2073897915    5.1184531856   10.1518332593
  15.1954048430    9.7242429637   12.4680683571
   1.0969875814    0.8585962757   19.0998586179
  13.6233962977   12.7660991620   16.4507139620
   1.8642597593    2.3886942108    4.3791963648
   5.9111163360    6.0172193342    2.2493391170
   5.7187468653   16.0665157361    8.4090670824
   9.2817763467   11.3282298739    7.3388389044
   6.0793961845    6.5568465014    0.4977750362
   4.5523947517    3.0758528576   16.2718706273
  16.4487921584    3.7101321864    5.7797275213
   0.4729474462    1.7198296113    1.4651983477
   1.1974852029   15.5257712084   19.2437637336
   0.3409187317    0.1230933099    0.8075047923
   6.7912329387   14.3441013591    7.6666400434
   0.1144294520    2.4098634050   17.7760937434
   0.9932465872    0.3151103483    2.4877729743
  11.7322456382   11.9644874820   12.9673098759
   0.3925291723   19.1438326692   17.4930090956
   7.3619254979   14.5500617057    5.9691487324
  13.0077858546   15.1893940583   14.7574300184
   5.0455240104   10.4409965675    0.1186969514
  13.0918970440   12.0345017814   11.8832589200
   3.6869862213    4.6395023549   18.7709162111
   2.7056168034    5.9739243566   18.6778985431
  11.6025369867   10.0711650496   17.7200419744
  11.8824726718   10.2036169090    7.6270184715
   1.6751871303    1.6108033151    5.9163177240
  17.3233481789    2.6417565023    6.9398780456
  10.7127292440   13.5960024883    6.5858581757
   3.0236110098    2.2865000937   15.4110206722
   6.0604258145   19.2579263847    9.8492209069
  12.2921825214   14.5464740423   16.0450073049
  12.4321639199   10.8782858106   14.4808787716
   2.8444342723   14.6937515222   19.0020090483
   2.3470867595   16.1998352176   18.0595307114
  11.2518831956   15.5561469550   14.9056355774
   6.8778526563   17.4469115247    8.2585011296
   0.9238536170    4.0354137943   17.5456180272
   3.1807220863   16.5852997135    2.3256626584
  -0.8174726435    6.8504545143    7.0863848948
  13.8083554314   10.9639527420   16.8426207591
   2.2982722873    3.4147925200    5.7678064709
   7.3057667566   16.0549502328    9.3421975363
   8.7967828923   11.1166759922    5.6666523647
   4.0721662168   10.2504296712    1.6001235726
   6.9935391293   12.8580788125    6.6408090586
   3.6741374223    9.2661090621    0.1333414044
   4.4850701118    6.2470493547   18.3768451454
  12.5286695777   13.5848762401   12.4194612306
   2.6542687312    1.0254336799   19.6273919655
   4.7115981392    1.4377548771   15.4175938894
  -0.2328089073    3.7413716566   19.1457572889
   1.6994688213    1.2142295143   16.7556735530
  17.3333979570    1.7522753773    3.7066820281
  16.1251808325    2.6735836531    2.7361367971
  11.2861079194    9.8829474741   15.9348255700
   4.1852672936    7.6498059328    2.6572140951
   3.4777211150    7.5529761213    0.9103542056
   0.4324027965    7.6789351391    6.0778833587
   0.8063235210    4.3128598318    7.6393372866
   1.6658300856   16.4672670865    1.2226433521
  12.8717343280   11.2189179769    6.5688228323
   4.4338588711   19.0522425640   11.7004439128
  11.6452209966   11.8509155001    7.8206428915
  10.1603736539   10.8556053301   17.0598099161
   9.3838179245   13.5807998080    5.2633819780
  14.2185919147   10.7895690198   14.6076461033
   4.6061785064   18.6932739541    8.6668522325
   7.8268428824   14.1628431610    3.4739853232
  -0.7690313190    4.9778661007    7.6389131645
   0.8455391897    7.1801183426    7.6529675480
   6.5425931934   15.1714871570    1.5418979058
   6.2182298035    2.3739928528   11.1180447389
   1.3826815286   14.1009675129    1.6494399635
  13.7122941967   17.3137560444   17.5537174571
  14.4471443663   15.9529631665   16.7804847222
   4.8425212605   14.9439336184   18.7880533019
  15.3364986720   15.3644860189   12.7394885515
   8.9065720804   12.8870596421    3.1353967047
   4.5289569905    2.3937421925   10.6780839997
   3.4267671811   18.0708923473   10.4701271377
   5.9960380746   11.6200106379   17.5940256995
  -1.5144700654   14.1433092682   12.3666162830
  14.4820278531    0.8399995772    3.0110965786
  14.7425987046    1.8381231416    4.4416149244
   5.4242061205   16.7828832450    4.0917879546
   6.0301091166    0.6935985602    7.4983500520
   7.4167641668    0.1442497213    1.5216954188
   1.5430842567   14.9742877658    2.9258325315
   5.9796495499    1.5497371526    3.8607410256
   2.8757721884    1.6567276774    2.1425480892
  -2.0079676179   17.5304219117   11.9965832512
   2.5926314670   12.4157175186    3.6190080285
   2.4715584346   12.0366777354    1.6356456850
   7.1610328470   12.3524613794    3.1155207844
  12.8316769787   14.3939005136   18.2180718601
   5.1419283807    1.3266630409   12.1261844704
  13.9974669055   15.3278329304   19.1788020106
   6.8659450141   13.1515703276   17.1791312355
  12.3659185904   14.6006001536    8.0958562687
  13.7838124650   16.2016747371   10.8495503060
   5.8227435981   13.7950448018    1.8026403837
   2.7366622395   15.2265559938   11.8725075665
   6.0181567841   18.3673842734    4.6612824126
   4.2435267470   14.4628530110   12.1176856146
  13.6869973237   14.6347808691    9.1498694444
   4.2555358935    2.8052401452    1.8122116052
  -0.8539641263   15.7128061349   13.1461886357
   6.6636796741   14.8998787884   18.8168942114
   4.0083031543   11.9441318048    2.6120558827
   6.6665123431    0.4962848069    5.9345773659
   5.0400936264    1.0630991820    5.9846349641
   5.1545743890   13.0825535495   17.0823864272
   7.9646212148    3.9548948506   17.2624800030
  12.4001575367   18.4368965571   12.9957552881
   4.0474629436   14.3958515386   15.5341405754
   5.1457425696   14.6930014504   14.0847135449
   9.9662976756   14.3759389976    9.0245626630
   3.9935697499   16.2951953123   12.3046418454
   6.5375551803   17.6876826790    3.0658698322
   7.9671338467    0.7728350364    3.0744351803
  -1.4465363315   17.5818316752   10.4158153011
  13.9702351236   17.5830084681    4.0193160299
   6.2865596190    2.1642875299    2.1242228421
  12.3632748508   18.2604502652    3.4602820768
  12.4228891957   17.2852469673    4.7398687209
   3.8906962761    2.2207788996    3.4764617307
  12.5349704161   15.9768493531    9.2983637155
  14.3417399568   17.3825044333    9.6349914555
  10.5883971029   14.1643083630   12.0671221609
   1.3964397334   18.6852078079    9.5238562480
   2.8823453629   12.4177634376   11.7439011823
  12.4657820291   11.9511996036    4.0025727684
  14.0677776352   12.3225129564    3.3533104544
  11.8210899010   18.0669368111   11.2852073455
  11.6324222530   16.5819855310    0.8077877961
  12.9572751925   15.6505356507    1.5647850655
   1.1292243851   12.7377810444   11.2131934005
  12.6350713619   16.7574670435   12.3671819824
   2.1088484495   11.4331800003   10.4683697996
  12.5521857557   13.2468767468    2.7767472912
   4.2887751816    2.8646398984    5.9718377190
  10.3278468225   15.6489982408   10.3683515992
  -1.6507156728   13.7448645388    7.6744166532
  10.4279951299   10.9259306162    9.8910795692
   4.6492220800    2.7910171763    7.6103208201
  13.4503041908   17.0002210254    0.5341753101
   5.9197881885    4.7410178958    5.6008110715
   5.9759422897    4.9498250657    7.3729979536
  15.0389944574   11.4556597933    7.5314134104
   5.6332969820   18.9591076535   13.3219598920
   1.2524828842   19.4924753756    7.9753341173
   2.4632716633   18.2332584153    8.1724742711
   8.9428157550   13.9525356068   11.5144120812
   5.4450887416   16.2786511918   16.1946246477
   3.8345016701   17.0130103282   15.7532023391
  -0.0964633129   12.8225313476    7.8922001571
  -0.1668899859   10.5963967010    7.6102165788
  10.9795974892    1.7636470866   14.5295698995
  14.4918313082   14.9549243899    3.2407435889
   6.0472516600   18.9144998648   15.0584678918
   9.6093646541   12.4318841759    9.3040454643
  15.7713733517   11.1849993140    5.6704976282
   4.2201883160   18.7683306457   14.5415012469
  -0.8675995135   18.7495370643    5.9322382586
  -1.7481231676   17.1924930467    6.1811653235
   8.7178696039   11.3545840658   10.3703293412
   3.6139868206   11.8280584259    9.1795685718
  -0.6054567946   14.1229130027    8.8612972651
  14.4041058171   15.5094733405    5.0836018866
   4.5924150150   13.1401492437    9.9864512981
   1.2645545783   17.2184567976    6.1242705602
  11.1308859557    2.1372400583   19.3534126249
  15.2955369943   10.6869686773    9.3227702432
   0.1280263606   15.9989925421    6.8572023285
  15.8860956841    9.6375787365    4.7530435588
   3.2193907749    5.9652708310    4.8320840123
   7.9284191727    8.5421786689    4.7254983715
   4.8861875322    6.2235173147    4.9702555440
  -0.7976421392    9.4967492073    8.6851976439
  15.8368095122   13.5611606003    5.6176749139
   1.2001476894    7.0924380507    3.8091552982
  -0.6397043610   10.4110529926    5.2635058782
   0.4046625909   17.8948414874    2.7249240627
   1.4897347230   17.9102703977    4.3340205784
   3.9571480055   14.7524007302    8.1561671453
   0.8579646947    6.9821186928    2.0604908323
  -1.4506983950   14.9808740815    4.8493166785
   4.6631178715   13.2103961978    7.3852108465
  11.5671023336    5.6925350580    3.9830201000
   7.0457340658    6.6947681801   17.1885522746
   3.5776532499    7.1381562020    6.0045112325
   1.4138743990    8.5425492706    2.7228181450
   7.1677399710    7.2874285426    3.8754126804
   8.4407384734   16.0846107426   17.9462523701
  10.7466314609    4.2622177791    3.1761626442
   7.7920291948    6.7281977541    5.4059050342
   0.8260964523    4.1316417245   11.9510477306
   7.9822627886   18.4495831504   11.5322269206
  11.6107366849    8.9924462996    4.2992330064
   8.6493046017   14.7139785090   16.6389408718
  13.4376695390    5.5854119667    7.2005223029
  12.2587284871    7.5349079873    3.5582810140
   9.3025043554   19.5273097377   12.1173105906
   0.2867382030   19.1400078388    3.9518262308
  14.3494426328    9.9971252595    2.1028303154
  13.0640551073    5.8104958101    2.3389100674
   8.5041021834    5.6058888610    2.9483161065
   0.0142865407   12.2683003362    4.1040288334
  12.5092378856    9.8962875526    2.2170609798
  12.3288452289    4.3599581101    1.7371980303
  10.0417706543   15.4521615640   17.6597126608
   9.0096292002    5.0978635362    4.6687283023
   9.6420289842   18.3597543754   10.8048828464
   2.1225770634   14.9142820391    5.7816980793
   0.0637194282   13.9223720211    3.5333652996
   9.7234052952    9.0573491405   10.9091751370
  14.4305574769    6.9796122890    7.2786313491
  -0.2907096278   12.5223409701    2.3956038663
  15.6690072790    7.7351676756    3.8439499759
   3.8602640947   14.1759142125    5.4915070723
  15.0950331967    5.6873292789    6.3943891293
   7.9921529008   17.9644603758   13.7919090423
  16.8888403213    6.3778413433    3.8875554713
  11.8342101657    7.6760611798    6.1328584411
  13.5003112228    8.4470767751    1.6874881111
   2.3123491982   13.2152471362    5.1680280452
  13.3890033147    8.7328433361    6.0609021046
  12.4306884245    5.7639931240    0.5335371002
   9.1689027822   12.8084118493   17.2113535307
  -0.7688817078    7.5509163048   14.2318904940
   8.7145270072   11.0540802441   18.7883735187
   8.8595019002   16.7022552748   14.3904405574
  10.5492744789   13.1924629579   18.4109664326
  15.2435631116    5.9534179080    2.3525147599
  10.8878151503   17.8996811583   14.5944280494
  16.1691031909    6.7758262229    1.0632398906
   8.5416206390   11.6889647275    0.0433819559
   2.3495336324    8.9362790178   16.5218763087
   1.0626179708   13.7050172199   16.5834213782
  10.6927875242   16.9864901821    5.7865571710
  11.2261979144    0.5849819424    5.9035052391
   5.1491105869   10.3003910306    8.4474830992
   5.1348523667   10.7695825634    3.8672414610
  11.6427212788    1.1987926698    7.6416858698
  -1.0560694914    9.3301511745    0.9408169174
  -1.7217523443   10.6441315459   18.8306012075
  14.5585535929    4.7779653345   12.1374694343
  16.0623304300   13.1162847426    1.0182003217
  15.1855414833   12.7652835289   19.0610389419
   0.4478570254    0.3627081841   11.9388867110
   3.2828291983    1.0900137144   12.6810468289
   0.7350561230   17.4636224629   13.5671662946
  -0.1217135872    0.6605751459   10.0224186505
   9.7531880360   18.1964756046   15.9180167430
   4.7912663580   11.2147424715    6.9214689836
  -1.7876706767   12.9009526355   14.8564197466
   8.8444250975   17.3521635554    3.2190974412
   2.2433237635    9.7377032091    8.5287847438
   3.6320075953    9.2428224901   15.2957868137
   8.1211137865   18.1719430216    5.4270526323
   0.8586950919    7.9220847861   19.5127616328
   2.1451042429   13.4197424401   15.0531531578
  10.6466789320   10.3630287481    2.5905859583
   2.5195790115   11.0351030269    7.0860343921
  12.0768574197   19.4722939419   15.2098716491
   5.6836179236    9.2090388923    3.7116072547
   2.7086922276   12.2370708150   17.2349918242
   2.3812996318   17.8754551744   12.8517072549
   1.0534319503    0.8714427353    8.7412014219
   9.6449533554   15.6728713583    6.5742237422
  -1.3228436694   12.2695052273   16.5067696397
  15.4299675458    4.5076907561    0.6302273867
   3.8315124946    9.8601043322   17.0395557677
  15.0723245803   11.6207417223    0.8550494503
  12.8560620572    0.2824108799    6.8007070087
   4.6626902375    9.4972821217    4.8621455583
   9.7827442363    9.2802195610    1.4124641056
  16.3226126655    5.5126736953   19.4149979717
   7.1323970413   10.1340184431    7.2169390879
  14.0468198247    1.6476402712   14.2695332997
   0.4080873293    7.6281786238   17.7984288656
  10.5498508912   17.1079291361    3.3370835850
  -0.9761679592    7.9502471002   18.8508067022
   0.1153776693   19.3326112443   13.5922714447
   1.1183990058    1.8220008857   12.7307210567
   1.1253279276   16.6448354774   12.1127716876
   0.0956197102    2.2877946697    9.3491993621
   1.4727248058    9.2214457092    0.7109319610
  16.9991049103    3.4612876592    0.6254982883
   0.7777041881   11.3815533137   19.2777230605
   1.2922400296   11.2671023668   17.1838002949
  13.5630891720    1.5331148146   16.0152078080
   9.6066197399   15.9170897249    2.4382657928
   1.8898554835    9.5731960141    6.7409961838
   7.7126955504   17.0294276104    6.6934280451
   6.2845974933    8.5670656444    6.5836512565
   9.0438225091   10.7643659876    2.1516667253
  -1.1364554568   14.0112166193   16.1073115323
   5.2335478936    8.6589290084    1.2867046560
   8.8866717675   13.8684878365    7.1958988660
  13.4392020174   12.7696430659   13.9218765066
   3.7557999880    1.6114938401   17.2353281273
   1.6676177864    2.8029215046   19.1111424254
   0.4845356093    5.7153015962    6.1356336219
   4.4791353263    5.1584961159    0.7706551122
   0.2864878739    3.0999793995    5.1300736134
  10.9578803958   10.9950227483    5.9039907518
   5.6533539913   17.2983362483   10.0169437935
  16.8245944351    0.6162958376    2.0989815716
  11.8554842716   11.7794319050   16.7147335132
   3.5618774421   15.8947935416    0.4562856289
  12.4866149668   16.5392880078   16.3442845558
   5.5853267826    0.6622554673   10.2470506700
   3.3605635745   13.9490330621    2.3918456629
   7.6847913503   13.3916386500    1.5914807347
  13.1500326991   19.3530253015    4.8994511982
   5.8129376735   13.0520583229   19.0599636984
  -1.4953105088   15.8228275630   11.0818777815
   4.5296122200   18.3931130156    3.1338122296
   4.8433360396    0.8034139986    2.2780777654
  11.9288481421   15.8392425614   19.1626650184
   6.2433483281    2.5147760658    6.3136750808
  13.9097106077   18.1920126334   11.5754266772
  11.8412431415   14.1610349013    9.9829769723
   3.2551782223   15.1942590973   13.7936539844
   5.3283758075   17.1363240808   14.2202190017
   9.7694040150    3.0941758846   15.6813823944
   9.4411093072    2.9411353305   18.0593877098
   0.4919936685   17.4931989619    8.0976576222
  10.2943190963   12.4322536216   11.2539628506
  13.3907020396   13.7803672380    4.6608593575
   2.5648630051   13.3657657492    9.8996596971
  16.1884333625   12.4044657554    9.2058474124
  16.1749495283    9.4256205378    6.8199009889
  11.4596261060    2.2903570636   17.2450986438
   4.1342709400    5.2373867652    6.5143798832
  -0.6430853856   17.4145339483    4.4200050477
   9.2934435739    7.1494407759    4.1327235229
   7.8080184950    6.5179567827   15.3120539061
  16.1277956281   13.2633228868    3.6052350263
   2.7402843974   13.4566826757    7.1894236520
   9.2663572001    7.4283615459   11.9947539600
  13.5506556763    6.6931539564    5.4068987096
  -0.5582614372    8.2310439295    3.0678319463
   0.4157710034    6.1119165300   12.4059072222
   8.6955120533   14.1716910633   18.6143351826
  10.9527088038    5.9268269901    2.0116375224
  13.6391008542    9.0292536227    3.6641178092
   9.5042727660   17.3979382302   12.5731612705
  16.6208130075    4.7785549000   11.4440472625
  16.0309704470    6.6916491003   12.6186036675
  17.0190030000    5.1347633165    1.7766485113
   2.3989765169   10.8136008960   15.5775955623
  12.3587328496    0.4956872812   14.5745199497
   6.4736799796   10.3487985507    5.3577002922
   8.9119015442   18.5025459398    7.3872553938
  10.4376055049   11.1876003398    0.7167909466
   0.2928403915    9.5275834488   18.3142360579
   0.6444001494   18.6235984122   11.7540693867
   1.6449571993    1.6483036494   10.7104831006
  -0.6775228823   11.4793714914    0.7057616686
   9.3925261634   15.9074256689    4.5695262359
   0.2120898356   12.7761638601   14.9771023906
   3.8553396287    9.3645309060    7.1033261524
