B2 C140 Ca1 F48 H298 O66 
1.0
1.7908969143096090e+01 -6.4049710296839542e-16 -2.5997242978185010e-16 
-2.5328168870008438e+00 1.9376710360713908e+01 -1.8411063200861966e-16 
-1.0164216963854265e+00 7.9935814280510886e-01 1.9450476132409879e+01 
B C Ca F H O 
2 140 1 48 298 66 
Cartesian
   9.8202592826    2.9930800037   16.8226533082
  -1.2240424764    6.0325489892   12.1537516192
   0.0081288189    0.8667558741    1.6939923103
   7.1292700989   13.7620796619    6.5386190320
   5.1189240566    6.2083957595    1.3533256773
  12.3959321464   12.6160065954   12.5910798628
   3.6320947602    2.2914799268   15.5432133874
   1.6197887458    1.8735672647   18.3799734763
   1.3814098782    2.8231284008    5.4586154005
   1.9331498270    1.3861976879   16.9824098032
  -0.6009426359    3.9046747296    5.9370953356
   3.1205838102    5.9980288671   18.9456034238
   1.8490021188   16.2055506857   18.7956550316
   0.3189824085    3.6201773141   17.7254629701
  11.8532775763   15.5888446720   15.2809836799
   4.4739861654    9.7037263502    0.5615419333
   6.4675902187   17.2047003855    9.2065641092
  12.5840988864   11.7406801515   16.2221029764
   9.7418834308   11.9586685540    6.3844575765
   9.5472109157   13.4041379065    6.2239096268
  12.9811990685   11.4236858399   14.7816446254
   4.1720259685    7.4154946813    1.2846825115
  10.8315289313   10.2675487117   16.7152450803
  12.0832321817   11.4365327136    6.6981516690
   0.0521678817    4.8333541894    6.9670262339
   0.3876638840    7.1509843837    6.7619097294
   4.6680408043   18.5572299511    9.6906359491
   2.6392896651   16.2059847357    1.6510719468
  16.2964919218    1.5050263916    3.2372829035
   3.7370275041   19.0225072203   10.7294899637
   1.9916238507   14.8439465922    2.1598145530
  13.0680344386   16.6080813017   17.0895113141
   5.2727351210    1.8002500510   10.8386708667
   7.5660800810   13.7904025447    3.0459908778
  14.9769179819    1.1862272092    3.8903291859
   6.4709999622   14.1659660526    1.0340393653
   5.4720584645   14.7415102349   18.9778944192
  -2.1787557754   15.3740311199   12.2419932748
   2.4189635081   12.5838651009    2.3387491430
  12.6583420196   15.5444335337   18.0727514327
   5.5215140815   13.0573023157   17.2432059410
   5.3593489442   17.8596172027    3.5246075491
   7.1650934943    0.5074057169    2.4097215429
   6.0193570184    1.4947885583    2.7533484469
   3.7364942826    1.6726326652    2.5127832193
  -2.5352617281   17.2254759794   10.7673148940
   6.3985233373    1.1380945424    6.1892234524
  12.1523142152   15.1757702721    8.8221687055
  13.8703123117   17.4105416658   10.6570593904
   3.5527755829   15.3902665823   12.1949362616
  13.1898357763   18.3527560889    4.0645405784
   6.7088797569    2.2887598544   18.3350733469
   7.5111382043    4.6193157723   19.2120279870
   7.6658866848    3.4827071309   18.0746601417
   3.7296633880   15.3403185099   14.5855933228
  12.0646163015   18.1943267203   11.7579515983
  10.2058709053   14.6609751381   10.0380356677
   9.0666375097    2.8473504186   13.0819948828
  12.5232888946   15.7002154894    0.4717037286
  12.6702183765   13.0769460425    3.3872779876
   9.3611782134   13.8840696036   11.1537174818
   5.1904412778    3.1414450068    6.7013192543
   1.7184512093   12.7897994081   10.8563491958
   3.7753185541   16.7615249061   15.1297936972
   0.9102091840   18.4316745492    8.1126487784
  10.0404706704    3.0492612328   14.3494843767
  11.0466944756    4.2441424050   14.1545333180
   5.3911867146    4.6239199353    6.5015652841
   4.6366408355   18.9392488050   14.6724262001
   8.9989764902   11.8101578774   10.0689162949
  -1.1411645394   13.2430697051    8.5735685972
  15.3042220542   11.4251205971    8.5233981192
  -0.1134058094   16.9150391727    6.6773863939
  -1.5149971999   10.4038458939    7.9327216274
   5.4038776357    6.6976785093   15.7251349106
  13.9770951368   14.6607922296    4.4725932805
  -1.0465272471   17.8227163637    5.7986755902
   3.0565858282   13.6184450425    9.0350003627
  15.5601980938    9.8265038208    5.7232514324
   3.9278288233    6.2768591986    5.4623428062
  11.5749107041    2.1990182555   18.4636201175
   1.8365001726    5.0273675738   13.3249725980
   9.2229579018   19.9844743751   18.4904935246
  15.3518159071   13.8791772420    4.6078930693
   6.7918150119    7.2386351976   16.0355654361
   3.1001498802   14.2652701497    7.6810656372
   7.7057526525    7.2721279406    4.1782096044
   0.1071459130   18.1750184680    3.8128395261
   6.9426397732    8.6961109941   15.8505160285
   9.7556616737    7.7428579364    9.4472179445
   0.5466551126    8.1255613871    3.1117559965
  12.7207089129    3.1679281728   18.7617691205
   1.9204099179    5.5980560692   10.6873261949
   1.1111714201    5.1304605342   11.8952961816
  10.7572777493    5.5449999084    3.2883252047
   9.3125636773    5.6934060421    3.7518906160
   8.6011872632   15.5218693103   17.3800836836
   8.8535748560    8.3224327366   10.5577812328
  12.1917308995    8.5901156787    4.1363983490
   8.7969319139   17.9908190168   11.3200392521
  -0.8304805134   13.0445979418    3.4217996913
  14.2632582329    6.5927450492    6.4843283642
   7.4124803614    8.5679604613   10.0635431128
  13.3309618568    9.5548130665    2.2396432145
  12.0058858065    5.9553545445    1.2915345534
   2.7835747652   14.1586166988    5.3701924506
  12.4649184630    7.9234280436    5.5375074754
  16.2542741562    7.1372102585    3.3429276894
   8.5156097612   17.9822072345   13.7135556567
   8.9439447491   13.2423167934   17.9748122660
  14.8407682011    7.9939797845   14.6448451195
  15.9163177104    8.0479339604   13.4682121092
  15.8023230778    6.4572445052    1.9943248088
  14.9381557330    3.0379051042   10.9798723574
   8.6473048405   12.0479948064   19.0616438176
  14.8788301898    4.5564882332   11.1701762764
   9.3398351130   18.5429653991   14.8732718477
  14.2602840042    5.1801371661    9.9951323243
  15.7947575171    9.3932223645   12.6808939347
  11.3452497863    0.6169337175    6.8332442313
   2.5694638074   10.0096693014   16.2028021423
  -0.7355299270   10.1203079902    0.0644208207
   0.6949961935   13.2388645775   15.3335010592
  15.9186291775   12.0680134824    0.4850765363
   4.8994862951   10.4471127240    7.5340119650
   5.0718214533   10.3581999165    4.5624888257
   9.1689177599   16.7867401244    5.8327542415
   7.9843593897   17.7852555555    6.0894188510
   1.2134520313   11.9787507285   16.1190775359
   2.2273620696    0.5748656749   12.9088982788
   1.0219879130    1.1619341899   12.2348595984
   0.6871423178   17.8093076640   12.3522869460
   0.7681738693    1.6195677955    9.7886713632
   9.6745154902   10.8904072452    1.8645251225
   2.5592159118   10.0701049862    7.9678714491
   6.0873548803    9.8770885434    6.7455476645
  13.3991621632    1.1110760459   14.6144245122
  -0.5032451431    8.4201598572   18.5292801470
  16.8132978206    4.6922115620    0.7168931762
  -1.5645571235   13.1798641038   15.3256459754
  -0.2135361470   10.6434853614   19.2131012938
   9.5985019252   16.8824618620    3.4206955637
   8.5188721741    6.3887523265   13.3241660319
   6.4720584906    1.5948575539   17.1921021334
   8.3437788263    5.5595554425   18.9197936907
   8.7783885545    4.0653455928   12.4965597787
   7.3954047047    1.4242353110   19.1542555054
   8.6460188675    3.2145691389    1.0377963801
   5.5503431236    2.5829032904   18.8609516274
   6.2836733357    5.1763757477   19.3191385478
   7.8818150332    2.4079773890   13.4889195684
  11.5047224101    4.0798897607   12.8711744608
   9.6210592106    1.9686217795   12.2374268589
  12.0794995591    4.2176388763   14.9954847212
   4.3918789435    7.2747467172   16.3561838135
   5.2549977940    5.4111052192   16.1741089174
  10.5944465768    5.5337571085   14.1213765779
   5.0955935142    6.8090091535   14.3773465200
   2.6911483581    3.9305651392   13.5052186198
   8.1310420394   19.3298994161   18.0653445154
   2.5116128360    6.1792331071   13.5331987605
  11.0772852793    7.7817660407    9.8533588551
   1.0839191896    5.5017226305    9.6397730437
   7.0178122077    9.0823303768   14.5961352460
   7.9146714489    9.3226608547   16.5455477112
   0.8739273710    4.9293816140   14.4027242165
   9.7445480493    8.3134574379    8.2043325726
  10.4223871684   18.9587636539    0.3785017203
  13.7278286055    3.2128961570   17.9342555121
  10.3260548142   19.5540670164   17.7922425698
   3.0988368105    4.9001501060   10.5297732142
   9.2197744639    6.4325882529    9.2559341778
   6.6516920107    9.0804608886   11.0377741663
  14.2704927569    2.0960273412    0.5398674497
  12.2056842615    4.4638895849   18.7716436100
   5.6861946520    9.2448924413   16.2809872082
   2.2970147437    6.8991797694   10.8248312841
   6.8088146177    7.4535536282    9.5164298427
  15.0543340086    8.9346548548   15.6070262397
   7.4752748462    9.4767295908    9.0558222320
  13.7118653470    2.3986828908   10.8503684362
  13.6085016970    8.2457020675   14.1205654816
  14.6851420808    4.8000390582    8.7503299387
  15.8009090005    2.6831106845    9.9418103622
  14.5517354268    6.4948617033   10.1006191147
  14.9112232781    6.7842418882   15.2921817979
  16.1742707180    9.1305405176   11.4234244459
  15.4990985509    2.3692783659   12.0812549068
  -1.3059103671   10.3781383176   13.2196027476
  12.8690680660    5.1226939311   10.0562820509
  14.5870473525    9.9521391478   12.6076110692
   0.8192623516    1.3130372000   18.9034610281
  12.9280101213   12.7275419738   16.4890452631
   1.6246423917    2.0212279322    4.6798158102
   5.4232699267    5.9139986828    2.3437184564
   6.1266170212   17.0082953151    8.1654459056
   9.6305243390   11.6811138424    7.4558825804
   6.0591569298    6.4747169976    0.9392982659
   4.7687097337    2.4385556082   15.3766806724
  16.4852661869    4.4612111854    5.4461180430
   0.4809364453    1.7902493295    1.3031551963
   0.8244411538   16.4383590342   18.4506960994
   0.2029369551    0.1226112210    0.8914270714
   6.5269915532   14.6671755380    6.8835700372
  -0.3664203693    2.7128477422   17.3107679150
   0.5854734799    0.8231888049    2.5739307743
  11.4709028685   11.9988994404   12.4678010882
  -0.5938083133   19.6101441945   17.1311555586
   7.0043588490   13.7800451922    5.3647837635
  12.8176953457   15.2734408081   14.8284570716
   5.1715929543   10.4457687735    0.3503025179
  13.2689703833   12.1508818849   12.0865635891
   3.0985009059    4.9496011614   18.4952324374
   2.0998563871    6.3711713278   18.8186399097
  10.9022645343   10.3764818179   17.8542150601
  11.9582763980   10.6617785396    7.4754483250
   1.0135236124    2.3099429659    6.3333638284
  16.7891501102    3.0156522239    6.4707673994
  10.3646583316   13.9508445069    6.5527084490
   3.0213266923    3.1749864795   15.4543515306
   5.3171148360   19.3926361958    9.3530691710
  11.5803018064   14.6255523304   15.8057674321
  12.4149331855   10.5055623507   14.4520716929
   1.8131952719   15.1001553298   18.9675851701
   2.5149052554   16.4523528336   17.9505144224
  11.2620615694   15.8848495776   14.5180981451
   7.1852699476   18.0074378075    9.0687441510
   0.7413898506    3.9774911977   16.8022223259
   3.3165669083   16.5074879952    2.5559959549
  -0.6229912460    7.4723601811    7.0928727963
  13.2110658221   11.0260174564   16.8313118680
   2.1607257384    3.5233517560    5.7065125853
   7.0003830444   16.2649412207    9.6037259785
   8.9009974310   11.4544206639    5.7972263198
   3.6895913194   10.1866830339    1.1560772794
   6.5884382859   12.9670213152    6.9666845562
   3.0042161076   10.2362917208   19.0652226104
   3.7528288134    6.5793763002   18.3221274950
  12.5205768837   13.7075877123   12.2265341158
   2.4764711769    1.3191937329   19.0002716634
   3.3932325821    1.5239728281   14.8802512962
  -0.2542802709    4.3611989846   18.2209967073
   1.3075470693    1.8664779456   16.1801480500
  17.0576832794    1.1618139869    3.9168836367
  16.4114969131    2.6320339325    3.0275928884
  11.5679329596    9.5635924622   16.2914258583
   3.4797549694    7.4095727387    2.1563089165
   3.6492833907    7.3675688892    0.3641033938
   0.7663229945    7.8516351057    5.9077911457
   0.7074473059    4.2397122259    7.6063350410
   1.7940924693   17.0269354801    1.5324962847
  13.0041056174   11.1828488982    6.1823041832
   4.1698201354   19.4231256884   11.5992743291
  12.2556291503   12.4354879297    7.2923658258
   9.8303847945   10.0034913273   16.4363073248
   9.1033615923   13.6311284956    5.2977885588
  14.0026633859   11.1951698141   14.5613811321
   4.0469737856   18.2437110626    8.8410474443
   7.0409559607   14.7457439789    3.3651777080
  -0.6115749041    5.3755583812    7.7100100281
   0.9953807755    7.4180728026    7.6699548445
   6.4841243323   15.2587568334    1.1641987682
   6.2485615986    2.3245135835   10.9993378489
   1.2812238316   14.3303661218    1.4247040523
  13.1929207428   17.6688600335   17.5796036716
  14.0217568339   16.3813065734   16.6053028703
   4.6104914320   15.3159028009   18.6904237070
  14.6247890652   15.5087558171   12.6067592718
   8.6307336154   13.8098876715    3.3470980295
   4.6259763612    2.5622504474   10.3085931291
   3.1167573940   18.1710518612   11.0084376363
   5.7034362860   12.0162991455   17.0478493840
  -1.9954027181   14.2561256581   12.4329356792
  14.1566330698    1.0050894376    3.1127632390
  14.5590842271    2.1487071742    4.4798730856
   4.9213027462   16.9170817310    3.8782861903
   6.9439287486    0.9333248257    7.0899827750
   7.0981138591    0.4402386714    1.3233405542
   1.3836717487   15.0308196431    3.1018767749
   5.8373819699    1.5869946623    3.8054161450
   2.9255799464    1.2415451158    1.9003792389
  -2.0409208714   17.8411916644   11.5860155780
   1.5022861373   12.2481509073    3.0962969797
   2.2542164282   12.3327329382    1.2275294542
   6.9766031667   12.9514022133    3.5008007757
  12.6318902604   14.6143072710   17.5478874319
   4.8728926874    1.4700498813   11.8064643818
  13.4128373620   15.4553071886   18.8803758055
   6.3685370513   13.5652729269   16.8478503087
  11.9745028014   14.3536294284    8.0931647921
  13.4823270760   16.4712116450   10.9612077616
   5.5229700912   13.8292510224    1.4846073193
   2.8550417595   15.7417439167   11.3599832266
   5.9547261486   18.4178815766    4.2447352177
   4.1735252799   14.5979056776   11.7110595050
  13.2358621326   15.1294148643    8.9669365899
   3.8410118203    2.7279330269    2.3356485412
  -1.5834596242   16.0045187456   12.8813572000
   6.3603845523   15.2404770879   18.6119363700
   3.1651513621   11.8494183493    2.7441167284
   6.9224194342    0.7987992941    5.2766937593
   5.3462332434    0.7274151493    6.1183696428
   4.6815663481   13.3661726254   16.6134367179
   7.3166458366    3.9237246311   17.0856671385
  11.6326635509   18.9478987432   12.5006532504
   3.3846536381   14.6554910127   15.4524556576
   4.7448503983   15.0547888844   14.5423202875
   9.8857562572   14.3935329991    8.9744585863
   4.2772004425   16.2600065232   12.4008776242
   6.1494846740   17.4062984127    2.7967024369
   8.2106463879    0.8093245537    2.6206424701
  -1.9728283520   17.6364617088    9.9040666941
  14.2848966091   18.2647139413    4.0804042759
   6.0209189524    2.5284746614    2.3123305809
  12.6752055606   18.1758448725    3.0279982868
  12.8208882177   17.4009750410    4.5796167678
   3.3846959491    1.6951687294    3.6203952956
  11.7373202680   16.1377859747    8.4221902141
  13.6122828517   17.3906406049    9.5503136474
   9.6300641257   14.5272745995   12.1428105982
   1.2667561828   18.3544944602    9.1231002739
   2.5780317434   12.0734266716   10.9478668473
  11.5196400165   12.8463719471    3.2426813237
  13.1793913594   12.0746406646    3.5112513626
  11.5530519824   18.1251298781   10.8494742433
  12.2188062057   16.7087445464    0.2648154367
  11.7422683386   15.1038966259    1.1102493507
   1.6226891806   13.4202427958   11.7546622698
  11.9665783697   17.1235288331   12.3043529745
   0.8807917639   12.1320890086   10.8996880307
  13.0248940696   13.6085512605    2.4160629289
   4.4153477556    2.8705684073    5.9708432699
   9.8168969158   15.7113329376   10.2651024136
  -1.5865154458   13.7911202192    7.7522945987
   9.7672681736   11.1273575884    9.8011359072
   4.8952412341    2.6563562166    7.6705335945
  13.4511644317   15.7555127646    1.0081989558
   5.8302715814    4.6462508107    5.4123451552
   6.1484991862    4.9598694641    7.2926993183
  14.9073502330   11.9909054924    7.6632691001
   4.9598396056   19.4605698524   13.8609734857
   0.5256336538   19.4995833577    7.9170341719
   1.7221330453   18.1866549903    7.3481374718
   8.3065298260   14.0492236492   11.0040842289
   4.2464832010   16.7353644625   16.0992491255
   2.7828286269   17.2216977850   15.0857964572
  -0.1908029707   12.8194372052    8.2697346668
  -0.7043983255   11.0449736135    7.4854220489
  10.7113924820    2.1262197563   14.3394360928
  14.0841535183   15.1486107156    3.5051007512
   5.3845182209   18.9786310831   15.4730904716
   8.9249340760   12.4782746508    9.1045643445
  15.0832516357   10.7956522037    5.6268988987
   3.5944480562   19.2028353503   15.0253529534
  -0.7672612899   18.8393756895    5.7713170407
  -2.0274984184   17.6892436463    6.2148759559
   8.0595848184   11.2847791917   10.3194505212
   3.7433786730   12.7177665851    9.0478730775
  -0.8558599165   14.1644972510    9.1637602476
  13.9202172985   15.3750832507    5.3084479722
   3.5110196614   14.5506962376    9.5488988329
   0.9719712874   16.7657954081    6.4158037353
  10.7794065634    2.3416689483   19.2382576789
  14.4775568299   10.8507721474    9.0546264395
  -0.6332158311   15.9059906253    6.7963121335
  15.0053816291    9.1264055806    5.2931435874
   3.3973932337    5.7443675838    4.5798267848
   7.5135499897    8.3778633308    4.3081415699
   4.8101217639    6.7222795592    5.1168109265
  -1.0458765996    9.9230120489    8.7592402467
  15.3303661218   13.1344081072    5.3820802822
   0.8287472498    7.2698253210    3.7623485806
  -1.4286191085    9.7813023326    5.0947129796
  -0.0503733175   18.1925532331    2.7465385356
   1.0893480121   17.6335468485    4.1670473869
   2.5277048849   15.3288061219    7.8950165932
   0.9027968021    7.8621167191    2.0275908722
  -1.8326950050   14.6328465698    4.9221383898
   4.0959226177   14.5127101108    7.5166682611
  11.5147251456    5.8432550523    4.0050982058
   6.7072982605    6.9014432942   17.1981663875
   3.2282822651    7.0375587907    5.9293621445
   1.2834790067    8.9347845271    3.3625742991
   7.0597978633    7.0628093070    3.3204424963
   7.8671802394   16.4062227082   17.6329138027
  10.8718862458    4.5049450379    2.9812337980
   7.3286931590    6.8651278743    5.1295741781
   0.6228884267    4.2043822272   11.5816206329
   7.6636110904   18.0546035447   11.2825777607
  11.2908988593    9.1553291943    4.0896769594
   8.4780423599   15.2896755301   16.2757818462
  13.7490253702    6.7611061156    7.4397057173
  12.0350005249    7.7535819790    3.4552592669
   9.2182310387   18.9424309300   11.0969127459
   0.2102723173   19.1528185578    4.2742167059
  13.8095637248   10.4976695098    2.0342927618
  12.9468070060    5.9003758817    1.8380641455
   8.5370303967    5.2342918083    3.1240667828
  -0.4542492935   12.3639923555    4.1632895638
  12.3955561497    9.2152629061    1.6900427237
  11.8906669278    4.9401413216    0.9822159559
   9.5797910066   15.8827810042   17.6910249687
   9.1578339311    5.1378764936    4.7507130799
   9.1239129879   17.3181814791   10.5671128200
   2.7390384841   15.3526836093    5.4430761811
  -0.4388412343   14.0183721160    3.7841374001
   9.1688546549    9.2733662109   10.8654436126
  15.0191294080    7.4292289564    6.5515575861
  -0.2495130623   12.7070245739    2.5023399292
  15.4008503658    7.5520571359    3.7611283006
   3.7145694592   13.8428515039    4.9866197963
  14.5385672876    5.4676827064    6.4387179732
   7.8034082767   18.7980514807   13.5122818820
  16.7352594958    6.2848278495    3.9438439862
  11.4311764197    7.6087718116    6.0662739245
  14.0320320038    8.9206318749    1.9039845644
   2.0447251393   13.9580303479    4.6351939645
  12.9552981268    8.6093684726    6.1805249830
  12.1102680138    6.5833149875    0.4725428262
   8.8788528331   12.7313569246   17.0066284706
  -1.0249900690    8.1405629332   13.9591346295
   9.1607617818   11.1503938333   18.7532346395
   7.8829876787   17.0666539117   14.0621310740
   9.9823624901   13.6293537900   18.0250267802
  14.9025024741    5.9425120418    2.0232075719
  10.1935191945   17.8409335423   15.0023366777
  15.7987100054    7.2725199699    1.2708712948
   7.5726254442   11.7960407874   18.9676628653
   1.7689746810    9.6429779344   17.0726859406
   0.3876359090   13.9974881759   16.0100463249
  10.1452726212   17.4516623746    5.8135145830
  10.7438617373    0.8701349516    5.9092286383
   5.1226474710   10.4053524574    8.5953280703
   4.4307636429   11.2368872336    4.8775048004
  11.3940176562    1.3508287056    7.7177707930
  -1.0857112050    9.5515766827    0.9394908734
  15.5298956887   10.7278078847   18.5723030701
  14.0709201982    4.7025221117   11.9889554670
  16.0375867151   13.1394325101    0.8260449778
  14.3187038190   12.7480371910   18.8833818213
  -2.3380616988   19.8180390579   12.3317208443
   3.0367240045    1.2644454772   13.1171211901
   0.0519930509   17.3783416061   13.2032959752
   0.0128405003    0.7676214815    9.8325389434
   8.5535918222   18.3511137971   15.6504045773
   4.6392328133   11.4968357091    7.4185921082
  15.4130673723   12.8446316717   14.8163950425
   9.5340586137   17.9776122359    3.7079396804
   2.6625285804   10.2309754942    9.1085239867
   2.6124901415    9.0742629463   15.5589853704
   7.7112203916   18.5370655844    5.2878221525
   0.6190376097    7.3984454077    0.1187443439
   1.5540272225   13.6700576768   14.7106789189
   9.9156231480   11.1835280594    2.9772278453
   2.1946125843   10.9112234269    7.4363482611
  13.9900779542    0.6067838658   13.8651148117
   5.3753341585   10.5268483499    3.5792030659
   1.9725106771   12.4244394149   16.8217577648
   1.7040807713   17.8581037431   12.8107307519
   1.3672280236    1.3416408725    8.9543262496
   9.1937528126   16.0505118459    6.6405185543
  -1.4986269377   12.8092013407   16.3410999243
  16.0195328790    3.9004549171    0.7610493280
   3.5119732830   10.3075045617   16.6045680042
  15.3792883393   11.5102399502    1.2740745465
  12.4469347646    0.4330017065    6.6030635067
   4.5742472692    9.3636904129    4.3162735335
  10.1645025405    9.8046990569    1.9131722602
  15.8012001882    6.0733077100   19.2297626142
   7.0759432946   10.2788953548    7.1317583864
  13.2206927673    2.1655632842   14.3201998278
   0.1179349126    7.6996157310   17.9604637834
  10.6478276485   16.5879559047    3.2197533925
  -1.4682128059    8.2505718176   18.0599053808
  -0.6713306655   19.4891691901   13.8188385331
   0.7284804990    2.0500123353   12.6785858872
   0.7099291266   17.0628475989   11.5877509140
   0.0953906081    2.6054667733    9.6011598755
   1.2858529915    9.5190487024    0.6547953095
  -0.1048621701    4.2078355199    0.8593661782
   0.3099342234   11.5175025738   18.8428199539
   0.4075938854   11.3720146154   16.7472925029
  13.7300424431    1.1973655844   15.6076063304
   8.8903643024   16.6113858252    2.6080980800
   1.8029620300    9.3720339054    7.6966872085
   7.0636391325   17.2262421891    6.3933735446
   5.9911949162    8.8241826724    6.7790936662
   8.5298962532   10.6174872467    1.6744955690
  -1.5011108030   14.2729234572   15.5736277555
   5.0181861090    8.6091420598    1.3578666270
   8.4566467529   13.7874097727    7.0911792040
  12.6159223625   12.6892373692   13.9825624572
   3.5030588466    1.6810028353   16.7430415159
   1.3842247684    3.2749295528   18.5780319107
   0.7446818566    5.9073508982    6.2509470104
   4.4886008430    5.0427685479    0.7863089722
   0.2366924496    3.4836322446    4.8948710718
  11.0600475317   11.5191361702    5.7150282813
   5.4476559556   17.5264891553   10.1113402797
  16.5285117230    0.7748981895    1.9962373937
  11.1355875419   11.6284972500   16.3394136023
   3.3921514867   16.0942234245    0.4058778318
  12.0769138943   16.7458770513   16.0362921681
   5.3928126105    0.6441653152   10.1260093106
   3.0357198392   13.9223176414    2.3877104126
   7.5156210343   13.5457639890    1.6860061681
  12.6578449567   19.4409847778    4.7647894341
   5.3591490598   13.3470731930   18.6195088395
  -2.0322371352   15.8480109711   10.9195539513
   4.3038302764   18.5946488317    2.9005652644
   4.9069808511    0.9207849022    2.1719545051
  11.4261070053   15.9494867759   18.5927760215
   6.3772589799    2.5655936447    6.1769708479
  13.4452226868   18.4507484536   11.5554679437
  11.5785684234   14.6971344953   10.0870958824
   3.0155440051   15.0805308585   13.3979549839
   4.5122396310   17.6171384779   14.1643458314
   9.3236676196    3.1691493302   15.5193494913
   9.0234121798    3.1198428084   17.9667461077
  -0.0923214965   17.4399744810    8.0090530683
   9.4722340313   12.4767248987   11.3126686275
  12.7940704228   13.8980255910    4.5392835771
   1.7618026572   13.4354220817    9.5665038544
  -1.9709794765   12.3796481216    9.4272969181
  15.8943077305    9.4401360165    7.0650014451
  11.0846220803    2.5266179170   17.0915798141
   4.2115430895    5.4346868270    6.5700305587
  -0.9946463740   17.5003140574    4.4813498538
   9.0675568306    7.0379810463    3.9987327844
   7.7435225519    6.4692552147   15.3581567806
  15.6807872674   13.0776966417    3.4103044238
   2.5049411439   13.4944788591    6.5961482765
   8.9033584682    7.4593507957   11.6171123392
  13.4294320120    6.8209620361    5.3329968624
  -0.9160906428    8.3821663746    3.3059710729
   0.1425724681    6.1867449302   12.2295633233
   8.0533962610   14.3154734971   18.1093974087
  10.8970332824    6.3826025583    2.0894845492
  13.2494206761    9.3895708071    3.6367447570
   9.2582265243   17.5474656661   12.6209176784
  16.2274741566    4.9756618304   11.3720227155
  15.7109101526    6.8814676466   12.6669497377
  16.7653048388    5.3868042418    1.8363435439
   1.9345546624   11.0184877884   15.3453500313
   9.5503963847   19.8981473317   14.3920395648
   6.2375063348   10.3351037615    5.3500815702
   8.3410428190   18.6253254297    7.2910151885
  10.1346704765   11.6964656521    0.8991083292
  -0.0349351154    9.6660721318   18.2067176073
   0.2367781276   19.0599607100   11.8785256437
   1.4992035628    1.5812887643   10.9341412520
  -0.7138999083   11.5250994968    0.3750270896
   9.0282115952   16.1265576324    4.5184345001
  -0.4375498926   12.9023524197   14.5029579366
   3.7695182257    9.6470781504    7.3005859313
