B2 C140 Ca1 F48 H298 O66 
1.0
1.8998412119325952e+01 -1.0688054749377935e-15 -1.1733587174952541e-16 
-2.7510172818313254e+00 1.9772584456950948e+01 -5.1410746651987760e-17 
-5.7473839394025439e-01 -1.6663132978358949e-01 1.9268083972335429e+01 
B C Ca F H O 
2 140 1 48 298 66 
Cartesian
  10.5083138088    2.0696432787   16.6094504856
  -0.9526540944    5.4160251137   11.8033911550
  18.7844042402    0.3227491816    1.0633731836
   8.1899487826   14.4852692516    7.1794251330
   5.7058191108    6.7163602054    0.7728019540
  14.4772860744   13.0256225956   12.4350824818
   4.0687930245    1.5744674336   15.9359268667
   2.5480994634   -0.1397974727   18.6964911489
   1.2103867232    2.7141603039    4.2425920955
   3.3048427018    0.0518367854   17.3291803351
  -0.3247021115    3.2188933787    5.9428269600
   4.2879558642    4.7598432546    0.6098691560
   2.5980087135   15.7509738061   17.6264914384
   1.4153732376    2.0630968517   18.4084826476
  12.6283496235   14.9595250358   15.5676240702
   4.6335277307   10.1617477624    0.1911337103
   6.3811521945   16.2635866619    9.0432071629
  14.2725557823   11.4919785218   15.8384721345
   9.4474562550   11.4472098369    6.6934918376
  10.0243503606   12.9352076391    6.6323640588
  14.1209015380   11.5081175162   14.2738661880
   4.5851458175    7.7437577684    0.6759040455
  12.2326799943   10.7369309624   16.8680846307
  11.4730598905   10.2941338605    6.6132277426
   0.1971682510    4.3911983307    6.7493980420
  -0.0601879966    6.7370512162    6.7237400945
   4.8953421751   18.1299855647    9.3283893741
   2.6017713083   16.2539431546    0.7962704709
  17.3872076480    0.7437884957    2.9936065882
   4.0529634803   18.8067896311   10.3675655845
   2.4080247394   15.1172934226    1.8134892318
  14.0135180683   16.0936091707   17.0882473821
   6.1702528510    1.1605113434   10.9950508166
   7.7244698452   12.9571478199    3.6497573737
  15.9199801466    0.6590032973    3.4171436933
   6.2134355266   13.6840492751    1.9990349200
   6.2414843651   14.1392472927    0.5851144587
  -0.9119996310   15.0310480239   11.4741356746
   3.4400803125   13.6762891608    3.3449412463
  14.2515454411   14.8505973646   18.0207589102
   5.6292836386   13.4731736331   17.5896395102
   4.6967328928   17.4636434870    4.2212870322
   4.7422153331   19.6417625815    3.3872585231
   6.8771775212    1.1589846540    3.4266766527
   5.0142234853    2.0566699696    2.3369285921
  -2.0014008393   17.1045187610   10.9415222704
   6.5026744383    0.8497822829    7.1080025455
  13.3082424577   14.1961275264    8.6174463733
  15.4965400456   17.1982463048   10.6154214054
   4.1240937397   15.3420188446   11.9733210447
  13.7408950135   18.1051971213    4.1322835997
   7.5410451336    2.2960372504   17.8808235295
   8.8480341969    4.3637589753   18.7369960329
   8.6978617047    3.3441677509   17.6292416988
   4.1767708020   15.4207441846   14.3536491770
  13.3409866930   17.9746973220   11.3732521898
  11.6541416243   15.3130770224    9.9617033715
   9.7854521768    2.2963602089   13.0171074918
  14.2326568380   15.7277796946    1.0160731918
  14.1042910504   12.7341456213    5.4288460447
  10.9893808950   14.6520389253   11.0661324072
   4.8971896508    2.6446957779    6.5424188469
   1.5980500732   12.5721985092   11.7089698238
   4.3177641236   16.9389086364   14.6731395727
   1.0465283750   18.0323565000    7.8883924359
  10.8609379454    2.2420237968   14.1401837297
  12.1794171359    3.1175583525   13.9097200098
   5.0036679650    4.0264997957    5.9866797367
   5.5182683649   18.8961811986   14.2022931011
  10.3284627524   12.6068240583   10.2700154432
  -0.6336453186   13.1469615202    8.4686003345
  17.0353294428   11.3090206558    7.8539925498
  -0.7945868435   17.1240237937    6.7173152820
  -0.9717928586   10.4328587787    7.0658223526
   6.2709947726    6.0027977703   14.6680105572
  15.2274956557   14.4550163827    4.3596531690
  -0.7007657173   18.2266759374    5.6121510762
   3.0034215238   12.5184634766    9.6480220867
  16.9070658950    9.8535764779    4.9834444324
   4.0731649908    6.1977881263    6.3273601252
  12.1448594160    1.0705142975   18.1602937151
   2.5635337256    4.6310532276   13.0642557100
  10.0383820863   19.3722291953   18.2982752415
  16.6845254495   14.4826779960    3.7474473361
   7.4573536966    6.3169720861   15.7190730415
   3.5391360824   13.5642962102    8.5811198539
   8.9940172063    7.4205825395    5.4370417496
   0.2757195316   18.6844031193    3.6145079906
   7.9409745312    7.8908756584   15.5299252645
  10.6244604477    7.2220824775    9.7831006427
   1.2265278649    6.1675100821    2.6233333280
  13.1125913526    2.2472633524   18.4928777703
   2.1456064250    4.8374408992   10.6306467608
   1.4171409184    4.5702112803   11.9985374932
  10.8626869904    4.9155761432    3.5202178128
   9.6675095641    5.6487690445    4.2371677636
   9.3131379539   15.4774292035   18.1790490638
   9.6877408253    7.8653182979   10.9264542039
  13.7414119143    8.0515460089    3.4302481233
   8.8340096795   17.8348442412   12.2369478863
  -0.6410256201   13.0413502074    3.0903355335
  14.7810975845    5.1516044997    5.4444593920
   8.3152515008    8.0079138795   10.5261442739
  14.7776028538    9.6870122190    2.0295730363
  12.4790646291    5.2872632681    1.7749404696
   2.6538666131   14.7049593679    6.7743553510
  13.8339901631    7.1880441891    4.6387766667
  17.8591613164    6.5506730612    2.7542561557
   9.0953190400   17.4282614890   14.6088872236
   9.4397379009   13.2173157432   17.9608322185
  16.1822370924    7.4777410588   14.2891824279
  17.4439279350    7.2727560334   13.3748661698
  17.1581900132    5.7081231932    1.6702820113
  15.6134767909    2.7370613639   11.2200083708
   9.2484288826   11.8881572415   18.6708715953
  16.1312190483    4.2802062731   11.0086213030
  10.6283114821   17.6626163180   14.5568027150
  15.6611000819    4.6945486182    9.5806884910
  -1.1414578922    8.5656844806   12.5464855217
  10.8170905311   18.8717406815    7.0224215888
   2.8178713641   10.1893843822   15.2328191881
  -1.5076020175   10.7161147735   18.9885718568
   0.8871450921   13.0546744271   15.1643604734
  16.8617538127   12.9644441118    0.0564290538
   4.8712024958   10.1651597016    6.5126357054
   6.1080290874    9.2302002825    3.7377917108
  10.0327257329   16.5665380614    4.7280548347
   9.2188794079   17.7250099120    5.5194557855
   1.7880501716   12.2377197086   16.0243229568
   2.7222267150    0.4757434098   12.9353368733
   1.3489119459    0.9655252225   12.7197724017
   1.0912569183   18.1488905507   12.5619655554
   0.6282646545    1.1540924910   10.3429614498
  10.1787844804   11.0025407427    1.4905647213
   2.5149507879    9.9659475496    6.3700453964
   6.2016833217    9.6755913917    6.0474268896
  12.3589848527   19.3402565839   14.6628736994
  -0.9072953864    8.1286656625   18.4055128968
  17.3405071353    4.0650215611    0.1260406703
  -1.2132023479   11.8737962787   15.0400631424
   0.4021134884   10.3319996437    0.0962436273
   9.7778205432   17.4335112699    2.4816164735
   9.7464215140    5.7392635960   13.5718712232
   7.3562752994    1.6096895014   16.7310779860
   9.9719109626    5.0118717125   18.5182502483
   9.4647712572    3.5399879132   12.6145724468
   7.8231814844    1.2700470635   18.8289535650
   9.3854393752    3.8988226481    0.7303217485
   6.4381623413    2.9628115093   18.2324750077
   7.7759899918    5.2576961156   18.4965651722
   8.7003642253    1.6080287597   13.5154368217
  12.5601131274    2.9687629651   12.6031042859
  10.2103141781    1.6116542740   11.8687724706
  13.1444970515    2.8981605290   14.7592559970
   5.1615145806    6.8635678602   14.7052306870
   6.0225851582    4.7575126824   14.7630461402
  11.8512612908    4.4562764676   14.1449313967
   6.8062774732    6.1513462813   13.3423247188
   3.5303892661    3.7374856756   12.9012192181
   9.1539581741   18.4554793004   17.9635212998
   3.0915463553    5.8560227886   13.3667822379
  11.7526131269    6.8042899197   10.3945688756
   1.3447648410    5.0492506768    9.4868700092
   8.6027718697    8.0130025514   14.2739265497
   9.0388164604    7.9883959612   16.3789485931
   2.0315320780    4.1778570817   14.2989321734
  10.9842691347    8.2189468155    8.9870311687
  11.0995807938   19.2491921251    0.3038186370
  14.2043740271    2.0096689920   17.7448741232
  11.1524736181   19.2764554638   17.4500142789
   2.9759522647    3.8013943677   10.4665882853
  10.1108306920    6.1959035887    9.0189888054
   7.5166730430    8.2631550470   11.5879233039
  13.9894333384    2.4250098475    0.5466479067
  12.5978868219    3.4678460480   18.2298561130
   7.0855078239    8.9006334845   15.6787001811
   2.9226538680    5.9232116784   10.6767012327
   7.7969340974    6.8043261288   10.0034655278
  16.2901887998    8.5866090062   15.0158060099
   8.0608612049    8.9808131952    9.6387017984
  14.2898136341    2.5743773755   11.0069255786
  14.9213198282    7.5273318328   13.5664596249
  16.2901491289    3.8140865299    8.8206861826
  16.2782779437    1.7685891007   10.6419088932
  16.0277596921    5.9459803464    9.1584138594
  16.0244701982    6.3994676894   15.1390778545
  -0.1542641162    8.2491764880   11.7269270427
  15.8154134639    2.5190038878   12.6053617008
  -0.7187901237    9.6767271739   13.2524109169
  14.3026197624    4.5500942637    9.4534666075
  16.8685829562    9.0051753652   11.6910961431
  -1.0796658860   18.9416246596   18.4700808666
  15.0576472808   12.3473907624   16.0920752622
   1.3820864479    2.8866873161    3.1884244584
   6.4815096773    7.0728987900    1.5078946339
   6.1321621133   16.2402676035    7.9423416450
   9.3540929508   11.0243116864    7.6849606140
   5.7305449015    6.5547735285   18.9901616340
   4.5746838578    2.6353002931   15.8080876739
  17.5608215875    3.1453393115    5.9838224919
   0.5024947276    0.9579365603    1.6164007090
   2.3471817696   16.8152977393   17.2989052685
  18.2730548950    0.8463022941    0.1515338417
   8.1687582370   15.5447530430    7.3123854827
   0.8159306351    1.4561540362   17.7204828802
  -2.3262638869   19.2232196408    0.7482582581
  13.4808133113   12.7680095654   11.9508433610
   1.3743159360   19.1007450199   17.2598664282
   7.8363221833   14.2243397033    6.1579143324
  13.6720350363   14.8266956702   15.1550736809
   4.9200221674   10.7491080100   19.1158524941
  15.3371980945   12.4783589687   12.0289938398
   4.1551302920    3.8559924162    1.1962088626
   3.3229571902    5.2995212141    0.5840009930
  12.8391445125    9.9006768043   17.2584054712
  12.2629312267    9.9616123327    5.9288629969
   1.3341537627    1.5920937825    4.5754435006
   0.0910025376    2.2011779388    6.2525931080
  11.0834922697   13.0220118264    6.8557194312
   3.1538994165    1.5583313856   15.2936911157
   5.7898760772   18.8341280162    9.2177123227
  12.1445058299   14.1006271819   15.9737401849
  13.2100269457   11.1959610316   13.8837429921
   1.6672715800   15.1930751278   17.5196384040
   3.3760193059   15.3137081500   17.0355326929
  12.0194139526   15.3659406741   14.7581320761
   7.3499803347   16.8467538452    9.1113155943
   2.2540140152    2.6400923262   17.8732455449
   2.8631681548   17.1825131619    1.2844555069
  -0.7390246348    7.4502312088    6.2735288407
  14.7435053604   10.5291850389   16.0458007353
   1.9524271227    3.3447783906    4.6769657138
   6.4825199513   15.2087431176    9.3716897145
   8.4811623083   11.6182096496    6.1287185400
   4.4667353258   10.5514529657    1.2329215573
   7.5094573165   13.9501736432    7.7856937306
   3.1063380779   10.2545082759   18.9917940095
   3.9334287890    4.2728654896   18.8189851220
  14.7093588466   14.1190451319   12.4087602621
   0.9081749050   19.3386925542    0.2380825523
   4.8449501689    0.7852130476   15.4493906363
   0.7384582693    2.7591169148   18.9358114505
   2.7008193221   -0.1031058553   16.4958810093
  17.9657878202    0.4143438691    3.9150628448
  17.6922311181    1.7754150914    2.8992924079
  11.7234854570   10.3630274401   15.8586850083
   4.2381797645    7.9257198789    1.7159036012
   3.8290287679    7.4286994315    0.0276853496
   0.7753019398    6.9352496781    6.0913379505
   1.2916519133    4.5693623652    6.4154182134
   1.5500065900   16.3570900035    0.4053662128
  11.7925385866   11.0282526123    7.3378375625
   4.5809635948   18.8858824702   11.3193498047
  11.2159468101    9.4008484668    7.2043955768
  11.5042658485   11.2281222738   17.5043600176
   9.8066895020   13.3417280758    5.5529183989
  14.9090590912   10.6935460104   13.9356603842
   4.4589119773   18.0848356894    8.3525570422
   7.9196059727   13.8790957984    4.2095441691
   0.1251060203    4.2026200330    7.8286496286
   0.0212061178    7.0643112348    7.7840365609
   6.1913590890   14.5961344574    2.5040440578
   7.0649315822    1.4793996191   11.5084287340
   1.9431119531   14.1931677869    1.2096492230
  13.9264300947   17.0324709828   17.7105262248
  14.8355403438   16.2834153138   16.2972847562
   5.3514882911   14.8598101334    0.5372053595
  -1.6086561910   14.7798569394   12.2854151587
   8.5360866288   12.2801923539    3.8815252029
   5.7464297884    2.1416480026   10.7007639021
   3.0905211164   18.2445237521   10.5936900034
   4.6582206385   14.1806421202   17.3522589747
  -0.5451237211   14.1221268275   11.0360360316
  15.1728569419    0.3388292164    2.7481188944
  15.4938555610    1.5213749793    3.9746220498
   5.7817050221   17.3362806829    4.1594238250
   6.2815364418    1.0932271333    8.1327876743
   4.4653049762   19.1295668518    2.4497635251
   1.6716771627   15.3189688400    2.5084238180
   7.0330784696    1.5309446148    4.4522041017
   3.9373210220    1.9077063314    2.1101447529
  -2.1142370700   17.0273412181   12.0322166645
   2.5409334859   13.7767029264    3.9603785077
   3.1493045756   12.8636190432    2.6403178236
   6.8214145905   12.5693721673    4.1907423775
  14.1466011219   13.8768713084   17.5359296660
   5.3139299508    0.8080275577   11.6061579573
  15.3121108093   14.7174503727   18.3413423457
   5.6798428620   12.6450740572   16.8884809963
  12.5258058937   14.0380608821    7.8973553647
  15.2458957248   16.1036108911   10.2821461506
   5.2863023379   13.0824211251    2.1029629205
   3.5930036972   15.0124964617   11.1017186585
   4.1415034125   17.1550318051    3.3720664852
   5.1400705576   14.9768300629   12.0671500925
  13.6751395666   13.1647144232    8.7034511311
   5.3909207979    1.9358512922    1.3087896808
   0.0087911960   15.5426867969   11.8989655414
   7.1895515488   14.7583840839    0.4624328923
   4.3174814830   13.6865984247    4.0229760785
   7.5108612256    0.5903174241    6.8632900567
   5.8486935489    0.0046451398    6.9551857557
   6.4653444981   14.1391876395   17.4447730810
   8.6583970934    3.7945525894   16.6521773052
  12.9110327656   18.5172513404   12.1843941565
   3.7423134403   14.8684188262   15.1155591448
   5.1841745335   14.9356160468   14.2989743176
  11.0065560864   15.0252337634    9.0991724130
   4.2578070492   16.4177558013   11.8770497402
   4.3549179869   16.9867900240    5.1133741600
   5.8510343340   19.6461992961    3.3031848457
  -1.3381316898   17.9083588863   10.6299352116
  14.4874118791   17.9390988246    4.9126206835
   7.3158610619    1.7444519308    2.6329038044
  14.4055152915   18.2077962696    3.1684310428
  12.9732115529   17.3510549660    4.0966799017
   5.1500145202    3.0940638456    2.5513375219
  13.9206535634   14.8420546008    7.9972793342
  15.3203552061   17.7795691551    9.6486575920
  11.5313377036   14.9266418188   11.9923103599
   1.0190559950   19.0164265157    8.3731131494
   1.1420846251   13.4442804665   12.1285859971
  14.1527993352   12.1056122975    6.2062139364
  14.0522652702   12.1899853299    4.4574631588
  13.2877867653   18.5453723618   10.3841122443
  13.4902058930   15.3019824261    1.7416267678
  15.2275427658   15.6602877206    1.1419621388
   0.8156163343   11.9022482216   11.3002042708
  12.8127713206   17.0471892182   11.2812723045
   2.4671800417   12.0191985114   12.2854099188
  13.1521173224   13.2412927892    5.4161353950
   4.0835561142    2.0236216080    6.2949533111
  11.6815637510   16.3790872865    9.9017965347
  -1.0392499410   14.1149942020    8.8711891536
  10.0820028409   11.5326196090   10.5100678415
   4.7678044602    2.6328423261    7.6843992171
  14.0234253115   16.7610023016    0.9067334939
   4.9743804353    4.1968286322    4.8927516749
   5.9149955875    4.4136455587    6.5454959336
  16.4238182095   11.9450838367    7.2410435308
   6.3637572458   19.1098950319   13.5524447725
   1.3571257730   18.2353332223    6.7648356779
   1.9650465966   17.3595596323    8.3374581057
  10.0038550222   15.0693306777   11.1219437141
   4.2336002560   17.0679635847   15.7741864468
   3.4417528796   17.4299515186   14.2551051066
  -0.6592955830   13.2950680051    7.3974596088
  -0.4451338306   11.1216212818    6.3705827745
  11.2582596854    1.2595061530   14.3630641809
  14.6118376542   13.9612799170    3.5368935527
   5.7145604696   19.2060841379   15.2558418683
  10.6979472792   12.4205859071    9.2145828575
  16.9830591555   10.9325590486    4.8632587840
   4.5908517977   19.3518639722   13.7956958926
   0.0806112280   18.9252929932    5.8707805610
  -1.6355448733   18.7851578998    5.4434776017
   9.3249635125   12.9971850398   10.1042513225
   2.4359007480   11.7386874479    9.1313626632
   0.3531085330   12.9617008766    8.7270427319
  14.8442195873   15.3834753461    4.5072327312
   3.8940200977   12.1055285422   10.1158606187
  -0.2988856583   16.1142979455    6.2837372898
  11.3200838089    0.9599277662   18.9666864536
  16.2376209338   10.7701637423    8.4212651166
  -1.7758417943   16.7715678898    7.0227005894
  15.7836489083    9.6640636901    4.9644734488
   3.4373368875    6.7557173431    6.9775694751
   9.4182997150    8.1995958650    6.0699000523
   3.6991025927    6.6589755261    5.3607483986
  -0.1738459093   10.0509194716    7.6708625980
  -1.6161993635   14.8964462876    4.4588463009
   1.5273762474    6.0851929824    3.6991697885
  17.3691570311    9.3211609312    4.1097380940
   0.1660989882   18.3763551223    2.6010085961
   1.2880920562   18.8587384339    3.7716136557
   3.4687054573   14.6705955068    8.8601972367
   1.2067429955    5.1439058594    2.1177719077
  16.6896011356   15.1212018626    2.8749074968
   4.5465022031   13.3288129816    8.3441939445
  11.6587937691    4.6879663870    4.3552080179
   7.0322287302    6.2805241289   16.7385845720
   5.1266638474    6.5020569631    6.4648756258
   2.0821584181    6.6378004128    2.1235074797
   8.1924917921    7.7978939336    4.8320048138
  10.1728465645   15.7804464518   18.7880032494
  10.5241281165    3.9189353490    2.9951160704
   8.5273881475    6.7305942735    6.1602639597
   1.0613599133    3.5681582264   12.0002793993
   9.0766056519   18.8986169105   12.2977350962
  13.1933181242    8.9544311493    3.7360489786
   8.5051216445   16.2465372648   18.2901203554
  13.8594319618    4.5257232681    5.7292979462
  13.1922470832    7.6356555310    2.6009706943
   9.7907770655   17.2379780623   11.8776106756
  -0.2378957335   19.6780351521    3.7017958940
  15.3974610971    9.4893508365    1.1517219668
  13.3869334514    5.5672640817    2.3230922578
   8.9612223950    5.9658106910    3.4119732124
  -0.0472370626   13.2813082966    3.9969499119
  15.0239966812   10.6847479287    2.4271349575
  12.3676320302    4.1978137693    1.5532242816
   9.6182918978   15.3373132412   17.1562929389
   9.2184476304    4.8618966281    4.8638297335
   8.0093142023   17.7876927103   11.4735148142
   2.4450409741   15.5510188787    7.5363398438
  -0.4177161452   13.7829850343    2.2961711969
  10.0823450680    8.8051616372   11.4166891376
  15.1558530212    5.7519062973    6.2390042456
  -0.3666031182   12.1347354892    2.6011447866
  17.2513898292    7.3669935715    3.0520456564
   3.6096743031   14.8165045108    6.3555542945
  15.5491095650    4.3860400802    5.1923080477
   8.6130443276   18.2317249414   15.2403279602
  17.9862811159    5.9456116298    3.7442531399
  12.8659232777    7.1022498693    5.0630974729
  13.7412154455    9.8313141326    1.6880767896
   2.0057883311   14.6730232233    5.9980532875
  14.4047964710    7.7930896452    5.5175582077
  12.5194236944    5.9248036988    0.9295871750
   9.2312103638   13.0800475445   16.8667313539
  -0.7100388335    6.9833446866   14.1411788626
   9.5801790162   11.1058405902   17.9253509108
   8.9256410917   16.4845185420   15.1271405737
  10.6063940736   13.3879048626   17.9768773574
  16.2763905213    5.0497625001    2.1343647722
  11.0905141509   16.9109067181   13.8473232937
  16.7541567378    6.3516885025    0.8234609107
   8.1367683465   11.6203921969   18.9653557761
   2.8116122597    9.8940314680   16.2783034184
   0.3629712614   13.8797406669   15.8799192934
  11.1064109393   16.7085946970    4.6171703231
  13.4050835101    0.1915913610    6.9368201397
   4.8769010054   10.2427112848    7.6172983028
   6.3784878594    9.6488278781    2.7279371095
  11.1576224222   18.4956335206    8.0471670712
  17.1912295626   10.5051321954    0.2891162268
  -1.7576309307   10.3786970731   17.8988557088
  15.5162724635    4.8877915112   11.6564813061
  -1.8639908700   14.0066359593    0.2472375529
  15.7749829919   12.6650440566   18.3917860367
   0.5173446896    0.0586415202   12.7106365386
   3.4749934058    1.2851905784   12.8937867088
   0.5833646944   17.6437043964   13.4142671526
  -0.4243298020    0.8159809833   10.7095333089
  11.0964563674   17.4537806423   15.5595481421
   4.7417361215   11.1740639435    6.0030110284
  -1.8197833628   11.5048112207   14.2879565339
   9.2648774663   17.1281506312    1.5454528618
   2.3676248685   10.2311466054    7.4612412142
   2.1255901841    9.6112627578   14.5444804817
   9.3221786593   18.5718872465    4.8175075911
  17.2222169855    8.3364628197   17.7740006162
   1.5602597238   13.4752561775   14.3672201135
  10.6061426547   11.1646243060    2.4492990997
   2.3882608042   10.9554000820    5.9274976823
  15.4757745826    0.3275747947   13.9734124915
   6.7489655905    8.3020562672    3.8035796213
   2.3095061109   12.9052316531   16.6613265952
   2.1888175393   18.4150219351   12.8613330632
   1.2458483384    0.3416952007    9.8357274685
   9.9114766154   15.5975560231    5.2750277256
  -0.9985195698   10.8850551227   15.6945125542
  16.7801164894    3.1581867434    0.4219271233
   3.8524293840    9.8405656203   14.9536139479
  16.3542400188   12.6841289107    1.0015504226
  11.6830428056   18.6248957398    6.2589375806
   4.9896472979    9.1499189706    3.7162037701
  10.5293639275   10.0003877864    1.1135027440
  15.8589065289    4.4320413296   18.8938449985
   7.0271772195   10.1107701713    6.6032677853
  15.1227677991   -0.0349144237   15.7341931314
  -0.6756594993    8.0434788399    0.1801694923
   9.3539146060   18.4500306222    2.6084858940
  -0.5298821631    7.2648634090   17.9463672751
   2.9791331365    0.0395473373   13.9260733430
   1.0294336873    1.5897001654   13.4992583719
   1.1630330825   17.3691892920   11.8409183711
   0.5250323055    1.9356892777    9.5774207691
   0.3232624180    9.8933167965    1.1361219618
  17.4554231785    3.7180932301   18.5520977988
   1.2697265393   10.9641788335    0.0419991077
   1.3043148938   11.4870283177   16.5908549376
  13.1214867870   18.4746236601   14.5434770741
  10.8668325411   17.7234229256    2.3873649740
   1.6990677795    9.2368513506    6.1693215905
   8.2665783598   17.2246413450    5.4296553428
   6.3036828194    8.5568958241    6.0474580608
   9.1571190290   10.9878691190    1.4912581555
  -1.8349760393   12.6035884038   15.7105768601
   5.1827824047    8.8653765446    0.0832315894
   9.4897132550   13.9799301358    7.4720394216
  14.4133995419   12.8432279425   13.8565862073
   3.8618534652    1.4162412122   17.2855698669
   2.7212619795    1.2550588691    0.0159683699
  -0.7332680449    5.4784503225    6.6164518890
   5.2812203664    5.4344180753    1.2931126969
  -0.0932719434    3.2678033544    4.4939613927
  10.3587543131   10.7187506099    5.8559810837
   5.2980690371   16.8131646545    9.7871349639
  14.8636426442   19.6877920755    1.8384817012
  13.1866680241   11.7797694873   16.6284656627
   3.0302881339   15.7081377597   19.0430118533
  12.6578660973   15.9730746102   16.5451961883
   6.4483267337    0.2768724163    9.9616252570
   3.4950330680   14.8799724725    2.5754832970
   7.4178180910   13.0373501728    2.3007079454
  12.9356184588   19.3320137542    4.3645313500
   5.5434377110   12.9253409425   18.8925025574
  -1.4159439504   15.8831611189   10.4377271088
   4.4017384060   18.8040428142    4.5371905157
   5.4096791557    1.1304561409    3.2759952331
  13.3691278922   14.8279377336   19.1492083376
   6.1412337597    2.0049049177    6.2394226615
  14.7464882068   17.7397435774   11.6967309908
  13.0469971967   14.9101847157    9.8441609685
   3.3598607413   14.9868484067   13.1941643854
   5.4926021396   17.4697629190   14.1816181310
  10.2699077620    2.5696572673   15.3389223872
   9.9682900039    2.7100451781   17.6914371231
  -0.1496869550   17.4706513413    7.9545648775
  11.0535656254   13.2287216524   11.2010880719
  15.1593961807   13.6389631474    5.6314618793
   2.2231842346   13.1904729703   10.5772065394
  -1.3839320127   12.0646403949    8.9089179204
  17.4207049468    9.5098460472    6.2713876562
  11.5903511803    1.0992648207   16.8315196856
   3.8571585259    4.8612141294    6.4909257156
  -0.2715576929   17.6798588259    4.4099315548
  10.1540048592    6.7887986162    4.8632982265
   8.4811004735    5.4237354490   15.4548868279
  17.0226796566   13.1771411542    3.3202283251
   2.6715029823   13.5241621974    7.4642269540
   9.6443213304    6.8822170549   11.9227620153
  14.4496219433    5.9714618979    4.3175704137
   0.1031414118    6.9755106880    2.3114644899
   0.4506811985    5.6129845363   12.1855470555
   8.6893556061   14.2946567998   18.5317377497
  11.3334310684    5.7370260338    2.5192907966
  14.9341918348    8.6085592063    2.9378973190
   8.3723472351   17.1788117824   13.4059865278
  17.5578157822    4.2714311212   11.1423926778
  17.1252072871    6.2708021101   12.3641759482
  18.0447547902    4.7445368752    1.1215706223
   2.8515397043   11.5602419331   15.1822381347
  11.0485297845   19.0658694493   14.1568379676
   6.5394089021   10.1214972473    4.7188699928
   9.5977305823   18.0388329891    6.7998205864
  10.6191172727   12.0218279147    0.5819755998
   0.2138247627    9.0681809844   18.4374445808
   0.3412195591   19.1924588300   12.0268064125
   1.3164950272    1.7404700588   11.4389371951
  -1.4463375584   12.1404279185   19.2621018162
   9.4698798211   16.3475805934    3.3964697115
  -0.1256691206   12.3557637970   14.4757811474
   3.7724298400    9.3108910964    6.1058565102
