B2 C140 Ca1 F48 H298 O66 
1.0
1.8695892008202200e+01 -1.7718226526718602e-16 -1.4897287402041687e-16 
-8.2723172854055760e-01 2.0152771233067387e+01 -9.2583118433695301e-18 
-9.5839820636099526e-01 1.4071068424721037e-02 1.9927534126549322e+01 
B C Ca F H O 
2 140 1 48 298 66 
Cartesian
  10.2964638507    2.5272294543   17.0686059140
  -0.6825029035    5.1699508926   12.4946155601
  17.0161256153   18.7512823440    0.7372174983
   9.6836061560   14.7862419962    7.2459158774
   6.0030576249    6.8808901498    0.2306419464
  15.9584966740   13.0855623123   13.1139687711
   3.7253273095    2.4992051286   16.6835125756
   2.3876399007    0.4961711245   19.4379754080
   1.3721347410    2.8624142904    3.7729334975
   3.0240849053    0.4978785797   17.9464557881
   0.1970394478    3.1808128284    5.7959150414
   4.2367805468    5.2624362267    0.2454710261
   3.2115343178   16.2944585466   18.5757460151
   1.0147805323    2.4661083470   18.8925058402
  14.2192139274   15.7580054392   15.6851602790
   6.4264506642   10.5612955251    0.0788300840
   7.5018975377   16.6352324411    8.8916959921
  15.1527724000   11.1458699021   16.1974216181
  10.8321411522   12.1641801156    7.0482610122
  11.7383941380   13.4184042088    6.8381489347
  15.2225272721   11.4104594710   14.6911465305
   5.4606794538    8.3046319821    0.3472273103
  12.8956916680   11.9614795155   16.5326964666
  12.4201453250   10.3546388992    6.2931708673
   0.6479759571    4.5372154123    6.3674207063
  -0.0377708787    6.7435719251    6.7456790326
   5.8407917203   18.3216098132    9.1521300868
   3.8101825051   17.0243620554    0.9343677126
  16.3542845096   19.9606438797    2.5020886198
   5.2712451651   19.2216024192   10.3508693567
   3.3613939074   15.8234997040    1.7184008647
  14.9006241786   16.8365906232   17.6799971518
   4.8750426915    1.1775526574   10.5645695113
   9.1262575731   12.8269193974    3.8138302459
  16.2042738212    0.0966054999    3.6567357003
   7.7163998098   13.8938199270    2.2070346464
   7.8113019726   14.4814937509    0.8560090075
   0.9841278078   15.5245671677   10.9379675738
   4.1539310585   14.5220804909    3.5375918998
  15.2692726863   15.5378714860   18.5330275581
   6.4574369988   14.1698002531   18.4771694198
   6.4310388911   17.3832769143    4.7966169380
   6.4601318037   19.2906665829    3.3214357507
   6.9010561533    0.5480866957    2.9738748757
   5.0913777270    2.1132793928    2.7969721930
  -0.9112552314   16.9545782508   11.2872707489
   5.8075220838    1.3398545695    5.9689131460
  14.4577671220   15.0422898690    9.3645159459
  16.3707194959   17.2390954417   10.8090302441
   5.4248224821   15.4476864627   12.4557894302
  15.3323056207   18.0249173241    4.6401784164
   6.9891635143    2.7395492402   18.2928316821
   8.4115256740    4.4947668223   19.4044957825
   8.2365699522    3.6097376715   18.1496062474
   5.4637112644   15.9520742100   14.8789099995
  14.7658418453   18.9235205010   11.1819066851
  12.4984519452   16.1834396616   10.2322402989
   9.6626824261    2.1241340644   13.5487095506
  14.7697347954   15.1384504837    0.4587304856
  15.1102155064   12.2946494975    6.4120471507
  11.8852244989   15.3377751953   11.4102784994
   4.8716376829    3.5158808696    6.2431865189
   2.8852064946   13.1594830495   12.4859584528
   5.1082503283   17.4178174475   15.2178117126
   2.0893582991   18.5701120805    8.8719875896
  10.7429342250    2.1894964096   14.6757187062
  11.9052693681    3.1284839418   14.3489060381
   5.1311865296    4.8963505754    5.7037883689
   6.1901468479   19.4867444800   14.8945220089
  11.0627608622   13.2217954765   10.8165552504
   0.3221789722   12.6198362271    9.0112522397
  17.7481843312   10.7071086788    8.2903402485
   0.5969729444   18.3599965239    7.0183230755
  -0.2654729149   10.3782483400    6.9193175265
   6.9164871675    6.3324209480   15.1025723525
  16.0526284672   14.3237748467    5.4878810453
   1.2081540229   19.0714602805    5.8536266283
   4.2569584452   12.6346029529   10.5683313165
  17.9564244301   10.8209038427    4.4936092054
   4.1530460663    7.0430235061    5.9477174805
  11.8650166786    1.6923189452   18.7378835380
   2.6348475191    4.0593084764   13.6398323307
  11.8649826992    0.0774584760   18.7891400506
  17.2585964294   14.7636765165    4.7378777535
   8.0681572612    6.5835366655   16.1462851460
   4.7013206575   13.3426097606    9.2937366502
   9.4265936060    7.8238831056    5.9305509286
   2.1886248716   19.0127454428    3.6969880952
   8.4615311486    8.1041956824   16.2843692294
  11.2293948857    7.3266578379    9.9780997170
   1.7726747940    6.6982753953    2.5131046611
  13.0939432353    2.4012812467   19.2289765596
   2.4164439072    4.7510041815   11.1038942429
   1.7035381270    4.1860075470   12.3895403409
  10.9822217360    5.3217433833    3.6210289580
  10.0477344153    5.8824886364    4.7030614733
  10.2357900240   16.5463787076   18.7557318131
  10.4045079440    7.7953671888   11.2062309075
  14.3680964664    8.0149459775    4.0660661574
   9.4338499178   18.1366718968   12.1368227582
   0.0747728629   14.1812094525    2.9807421022
  15.2653670638    4.5368153561    5.0934393028
   9.1960745075    8.5854334428   10.6073205835
  15.4154198673    9.0147390159    2.0388319999
  12.3648544235    6.1608823765    1.7591068061
   4.1462325092   14.6157258554    7.2471797470
  14.9957330025    7.0258066684    5.0355341074
  18.1034052652    6.6911928495    2.7485575000
   9.4370535395   17.9951633519   14.4570457865
  10.3677735772   14.2042710468   18.9589186369
  16.8535600029    7.4202741334   15.0655256971
  -0.8610913651    7.1898597855   13.8960200808
  17.6094501911    5.9707499538    1.4563845366
  15.4293201323    2.9117830829   12.0957075266
  10.9192242443   13.1234511263    0.0213433168
  16.0238935900    4.1121492080   11.4066477020
  10.9256679852   17.9083969545   14.6307986285
  15.6357183036    4.1695085109    9.8652999340
  -0.5336736131    8.3601857132   13.0040032802
  12.5604220336   18.6708436943    7.2162301002
   4.5099507120   11.3888996496   15.8976274232
  -1.0607732564   10.4684134225   19.4519310860
   1.9291510312   13.9798291575   16.5040322223
  16.8664363687   12.7779824669   19.4905053235
   5.4517856659   10.7011503101    6.3354047800
   6.4319485935    9.2151662353    3.9062434014
  11.0130494052   17.3863283443    5.1868689537
  10.4027949523   18.3494428609    6.2857728653
   2.8904681935   12.8763025129   16.8320496820
   1.1679000092   19.9441363963   13.4397776489
   0.5859064115    0.3564854793   13.1186937957
   2.7491741512   18.3291091308   12.8926972160
   1.0307971541    0.6962472206   10.6960384945
  11.5258030862   11.6817591218    1.5852553143
   3.2249512403   10.4879174860    6.7997573137
   6.7094780967    9.8252762676    6.2981673539
  12.8825269157   19.2172609896   14.3383025513
   0.3805447209    7.5172926989   18.9761920754
  17.3494518474    3.7097304463    0.8048468844
  -0.1054116342   13.0708898227   15.9004486866
   0.8215105639    9.4908638152    0.2270225297
  10.9465955421   18.4177128043    2.9844158413
   9.7318155975    5.8950858428   13.8251902463
   6.6916998030    2.2052420812   17.0065934673
   9.7205246055    4.5412496284   19.6384757092
   9.3804660975    3.4130641717   13.0682283408
   6.9255177869    1.7714412274   19.1712814395
   8.8902930643    3.8861842100    0.6362513282
   6.0242187043    3.6533620843   18.5014534549
   7.8449826935    5.6586238809   19.3007992228
   8.5722962783    1.6483314355   14.0231022885
  12.3876793131    2.9907302487   13.0608801347
  10.0595711281    1.4650859564   12.4328017477
  12.9482647349    3.0790678191   15.2854664740
   6.0007451715    7.3594396636   14.8842048428
   6.3920816038    5.1081148486   15.3953922653
  11.4057555107    4.4634744313   14.3459751271
   7.4078515847    6.1312170446   13.6749301361
   3.6961617707    3.2837323861   13.1993848106
   9.8439500043   19.9423104687   18.1047114368
   2.9323534624    5.3104077180   14.0272390792
  12.1728523291    6.3764390418   10.4181404538
   1.6574131916    5.5554080489   10.3858449203
   9.0293678918    8.5083255465   15.0022717699
   9.3264375387    8.2838887537   17.2650939241
   1.9626619418    3.4533785883   14.6433776800
  11.9864384503    8.3579117671    9.5162964375
  11.9212920448   19.6971976883    0.0687896323
  14.0955692229    1.9646941686   18.3261987238
  12.0979104077   19.7604572307   18.0957164843
   2.9623361815    3.7119382099   10.4293320459
  10.6233917645    6.6953968741    8.9696788875
   8.4862555073    9.2455770472   11.5281495991
  14.3054918850    1.9444034892    0.5683712161
  13.0740900266    3.7690361308   19.2544475791
   7.3021660255    8.8411818146   16.5344138654
   3.4855477138    5.5393344806   11.5147910120
   8.2436557107    7.8094278553    9.9844657471
  17.4996320135    8.0660511283   16.1134767914
   9.6188437773    9.5843765980    9.7874184910
  14.2543010359    2.5319383895   11.5474359920
  15.8479874265    8.1428154436   14.6304573564
  15.8028866973    2.9140240517    9.4180795268
  16.2773057760    1.8977423440   12.1671012395
  16.3186607967    5.0807161217    9.1842183926
  16.4336725210    6.2118419962   15.4659095313
   0.5381370381    7.9740086587   12.3213656771
  15.3005307290    3.2501253520   13.4257679428
  -0.1909164138    9.4265152361   13.8575023843
  14.3377599384    4.5950272396    9.6551950501
  17.0793082826    8.6240679253   12.1698574717
   0.7517710221   19.8909118921   19.4557019329
  16.1620450492   11.3078460013   16.5439315937
   1.1895292172    3.2113214300    2.6576073492
   7.0357366683    6.9424070820    0.5951980258
   6.5744677164   16.1884083876    8.4011221756
  10.8170470003   11.8114275826    8.0927808857
   4.9868800203    6.7767447922   19.0747202044
   4.3640929369    3.3194762233   16.8430537016
  18.0194882083    2.9330747269    6.2886448154
  17.5529633013   17.9600315966    1.2518387822
   2.1282975048   16.4217881903   18.6172969773
  17.5334759450   19.7322316662    0.5888771412
   9.6040529667   15.8163547087    7.6464802761
   0.2114621521    1.7718676512   18.4905610157
  15.7154566400   18.3731873400   19.6306493879
  14.9373507907   12.9883459794   12.5918599704
   2.7366998064   19.6334038762   17.9264709046
   8.9988868725   14.5808658466    6.2919561462
  14.9530456562   16.4154688965   15.1044983133
   4.8965685612   11.1710927413   19.1908665698
  16.6000534019   12.4707708225   12.5206066918
   3.5929438207    4.7932034519    1.0181952580
   2.6597311891    5.8603802449   19.4754762483
  12.9703415881   11.9740498747   15.4464593261
  13.0594110851   11.0320344044    5.7018997727
   1.7502061083    1.8695837313    3.6702471895
   0.7838082347    2.4289356909    6.2989738249
  12.3037534796   13.4709417326    7.8107340822
   2.6977203197    2.8470209511   16.7275332622
   6.4259383542   18.9457113294    8.4573472392
  14.4883295003   14.7512857211   15.8359223544
  14.1704577303   11.4994148760   14.2475315356
   3.5183171176   15.2153677421   18.4943305038
   3.6968121941   16.8373222590   17.7700147858
  13.3793672985   15.7987615236   15.0373383652
   7.9094100426   17.1713561934    8.0542071016
   1.5045028918    2.7498524812   18.0367330874
   4.1927464814   17.7754705746    1.6704157750
  17.7794237410    7.3387473987    6.8980388517
  14.8691759092   10.0884640171   16.2374400274
   2.1874762248    3.4682848246    4.2843446311
   8.2499669934   15.9070211147    9.3090978336
   9.7883232133   12.3455774988    6.9104203132
   6.4314164566   10.9727571809   19.7479717769
   9.5524807003   14.0939193437    7.9719234547
   6.1605559200   10.9315272237    1.0227257240
   3.8753252980    4.5101561302   19.6251668929
  16.2836266133   14.1103793284   13.0965546595
   4.1686306350    0.1377305660    0.1421623365
   4.0029715876    2.0464673729   15.7182248554
   0.4417160202    3.2917921298   19.4315567333
   2.4033446187    0.4156657144   17.0763594969
  17.2056699585   19.3948560826    2.8308066540
  17.4488498250    0.7056470534    2.0082402399
  12.5636635862   13.0626083008   16.9141401495
   5.1165814920    8.4551500910    1.4551505523
   3.6602434529    8.4494372304   19.6876184114
   0.6537635560    7.2803314014    6.1076440422
   1.5825177525    4.8831001607    6.1074606701
   2.8284733121   17.3895965040    0.3673754014
  12.7241224507   10.2888403833    7.3480881074
   6.0208741551   19.1602479955   11.1886412151
  12.3894870741    9.3789488628    5.8226128511
  12.2129394608   11.1540254392   16.7753677087
  12.1581437369   13.2975509812    5.9012464612
  15.7671030203   10.6034135595   14.2108517808
   5.2062357904   17.7191531108    8.6143407754
   9.9074053833   13.5045779447    4.0728867186
   0.5438133147    4.3548142113    7.4530591858
   0.3012199302    6.5712595232    7.7422159902
   7.7254299693   14.6513882758    3.1026683840
   5.3439372845    1.8136778063   11.3169146952
   2.8469388036   15.0807377364    0.9681045927
  14.4434228157   17.5398735752   18.4267200945
  15.7900949171   17.2181756834   17.2303076904
   7.2924775685   15.4363779475    0.8502352491
   1.2131291392   15.1960806979   11.9659472454
   9.2878326898   11.7528438902    3.9711713279
   4.2713557817    1.6770214956    9.9138054613
   4.2364152621   18.7124214893   10.6449762935
   5.9154309737   15.1821224289   18.4966707241
   1.3665981998   14.7589762763   10.1200463854
  15.4263435382    0.8102502161    3.3091302581
  16.8190791551    0.7471218953    4.3617654481
   7.4499510052   17.5079356897    5.2216870190
   6.6045638166    1.0304355148    5.2703735195
   6.0194497319   18.7162126803    2.4927341870
   2.6165102571   16.1694016290    2.4505291500
   7.1503478484    1.3747572690    3.6528314989
   3.9851478840    2.0253073247    2.7371533942
  -0.7963540520   16.9610540014   12.3661317139
   3.8709928265   15.0940891805    4.3633600712
   3.5408986274   13.5475761908    3.5330747587
   8.3646613940   13.0851891263    4.5065419737
  15.7834047217   14.9046001315   17.9379552298
   4.1622566509    0.6110338533   11.1481617239
  16.0201074046   15.7380788376   19.3681197651
   6.0887559279   13.4745529204   17.6912212512
  14.0302263724   14.9865292438    8.3900114719
  15.6993202736   16.5268849499   11.1488018218
   6.9528752414   13.1781429066    2.2971447917
   4.7331687862   14.8847361068   11.6888046885
   6.4669513710   16.6938796031    3.8958581842
   6.4171641746   14.8193574267   12.3983570045
  14.2274200316   14.0397108010    9.6903537702
   5.4571990484    2.8053772304    1.9548651743
   1.5195059420   16.4435934511   10.7828490946
   8.8818087323   14.6452988666    0.6987175209
   5.1212688274   14.0471739068    3.7817884236
   4.7086051414    1.1413544229    5.6979097342
   6.0297726527    0.7349818122    6.9376850831
   7.5217097033   14.3973751743   18.2491918549
   8.0284584543    4.2428258094   17.2757532412
  14.1555539823   18.0259884142   11.5723832281
   5.2191486308   15.4780757384   15.8477246132
   6.5994447483   15.6908987725   14.8673999969
  12.0279429260   15.8343644339    9.2871024736
   5.7870146344   16.4431522564   12.1345155496
   5.6508011266   17.0714920639    5.5328454590
   7.5642715982   19.3391737712    3.1730515542
  -0.2527699921   17.8629754849   10.9362674613
  16.2584467746   17.9787583048    5.2331462680
   7.5103805293    0.6664980683    2.0455404567
  15.5903983334   17.7918438455    3.6072183913
  14.7322181917   17.2356980867    5.1484946595
   5.4031982510    2.5843910396    3.7578088969
  15.5125937907   15.1730514005    9.1418189864
  16.2637734237   17.1323746570    9.6717446670
  12.1586232246   15.6235711355   12.5098904287
   2.1941445372   18.9126222002    9.9080862621
   1.8427919431   13.4293199891   12.6392690073
  15.4987166431   11.2057514089    6.6674331220
  14.5494878337   12.2760347314    5.5236377804
  14.6177648832   19.8959961798   11.7033495336
  13.7972367495   14.7546319469    0.5876626028
  15.5176634284   14.8984567321    1.2030086912
   2.7926443107   11.9647253576   12.6244344585
  14.2077233971   19.2005030900   10.2757036270
   3.5786171731   13.6227214927   13.3203057123
  14.6442707897   12.5799401554    7.3332463632
   3.8852584582    3.0899010748    5.9647911697
  12.3004023920   17.3103699163   10.4198380818
  -0.4715276234   13.4117174566    9.3507471885
  11.4048132772   12.2955052249   10.4395549408
   5.0637540235    3.7192629499    7.2449588976
  14.7678561263   16.2998452100    0.5097400136
   5.1053787778    5.1466924117    4.5835083682
   6.1311599464    5.2257983735    6.0732299856
  16.9462467238   11.4539712638    8.0930116342
   7.2120531152   19.8133066043   14.7100496415
   2.8386335270   19.0279685059    8.2161614933
   2.1230934296   17.4796265826    8.8049699046
  10.8520675726   15.3572415696   11.3506945187
   4.8234203736   17.4110762986   16.2507364168
   4.3282207741   17.7347845594   14.5338567932
   0.5707610133   12.7122459349    7.9703265743
   0.5024242327   11.1341261528    6.8248140070
  11.0384575949    1.1456369533   14.7897131124
  15.2087310889   14.0952737976    4.6733519365
   5.7749923146   19.8265067130   15.8753315299
  10.6831902562   13.8005093796    9.9657405371
  17.2036257603   11.2947545999    3.8727446259
   5.5192981040   19.6972463789   13.9486946732
   2.2226420989   19.2450830426    6.1827888989
   0.6529164808   20.0538075524    5.7051694964
  10.3060981038   13.1167357214   11.6679234399
   3.8487821162   11.5768809591   10.3866392791
   1.3329402455   12.7687825422    9.4963529572
  15.4136528757   14.9957162047    6.0125074373
   5.2164829490   12.6797501184   11.1667747837
   1.0254829981   17.3331884945    7.1248052788
  11.1884321646    1.9158360670   19.6255387358
  17.2348345638    9.9171442047    8.8656911855
  -0.5005290251   18.3252821737    6.9832645817
  -0.2390010121    9.9051023606    4.0033756649
   3.6009637165    7.6224301456    6.6783212260
   9.8369269204    8.8789714065    6.0375121452
   3.6322734774    7.2039817488    5.0400886515
   0.2963152483    9.3955654075    6.8756977732
  -0.4509162577   14.6884733639    5.2678520318
   2.2555181884    6.5986714002    3.5193420208
   0.1261789420   11.5218291693    4.4221016710
   2.6815834262   18.2537021459    3.1391002678
   2.8780433056   19.4444683876    4.2896266825
   5.0414939544   14.3598058486    9.5085287207
   1.7146178663    5.7286854265    2.0295010829
  17.2913018766   15.7953159511    4.4182421610
   5.7337581509   12.8531960635    9.0377030566
  11.8239898495    4.7512494013    4.0025092361
   7.4868061800    6.5085480545   17.1017941182
   5.1801346343    7.4210449257    5.8097314508
   2.5496110614    7.3053572193    1.8906506522
   8.5853078164    7.8245246894    5.2408197765
  10.9624283274   16.5177296093   17.8673027976
  10.2721570127    4.5987437031    3.0927583179
   9.0820344598    7.3961120930    6.9207038834
   1.3492722761    3.0961882419   12.1051120904
   9.0131867337   19.1090326996   12.3438579498
  14.6956597505    9.0035540484    4.4573464265
  10.4414431786   17.4884404068   19.4078897693
  15.4338379525    4.5736261815    6.1309044855
  13.2969186818    7.9609177855    4.1156335870
  10.6271356217   18.2270281415   12.0517546087
   1.8047636244   19.7923901866    2.8864220275
  16.5222380148    8.9463160253    2.0994803228
  13.4878288996    6.1013769379    1.9056541611
   9.0825810089    6.2133587725    4.2399887197
   0.7920189180   14.3852193331    3.8242978473
  15.2150810788    9.9788262409    2.5959513763
  12.0927667884    5.2322293811    1.2879569941
   9.1262320335   16.6401826651   18.4973456289
   9.8423440977    5.1208118433    5.4254862462
   9.1254699605   17.5911131334   11.2488680036
   5.0406839615   15.1396223267    7.6015276593
  -0.0137522771   14.9896025594    2.2036219233
  10.9496017763    8.5767706509   11.6782103763
  16.2916072082    4.5250122956    4.6289203872
   0.1401741408   13.4012395802    2.2475973862
  17.2181200714    7.3677715989    3.1211927300
   4.2159378842   14.2336786450    6.2941672437
  14.6822950866    3.7489713240    4.7028939961
   9.0367638236   18.9746188021   14.2320658094
  -0.3185728885    5.9370641400    3.5120043631
  14.5006558648    7.2852330597    6.0347822088
  14.9193760507    9.0842324796    1.0529752818
   3.1958302242   15.2615599252    7.3404058718
  16.0829484546    7.1086007913    5.1753755406
  12.2685209503    7.0128078776    0.9988603075
   9.7867973954   14.0924617269   18.0074694892
   0.0928247557    6.8987790917   14.2264017194
  10.0638458499   12.2204416386   19.3940400179
   8.9639265180   17.5414900927   15.3296850840
  11.3305936885   13.9554685298   18.5926437138
  16.5261556912    5.9432276772    1.6365920606
  11.3112980595   17.0499962377   14.0707224372
  17.8777056459    6.4735501430    0.6069055851
   9.8492369875   13.1660471194    0.4355909110
   5.3969053409   11.7953294855   16.4872096888
   1.3284034053   14.3316120131   17.4244078397
  12.1287045620   17.3664916517    5.1293210372
  12.5964981344   19.4567962188    6.4742620143
   5.3554801847   11.2951490698    7.2551515477
   6.5985027485    9.7585396179    2.9995742009
  13.1263284853   19.0280666685    8.1728081519
  16.6513782961    9.9972111320   19.2309157297
  -0.7269782683   10.7808082196   18.4171508759
  15.4690530551    4.9826154194   11.8445456567
  -1.0963464603   13.5355851693   19.6056063923
  16.6215509680   12.4509591587   18.4251317502
  -0.9315643652   19.6649075244   13.2236396020
   2.7798762419    0.5072131592   13.6914542039
   2.3313317413   17.8315324502   13.8638169979
  -0.1122440337   19.8536730027   10.5808837175
  11.3435999786   17.7974114841   15.6976657742
   5.7327116331   11.4371275886    5.5357976341
  -0.7040898592   12.9674121868   15.0008131135
  11.1392228796   17.9056594583    2.0603534644
   3.4723335680   10.8405001119    7.8074061502
   4.0903660766   10.4395797471   16.3624875101
  10.4700553888   19.4043081236    5.8963502782
  -0.6340592936    7.0970047105   18.6382881127
   2.5236363271   14.8615378754   16.2655131818
  12.0575772605   11.2795503379    2.4675235119
   2.8230271944   11.3851332496    6.2627064588
  14.0154771907    0.0305385670   14.0382137265
   6.9999043324    8.2341640958    3.7343305955
   3.6862609752   13.4315232715   17.5163771244
   3.7089208686   18.8668492954   13.1394277862
   2.1034512324    0.5722320532   10.5962395515
  10.5907882790   16.3972592268    5.4509666662
   0.1992986896   12.1573203980   16.3082518100
  16.3870584751    3.5667160330    1.2364841330
   4.9302976132   11.0453157142   14.9277526590
  16.8687131681   13.0699013169    0.1483830954
  13.0152721823   17.8091949007    6.8300322270
   5.3618203820    9.0023785098    4.0309900383
  11.9691963416   11.0479766266    0.8073340036
  16.1615548666    3.9393753438   19.6492008759
   7.5817178665   10.3452989266    6.7339450122
  13.2402127302   18.9066951522   15.3641489467
   1.6968030448    7.1135980293    0.0114381096
  10.3150255464   19.2161302436    2.7818690667
   1.2105872621    7.1178224781   18.2758592047
   1.0237347875   19.2603144295   14.2843096868
   0.3757676296    1.2133510414   13.8363934502
   2.8633049689   17.5672451320   12.0354272943
   0.6828523990    1.2134854173    9.8163630750
   0.3146997767    8.8839808451    0.9934090659
  17.9304668977    2.8067095834    0.8057960460
   1.4657492733   10.0672862974    0.9151789900
   2.2984985292   12.1363832882   17.3578513118
  13.4705671791   18.5479173876   13.7156442593
  11.7709520231   18.8032635452    3.5020526229
   2.5232087603    9.5866553092    6.8991169597
   9.3564071438   18.1176179768    6.5782670956
   6.5105201150    8.8378496620    6.7237075144
  10.5102548355   11.3975650450    1.7407297441
  -0.5873607234   13.6924493985   16.6535577962
   6.5212647939    9.1818008184    0.0141530907
  11.0096862713   14.6405545863    6.6313420129
  15.9282576931   12.6895948505   14.5217410603
   3.9159178639    1.5933627174   17.8010576808
   1.9088430541    1.7868548408   19.8555065005
  -0.3895968908    5.5767899659    6.1551788273
   5.2062903621    6.0695345898    0.9723350688
   0.0780361833    3.0374266221    4.3735569199
  10.9783731066   10.9661390291    6.2683601629
   6.9082830687   17.4804155485    9.8847902565
  15.8623895934   19.1253188188    1.4607052540
  14.2846213721   11.9088090260   17.0518654187
   3.7470813208   16.8290742896   19.8486057588
  13.8419998657   16.4614244992   16.8045459462
   5.7718135279    0.4047651775    9.7549592856
   4.4633280083   15.2846305243    2.3997931856
   8.7377448616   13.0243778795    2.5027834017
  14.6332467512   19.2595176277    4.4398344742
   6.3219647889   13.6163013984   19.7514634181
  -0.4768738727   15.7040977408   10.7632146300
   6.0089328407   18.7494878929    4.5726573351
   5.5246456964    0.7129097148    2.6629887492
  14.1383116749   14.8383131714   19.0040951094
   6.0048801750    2.7287427094    5.8389843428
  16.0747321926   18.5645541703   11.2196807848
  13.9763867905   16.0618744282   10.1840583674
   4.7778431308   15.5211384696   13.7253837120
   6.4087798250   18.0771775796   14.9349056344
  10.0653807155    2.7997869479   15.6937150791
   9.4214688263    2.8658517275   18.0350595532
   0.8955628408   19.0441301690    8.2651241777
  12.2695568526   13.9100708918   11.3994557569
  16.3063417268   13.2076024162    6.2445601063
   3.2551815162   13.4718306527   11.1381448335
  -0.0056962389   11.2891141698    9.2846958814
  17.4621905448   10.6350614844    5.8374397757
  11.5626972833    2.0729832392   17.4260671998
   4.1503894051    5.6041536423    6.3470658437
   1.2389502860   18.4065882094    4.6099688312
  10.5779953097    7.1154377800    5.4007105110
   9.1279918123    5.7724431850   15.8753573498
  17.5377818057   14.0109613135    3.5710228747
   3.9071805448   13.4472061802    8.1211894512
   9.9992528707    6.8402122165   12.0206471395
  14.5534014917    5.6961546564    4.6011212585
   0.5580168636    7.4323941784    2.4621275176
   0.6542635608    4.9347165990   12.9434962564
  10.2590409175   15.4387821643   19.6663014372
  11.3162753622    6.4242284062    2.8019029558
  14.7721193554    7.9056077767    2.6981323304
   9.1342040188   17.2527523105   13.2423181981
  17.3916541238    4.3586614252   11.6439832507
  17.2471093542    6.1521416121   13.0601899763
  18.2379617445    4.6830102297    1.3983085455
   3.5575247438   12.5006404254   15.7057384882
  11.4613144169   19.1040386355   14.1396398928
   7.1668767410    9.7518676786    4.9329153810
  11.1961002461   18.4454914425    7.4435914384
  11.7691376585   12.9282705899    1.2019930341
   0.5218799253    8.8832654459   18.9938586103
   1.6127041117   19.0715948280   12.4536620927
   0.4342933322    1.1679403996   11.9218661331
  -0.3301990087   11.6507897469    0.2157996295
  10.3793722185   17.4690947191    3.9199065429
   1.0942628417   13.7301472553   15.3521312544
   4.2852823197    9.9133991657    6.1157094556
