B2 C140 Ca1 F48 H298 O66 
1.0
1.8829523370220720e+01 -4.3323633546247643e-17 3.4537810725772743e-17 
-2.7135566410141481e+00 1.9702368228888481e+01 -4.2138731559926838e-18 
-9.8203352928646392e-01 -7.7204524807697392e-02 1.9275455372231686e+01 
B C Ca F H O 
2 140 1 48 298 66 
Cartesian
  10.2483539180    2.2829728601   16.5842822744
  -1.1790645259    5.3821249906   12.0460666143
  18.5061085068    0.3102695097    1.2077637253
   7.9571706056   14.4153052385    7.1426902187
   5.6175847095    6.7287671524    0.8906546721
  13.9946127429   13.1941914954   12.4027818813
   3.9406836578    1.6587813214   16.0426091725
   2.0108879572    0.0528696242   18.7778002312
   1.1941023126    2.5510755350    4.4455454649
   2.7970974519    0.0596151675   17.3936363463
  -0.5026122653    3.2524727988    5.9585725711
   4.2939100653    4.8891640734    0.5417214657
   2.0179259419   15.7013099922   17.7053060174
   1.0431348415    2.2435011214   18.5139689396
  11.9945523151   15.1112293329   15.6145510997
   4.5550640574   10.0724896650    0.0999773752
   6.2981888582   16.4217658961    9.1926573885
  13.8781134535   11.5664317932   15.8855721417
   9.2910603470   11.5241404615    6.5852383174
   9.8670292571   12.9670515298    6.4216327435
  13.8058484931   11.6128419363   14.2844741887
   4.4467567405    7.7583207625    0.6597091597
  11.8974915841   10.6969853560   16.9293987256
  11.2629600892   10.1439922081    6.5679672165
  -0.0242620848    4.3617056409    6.8606542086
  -0.0788046420    6.8316858671    6.8021129228
   4.7116908085   18.1184553271    9.3175946159
   2.5253689757   16.2486655292    0.7329949164
  17.0976487007    0.8909924062    2.9312891397
   3.7719487141   18.6905418735   10.4037536203
   2.2599350820   15.1635779588    1.7370274589
  13.4801311812   16.1884755504   17.1277099571
   5.9395216116    1.3380635982   11.0613270255
   7.6270945405   12.8675000656    3.7247496908
  15.7725079499    0.6396235246    3.4518977062
   6.2440990333   13.6877478653    1.9391955454
   6.2941119188   14.0942690499    0.4235410468
  -1.2773270052   15.0358024392   11.5250836889
   3.3541212168   13.5940822408    3.1858107251
  13.5969669257   14.9619067545   18.0647294682
   5.2278354554   13.1090714758   17.4657178063
   4.5868909568   17.2700908021    4.2476835873
   4.6588051059   19.5731817939    3.3940527362
   6.6760987605    1.1783362828    3.4584271000
   4.8941334551    2.3269986172    2.3899312141
  -2.2180237327   17.1355315575   10.9314856526
   6.3022634616    0.8300790704    7.0285658458
  12.9706231045   14.0569256835    8.5408080809
  15.1201169658   17.1486374457   10.7381973979
   3.6848531922   15.4940833369   11.9938182454
  13.4654453276   18.0134734613    4.0589405752
   7.1390482023    2.2160424766   17.7863767608
   8.4246353397    4.4093639420   18.7124090752
   8.2894280049    3.2094074431   17.6277960799
   3.8657032212   15.3538148948   14.3776157486
  12.9639097537   17.8229380155   11.4311579073
  11.2406489782   15.1882384725    9.9412659081
   9.4569447559    2.3564502534   13.0694977661
  14.0224850360   15.9025294200    0.8844920722
  13.8354817395   12.8095812982    5.4085511798
  10.5471631011   14.5667580404   11.1193100206
   4.7857652865    2.7532247643    6.5862412793
   1.3328466633   12.6414324207   11.5874253389
   4.0478256348   16.8522373991   14.7147355271
   1.0571073539   18.2053315123    7.9238469669
  10.5002858513    2.2712956327   14.2373153341
  11.7074648544    3.1815233884   13.9435759428
   4.9657262239    4.0397313917    5.9275956266
   5.2854337878   18.7414221656   14.0987203166
   9.9071253398   12.6653812792   10.0146188445
  -0.6548047569   13.2253574754    8.5117189672
  16.6437578404   11.5819551500    7.8545862068
  -0.6855407389   16.9085514244    6.6832752804
  -1.1696259906   10.7275385584    7.1180865221
   5.9684995707    6.0777087607   14.6605713887
  14.9980600724   14.4581765667    4.1312141047
  -0.8878680350   17.9702668768    5.5940580889
   2.6349439159   12.5917977756    9.5501435920
  16.6696384768    9.8272693613    5.0274094866
   3.9366345121    6.0910517666    6.2751128706
  11.7263361621    1.1044857056   18.1511614439
   2.2075687950    4.6118513977   13.1040194033
   9.6452425304   19.3828414019   18.4036478644
  16.5780384469   14.3647729276    3.9515771771
   7.0752352964    6.4624527322   15.6543073033
   3.2165535682   13.6546984353    8.5088410519
   8.8930355268    7.5647044485    5.3225025552
   0.2616147952   18.5498280877    3.6548157986
   7.5834866524    7.9214632122   15.5270780034
  10.2648389140    7.3187650384    9.8007638973
   1.2198050120    6.2246594577    2.6432290425
  12.7404925371    2.2628773781   18.4199967542
   1.9611200866    4.9914811660   10.5646789306
   1.1739813100    4.6555576279   11.9661913953
  10.7670641228    4.9674347078    3.5238714378
   9.6180627845    5.6876981054    4.2212691876
   8.7541057293   15.5883739633   18.0664482217
   9.4234327318    7.7608008633   11.0217818700
  13.3060014416    8.1200307526    3.4693646912
   8.6306133217   18.0016940078   12.2362399234
  -0.5375635931   12.7925902132    3.2536604417
  14.5857313658    5.3399994389    5.5222636654
   7.9610180270    8.0402438343   10.5629025582
  14.5648962041    9.7606513980    2.0384462286
  12.2105781629    5.3078571826    1.7259873870
   2.4245728762   14.6929168583    6.4972155777
  13.5327361008    7.3272330302    4.7067425484
  -0.9963871961    6.6287479261    2.7903051368
   8.9312851669   17.5558211097   14.6126820386
   9.0522720732   13.2253184241   17.9345748650
  15.7662477755    7.5821920486   14.2399501218
  17.0462034327    7.3916520599   13.3377975503
  17.0228867352    5.6898404005    1.7512331399
  15.4047096814    2.7991745645   11.2109044178
   8.6587925667   11.8562791055   18.5084959281
  15.8370292153    4.1826899330   11.0024437776
  10.4680613977   17.6391513378   14.3429665008
  15.4108330616    4.6268534636    9.6154175191
  -1.4729092494    8.6710870639   12.5086145488
  10.5447667231   18.8641769166    6.9950631586
   2.5727974799   10.0304415401   15.4630920812
  -1.9343568047   10.8817960461   18.9817250419
   0.5106641151   12.8937196031   15.2122452542
  15.6183446696   12.7370951706   19.2736151434
   4.6558721910   10.2130405125    6.5389406172
   5.7987676081    9.1667525775    3.8087287213
   9.9335637809   16.5992444051    4.8244656831
   9.0422300801   17.7421559142    5.4396773355
   1.5479491432   12.1291369061   16.0876658211
   2.3891776469    0.6065071017   12.9042276400
   1.0815032498    0.8635191447   12.5458829627
   0.7806792445   18.1712427300   12.6635328456
   0.5733436199    0.9920698604   10.1923942619
   9.8419375345   10.7759709720    1.3851675404
   2.3426215504    9.8346652509    6.4066542568
   5.9288840514    9.5998989437    6.2013400592
  11.9694858251   19.3268128016   14.7428323837
  -1.2547269912    8.2876616132   18.3723742825
  17.2587958736    3.9518397165    0.1792254573
  -1.5658511499   11.8172297236   15.1095903011
   0.3288965070   10.3615611944    0.1103557598
   9.7149925855   17.0759497118    2.4833803407
   9.3495850298    5.7932023484   13.6478563466
   6.7958493162    1.6661652104   16.5967144338
   9.4793968469    5.1978833645   18.6104276044
   9.0348797462    3.5685473764   12.5668961796
   7.4285789109    1.2729104489   18.7080969957
   9.3698154381    4.0596292885    0.7271518400
   6.0775212654    2.8985935395   18.3184189330
   7.2575983136    5.2885122976   18.7745668096
   8.3161417567    1.7799728581   13.4433638977
  12.1354937006    3.2187045466   12.7164839383
   9.9585007116    1.6379882814   12.0306395596
  12.7167599157    2.8451176301   14.6860818817
   4.8634951393    6.9108408525   14.9273880601
   5.6251700301    4.8102544607   14.8251069349
  11.3134832438    4.5331939165   14.2216590305
   6.3454263915    6.3323706885   13.2873387476
   3.2395077342    3.7926249801   12.8317736382
   8.8596545110   18.4047831891   18.0571024060
   2.7485444342    5.8247307332   13.3587684220
  11.4260799410    6.7940763065   10.3538009082
   1.1108052178    5.0002561130    9.5366994442
   8.0654162225    8.1248464913   14.2141314528
   8.5836129423    8.1619607600   16.4501704578
   1.6168119271    4.2673396134   14.4038170505
  10.6153240554    8.2983661078    8.8863737160
  10.9586325233   19.2252208091    0.4613599801
  13.9101265854    2.3100944065   17.7877236973
  10.8292462586   19.1901369051   17.7141716865
   2.7218788563    3.9146817355   10.2891506603
   9.6347816883    6.3975898255    9.0962830410
   7.2119389447    8.3352373668   11.6687399240
  13.8765918567    2.2085444890    0.4932215299
  12.2292064600    3.5464984288   18.1177026756
   6.7299002107    8.9006468011   15.7107829667
   2.5730115718    6.2061526735   10.4835055816
   7.4483032044    6.8666346282    9.9155969484
  15.6488706501    8.6791711235   15.0215144976
   7.8179520281    9.0676620153    9.6539083276
  14.0682707412    2.7211785284   11.1380782166
  14.5696703974    7.5196434610   13.4350779375
  15.9424972782    3.8898665831    8.6251604894
  15.8296511714    1.8276780454   10.4204896210
  15.6952884672    5.9394201403    9.3248926547
  15.6209024141    6.4958009401   15.1169320866
  -0.4194877962    8.5413277756   11.6559633435
  15.6511666947    2.4841279387   12.6207616132
  -1.0239757706    9.6678000376   13.4139535899
  14.0868688780    4.6467881027    9.6152825162
  16.1873651167    9.1169447130   11.9217248427
  -1.6610034944   19.1477361513   18.5516877131
  14.5473636626   12.4301898004   16.1925694649
   1.4125139105    2.5172060029    3.3599381182
   6.4112575454    7.2349559056    1.5274622593
   6.4018103565   16.2715289892    8.0679029094
   9.4834325134   11.3688232902    7.6487711995
   5.0433161066    6.4732033117   19.1048313280
   4.4511303216    2.7447207889   16.2455695791
  17.2359643568    3.2160635235    5.8265406488
   0.4003577807    0.9169034023    1.7407269652
   1.7986215818   16.8047804002   17.4491777938
  18.2278739805    0.7601408004    0.1799969458
   8.0242485300   15.4289398117    7.4552552172
   0.2867985155    1.8647618740   17.8876445443
  -2.4698207905   19.0771962381    1.0530564297
  13.1054102272   12.9367857770   11.8500483839
   0.6595177713   18.8383456321   17.5325422277
   7.7628687513   14.3298817717    6.0723472882
  13.0337383963   14.7501353480   15.2844812941
   4.2230394359   10.7539984717   18.9962870434
  14.8581892680   12.6338151609   11.9892209292
   4.0713762093    3.8416797607    0.8351210626
   3.3604758727    5.4133634419    0.5390808512
  12.3462857885   10.2164409947   17.8455756161
  11.9997107996    9.6866751516    5.9030579149
   1.1381080287    1.4127728287    4.8572396433
  -0.1552248003    2.2525887390    6.3568874523
  10.9334832679   12.9927748172    6.7334241959
   3.1786766736    1.8974645277   15.2621951825
   5.6748820725   18.7691976362    9.2052092807
  11.3062718582   14.4465277643   16.0273398334
  12.8417152281   11.2888998447   14.0096541910
   1.1072351402   15.1147644253   17.4689348910
   2.9538385696   15.4200822057   17.2023657332
  11.5170086746   15.5900699801   14.6951503937
   7.0160341643   17.2783013722    9.4532579177
   1.8322064857    2.6917097483   17.7924702258
   3.0686122276   17.0476727504    1.2338945848
  -0.6395535687    7.6065938615    6.2367243324
  14.2905842233   10.5685335161   16.0846468003
   1.9954000337    3.1393008507    4.8677895311
   6.6500810667   15.4847174180    9.6598826343
   8.2423114828   11.3907465048    6.3277077431
   4.2207441550   10.5080177458    1.1136401095
   7.1326060086   13.8135769865    7.5653594617
   2.5559601063    9.8380744381   18.9122911822
   3.6289845881    4.7055463089   18.7289881335
  14.1508617775   14.2485069692   12.3215234549
   0.8772695592   19.3547007232    0.2176208340
   4.7638124410    0.9710262944   15.5023455423
   0.5208423278    3.0330668315   19.1516035638
   2.1176958050   -0.0537481464   16.6239010884
  17.7382044571    0.8160195260    3.8375424384
  16.9728180660    1.9165975945    2.6738146061
  11.9460580276    9.9098740943   16.0951440305
   3.8247914262    7.9240317645    1.5774218717
   2.8604479412    7.4133290824   19.1213670574
   0.8326990896    6.8678506010    6.2575760828
   1.0571553852    4.5481123607    6.5756119223
   1.5791120005   16.6207278766    0.2466929530
  11.6785022567   10.9419132981    7.2362931909
   4.3193604905   18.7196711483   11.3553031177
  11.0450627604    9.3605311821    7.2803248681
  10.9156899560   11.2258035385   17.0469422397
   9.7343071344   13.5388569943    5.4725801116
  14.6691384690   10.8406199676   13.9586455916
   4.0946301025   18.1905640386    8.4585468332
   7.9018612614   13.7172683509    4.2718422680
  -0.1364484240    4.0626439692    7.9158550091
  -0.0645133705    7.1323600604    7.8605822937
   6.1234456776   14.5485113443    2.5177938127
   6.8641577329    1.7415168216   11.4745658231
   1.9235660707   14.1607867681    1.2071708533
  13.5433643257   17.1278649935   17.7333142549
  14.4107676328   16.0299170520   16.4611787006
   5.4933235619   14.8981972520    0.3366787604
  -2.0053397548   14.8787939605   12.3272691278
   8.3854252715   12.1498585646    3.9150116078
   5.5529387520    2.2310604551   10.6100813007
   2.8386490285   18.1024750476   10.5855410271
   4.1975579790   13.2520058722   16.8792837619
  -0.9378057440   14.1204060341   11.0566867166
  15.0526818113    0.2824666737    2.7499587688
  15.3729188333    1.5399111829    3.9669587483
   5.5903242196   17.1121429640    3.7268686552
   5.8792818408    0.8955695671    7.9986704277
   4.3826165424   19.0958623827    2.4052820172
   1.5099510379   15.3668649142    2.4405476089
   6.6597040801    1.4679125601    4.4859203767
   3.7825078025    2.3184099201    2.2397906027
  -1.8787919801   17.2265142586   11.9699234113
   2.3518749485   13.4192240380    3.4912140496
   3.5689528713   12.7587831451    2.4227958526
   6.6846730828   12.5594088957    4.2241868944
  13.6502037337   14.0530016917   17.4545172086
   5.1701753355    1.2619143729   11.8224092515
  14.6168838018   15.0595059757   18.4361482895
   5.7421217868   12.2581125996   17.0132916201
  12.2639264999   13.6758800558    7.8203274640
  14.6089492707   16.1083965660   10.5958120504
   5.4089031525   12.9468347239    1.9429110876
   3.1286678075   14.9271770972   11.2738429798
   3.7751234078   16.7992883894    3.7056804302
   4.7445167333   15.3816723683   11.9731483480
  13.5550231068   13.1253654425    8.6447019754
   5.2451169476    2.4198779513    1.3808159527
  -0.2885413386   15.4402836483   11.8796941794
   7.3017967515   14.5937509379    0.2028333541
   4.0017789480   13.6025149888    4.0480716760
   7.3997205196    0.5849777156    7.0675458838
   3.1099940084   19.5966122933    6.6595673650
   5.7604002853   13.9921901281   17.2748490292
   8.2425577492    3.7563470501   16.6067083248
  12.4575302140   18.5764197200   11.9693482547
   3.4493316928   14.7120361938   15.0259281179
   4.9450172552   14.9840175631   14.3294803185
  10.5377567402   15.1586937215    9.0631794971
   3.5591600384   16.5329082478   11.8082163768
   4.7801103554   16.8797360122    5.2309147454
   5.7521944348   19.5483921436    3.1438201483
  -1.7334574334   17.8728342888   10.2455762054
  14.2885714880   17.7335304609    4.7000677935
   7.1478776951    1.7901387038    2.6730553768
  13.9322293302   18.1414593771    3.0385931463
  12.7065824036   17.2117380548    4.0600433106
   5.1212307784    3.2662434679    2.8355539985
  13.4891906940   14.8458267067    7.9229937982
  15.0466912485   17.6482328340    9.7060046204
  11.0396189052   14.8232188166   12.0403328710
   0.8279327877   19.0740946238    8.5276984825
   1.1941942383   13.4013340141   12.3148182599
  13.8369252315   12.4267785673    6.3475571669
  14.0388236501   12.0066542067    4.6978693947
  12.8026960874   17.9680473567   10.2536710526
  13.1720282770   15.7880632554    1.6473163174
  15.0140157244   15.7215229303    1.2067981161
   0.3260871976   12.1815890699   11.4056541287
  12.5370859011   16.8478161151   11.6671777085
   2.2149274525   11.9018674938   11.7224140448
  12.8887119867   13.1596258651    5.0794098776
   3.9499304148    2.2393277942    6.1812998014
  11.5263225253   16.2359539742   10.0457083458
  -1.1717328586   14.2323391481    8.4890556684
   9.5526272856   11.6358446653   10.2089967156
   4.7113456485    2.6362106180    7.6787104670
  13.9888311012   16.9301584103    0.5223583911
   4.9160844109    3.8959717065    4.8548566638
   5.8901095364    4.4691310186    6.2798859160
  16.0289353221   12.2339947421    7.2919584114
   5.9993647736   18.9914319650   13.3241964503
   1.3763698555   18.6446923349    6.8543049211
   1.9858199711   17.5653325105    8.2473923626
   9.5027863282   14.8527173640   11.3197161833
   4.2062290885   16.8955589259   15.7896594706
   3.1473134377   17.4205895694   14.4344147348
  -0.3492178478   13.0808598154    7.5214288851
  -0.5027244221   11.3243073840    6.4348057433
  10.9430862645    1.3151048356   14.5252958983
  14.5555269175   14.0653173303    3.1769123861
   5.7922500456   18.8936470395   15.1172039050
  10.4207456097   12.4480541004    9.0538408361
  16.8043157599   10.8996731618    4.8283422856
   4.3859477236   19.3455771353   13.9221501667
  -0.5478437368   18.9221314469    5.9392863436
  -1.9779904569   18.0164367911    5.3857047551
   9.0417392838   13.2305539691    9.7924083199
   2.2125052826   11.7293446911    8.9928332690
   0.1737277515   13.1928532181    9.1266368892
  14.6938317547   15.4251344110    4.3408658481
   3.5117083481   12.1915397028   10.1468508118
  -0.2881023649   15.9101230809    6.2349592209
  10.8675480896    1.0261471811   18.9428338958
  15.8550084217   10.8156255186    8.1307383836
  -1.6883813855   16.5025386193    7.0506144391
  15.6043040975    9.5674031448    4.9139869365
   3.3502371400    6.7525798614    6.8436535647
   9.2963496033    8.4040197449    5.8376923537
   3.6996618317    6.5133584686    5.2101167516
  -0.5675657443   10.3195879120    7.9326496868
  -1.7650288334   14.6196377573    4.9040551564
   1.4391730858    6.1210822605    3.7328865155
  17.2287639534    9.2175252690    4.3202176118
   0.3398280395   18.3329584487    2.6416874658
   1.2672570195   18.7093052847    3.9240025930
   3.0983114153   14.6872804108    8.9281116466
   1.1385811365    5.1715574067    2.1454550300
  -2.0111025958   15.1973111316    3.2666213992
   4.1913887543   13.3586931768    8.2430912002
  11.6000429828    4.7990218376    4.2746089571
   6.5322328785    6.3996518003   16.6054772551
   5.0388837522    6.3453011568    6.5144052607
   2.1987994537    6.5754301530    2.2199526894
   8.1761978863    7.8750482819    4.6279854231
   9.2156187641   16.1629034072   18.8821316961
  10.4454928689    3.9707659747    3.1313111831
   8.3348316239    7.0461368240    6.1559825412
   0.9148928329    3.6704592094   11.6632333840
   8.6038755913   19.0826186647   12.2321980298
  12.6938304780    9.0063898844    3.6866555698
   7.8112213227   16.1375966957   17.8143517552
  13.6204209813    4.8662587267    5.8289123839
  12.8128661605    7.6961463997    2.6363822978
   9.7518602356   17.5689976509   12.0782733341
  -0.2524405031   19.5736870051    3.7121904939
  15.1767109307    9.5510403001    1.1789172699
  13.0993218754    5.3372243498    2.3871967361
   8.8831774027    5.9643679593    3.4528427445
   0.0272092560   12.8794853564    4.1885726737
  14.9723120448   10.7190240008    2.5055282728
  11.9477725234    4.2980832296    1.3294095247
   9.4910204416   15.4975141738   17.2281071021
   9.1511928186    4.9380566213    4.8650447724
   8.0548377584   17.6090042561   11.4120990179
   2.2333061852   15.6349112034    7.0913861983
  -0.0985500098   13.5280480915    2.5074873082
   9.8223090994    8.7489420037   11.3693827769
  15.0013347095    5.8563369602    6.3104826426
  -0.4043684020   11.8303690424    2.8229772488
  17.1088379752    7.4003159726    2.8110697785
   3.2890219615   14.7479578160    5.8999213011
  15.2698980107    4.5537663232    5.2273853925
   8.7403126137   18.5375247081   15.1088787785
  -0.8813495152    6.2342377987    3.8772869291
  12.5858606426    7.0610262175    5.1592595197
  13.5387822586   10.0203643404    1.7312651019
   1.6603588934   14.5204484208    5.8066517429
  13.9102182011    7.9433494730    5.6303774924
  12.3848461345    5.9946546189    0.9380046058
   8.9353751242   13.1978697147   16.8320202947
  -0.9588819856    7.3937484596   14.1182771068
   8.9281748539   10.9729070577   17.7996549513
   8.5649510236   16.8024726746   15.2852857255
  10.1917733606   13.4477359570   18.1766489694
  16.2566154764    5.1493419517    2.4036026949
  10.8041289740   17.2116822588   13.3782286899
  16.6720459723    6.4296615901    0.9683010058
   7.5247266114   11.7506037168   18.5357964318
   2.1414496706    9.5986256567   16.3613881171
  -0.1309807735   13.5634054341   15.9122488673
  10.9571578892   16.9261137024    4.6073016189
  12.9559516693    0.2258907817    6.9112721986
   4.4708598461   10.3005382959    7.6298187381
   6.3346671414    9.5710136917    2.8275140887
  10.7923295463   18.6054701153    8.0363115816
  16.9378523098   10.5586760287    0.0886856011
  -2.0506103695   10.8114520672   17.8279148211
  15.0988372974    4.6493492619   11.6611290075
  16.6974468858   13.8084176638    0.3336421087
  15.2865049758   12.6643956523   18.2335144671
  -2.2932721308   19.5389614256   12.3895712234
   3.0196083580    1.4882030047   13.0301155061
   0.1049276144   17.7939618469   13.5132081598
  -0.4923224261    0.5954155680   10.3189504300
  11.0632549158   17.1329182590   15.1309525018
   4.6706432218   11.2303257549    5.9795523896
  16.4658208886   11.4556872183   14.4756266261
   9.2693848569   16.5632182523    1.6016172214
   1.9819468608    9.7280780310    7.4731964314
   2.1940845589    9.5523728366   14.5719791032
   9.3014828387   18.6216145652    4.7693927219
  -1.7859768918    8.2867361506   17.4032970915
   1.1217646275   13.6091277912   14.5413559842
  10.2830959144   10.7830451315    2.3810403061
   2.2150065916   10.8758018647    6.1982140872
  15.1699835825    0.1511987816   13.8773442723
   6.1670426723    8.0839265972    3.7720476830
   2.0401212389   12.8439070936   16.7262694505
   1.8305188210   18.3591802830   13.1414443160
   1.3333825587    0.2309924410    9.9009915993
   9.9634064850   15.7532558498    5.5106343366
  -1.5060888692   10.8940176172   15.8426935580
  16.4619772570    3.1564717560    0.4494932401
   3.6638291597    9.7091811428   15.4609469476
  15.9897198832   12.3059248379    0.7666264485
  11.4265307419   18.7526564983    6.2679444205
   4.7467185089    9.4032555931    3.6599716186
  10.1388078838    9.7913342211    0.8659772818
  15.6349471387    4.5247173191   18.8347875760
   6.7755005062    9.9741813947    6.8446923587
  14.5285668178    0.3060030689   15.6608019608
  -1.9798654251    8.4352436838   19.1763667195
   9.2144250751   18.0065573686    2.6083163441
  -0.8009470500    7.2809389941   18.4498169718
   2.4420760010    0.1594621388   13.9389394559
   0.5437219895    1.3745111010   13.3239081485
   0.8617970014   17.2850525166   12.0543113485
   0.6829900220    1.8076638934    9.4586593741
   0.2832272441    9.8658376204    1.0944717002
  17.1220237272    3.4040509792   18.9167855396
   1.1738759977   11.0242455426    0.0858379821
   1.1239921326   11.4101237017   16.7730516047
  12.6180895378   18.3562490501   15.0316880643
  10.7692381523   17.4105457294    2.3761600479
   1.6705692425    9.1394032104    5.9063864755
   8.0189977250   17.3779296721    5.2745621552
   5.8322007627    8.4764823445    6.2408684497
   8.7998993563   10.8153011629    1.4929854809
  -1.9090879343   12.7063199548   15.7479645253
   5.2310663135    8.8696969958    0.2896589270
   9.2384863745   13.7833959241    7.4455417906
  13.8432707016   12.9614974690   13.8359084251
   3.5622969488    1.3095535916   17.3304679931
   2.5246791511    1.2994527617    0.1032906657
  -0.7985572937    5.5513923380    6.6147056598
   5.2956958324    5.4067976105    1.4085836457
  -0.0655566720    3.2379358167    4.5985397181
  10.1786712114   10.6833039109    5.8095163852
   5.0504210337   16.7851652614    9.6844243142
  14.5697587626   19.6917746657    1.8975655992
  12.7270079798   11.8412218489   16.7147226009
   2.5141222514   15.7296483402   19.0320854907
  12.2239974521   16.2778759467   16.3857973552
   6.2040316598    0.3013031709   10.0592924594
   3.3835428287   14.9173391937    2.5318786354
   7.4191406325   12.9777099302    2.3242744284
  12.9261712288   19.3345801043    4.4691409695
   5.0662654798   12.8526994131   18.8642140952
  -1.7428101529   15.8534517856   10.4551657368
   4.2774232937   18.6310371306    4.4857517791
   5.2432461299    1.0901934680    3.0421470711
  12.7096696938   14.8766680155   19.1889972118
   5.9674235922    1.9854985843    6.1508167171
  14.3703106036   17.7365469088   11.6963670011
  12.5065652439   14.5917500185    9.7430325690
   3.0963093895   15.1090024429   13.2458940194
   5.1257541947   17.3544969915   13.9826565508
  10.0031008357    2.7567891415   15.4108195214
   9.5715236069    2.5408270571   17.7138781297
  -0.0068830238   17.3301265688    7.9087094730
  10.6941887158   13.1355678700   11.0193256012
  14.7677539014   13.7823184391    5.3676938867
   1.8478875112   13.4120462514   10.4232263661
  -1.5067005112   12.1991057605    8.9627864461
  17.1114522160    9.7107725278    6.4175751766
  11.2601548239    1.2349137304   16.8793458774
   3.7372355676    4.7392287221    6.3565659794
  -0.4002956177   17.4909142926    4.3411358634
  10.0759811838    6.9069308722    4.8100228921
   7.9642732513    5.4158013866   15.4472258024
  -1.8819340324   13.1138807163    3.4497082873
   2.4238862630   13.5994112705    7.3663392181
   9.5421425131    6.8850391043   11.9845936146
  14.1915169090    6.1394761938    4.3662970944
   0.1719011216    7.1372483897    2.3632462442
   0.1653908402    5.5655154784   12.2862604159
   8.3073323361   14.3104478297   18.5045851378
  11.0536872483    5.7678961883    2.4839216782
  14.5668700508    8.5971662739    2.9180389542
   8.1690567969   17.3471175079   13.4322959106
  17.1871421386    4.3304269339   11.2151770344
  16.7215441607    6.3399816681   12.4386699597
  17.7712076918    4.6149685150    1.2386708090
   2.5389846518   11.4112293556   15.3004630005
  10.6601391363   19.0428499279   14.3721025191
   6.3923497447    9.9412076501    4.8360575568
   9.4337289216   17.8788105494    6.7476985308
  10.2332298898   11.8698688592    0.5306889508
  -0.1661356863    9.2588733599   18.3800277789
   0.2470881542   19.2496456806   11.9302612851
   0.9771509550    1.6326103490   11.3540365494
  -1.8898189439   12.3111177731   19.2736390598
   9.3698450118   16.1894714017    3.5846181194
  -0.4461256730   12.0868056485   14.4286138334
   3.6479686419    9.3272711067    6.0768921633
