B2 C140 Ca1 F48 H298 O66 
1.0
1.8985983026129098e+01 1.7937729660415598e-16 -9.2545065914071678e-17 
-2.7617895776176731e+00 1.9787697660636432e+01 -5.0197584022580118e-19 
-5.0730924437882186e-01 -1.2634620036116892e-01 1.9241909940981870e+01 
B C Ca F H O 
2 140 1 48 298 66 
Cartesian
  10.5856842600    2.0215792741   16.5937872876
  -0.9016392645    5.4401446039   11.7508500605
  18.8011866723    0.3381915512    1.0524648711
   8.2017935572   14.4855806563    7.1622612358
   5.7508851336    6.7420686905    0.7744441699
  14.5394341202   13.0587683572   12.4251765042
   4.0998433117    1.6497294270   15.8716652905
  -0.0999901873   19.6541523565   18.6189688346
   1.1971684468    2.7578790201    4.1811660242
   3.4032876641    0.0929750124   17.3237650089
  -0.3144443462    3.2196906815    5.9391270952
   4.2461364646    4.7232020719    0.5988702380
   2.6089141908   15.8066057923   17.6577031789
   1.4698496872    2.0584964366   18.3664049720
  12.7201720918   14.9946967368   15.5541409967
   4.6757841699   10.1658819354    0.2289517060
   6.3474911615   16.2848622891    8.9632954380
  14.3322473125   11.5156018469   15.7661795915
   9.3850269028   11.5104869065    6.6751679058
  10.0051781525   12.9804459580    6.6420783176
  14.1737203145   11.5578688508   14.2518003691
   4.6160600393    7.7844402832    0.6891061748
  12.2739297600   10.7983733315   16.7788283091
  11.4399746063   10.3313364081    6.6251180755
   0.2124551054    4.4536140844    6.7282838937
  -0.0728513607    6.7718486517    6.6949286867
   4.9435102743   18.1439494067    9.3648341693
   2.5744077381   16.2143196460    0.7719606700
  17.3873404763    0.7208423704    3.0350058432
   4.0711075693   18.7600204260   10.3320224780
   2.3680196701   15.0927275185    1.8058408194
  14.0375991906   16.1445145646   17.0792916768
   6.1259893591    1.1555208620   10.9732836230
   7.7143373669   13.0033997778    3.6201488826
  15.9655826089    0.6119350831    3.4309465208
   6.1690384622   13.6870707738    1.9631585966
   6.2324241078   14.2070817003    0.6173458890
  -0.8614817634   15.0666649992   11.4532849670
   3.4074229575   13.7273604964    3.3692891772
  14.3201334809   14.9113544002   17.9930107790
   5.6280186900   13.5999840304   17.5733770428
   4.6958655832   17.5020322142    4.2099224010
   4.8027299957   19.6465381534    3.3743166194
   6.8794506452    1.1823595814    3.4498418860
   5.0286565475    1.9810031231    2.3147074185
  -1.9982363159   17.0797278464   10.9110489693
   6.5230918196    0.8739586188    7.1075951080
  13.3416865323   14.2527930403    8.6230044409
  15.4629388706   17.2515201364   10.5549859089
   4.1474365786   15.3518761409   11.9677872803
  13.7463422226   18.1858889738    4.1374403899
   7.5502619977    2.3666266173   17.8609907789
   8.8303173325    4.3873950918   18.7016007180
   8.7584841549    3.3497999077   17.6457975154
   4.2031331682   15.4952563134   14.3382807701
  13.3974707912   18.0266185910   11.3654268786
  11.7084898622   15.3281375992    9.8909274742
   9.8356593381    2.2758142619   12.9796257802
  14.1882520350   15.7210602298    1.0216489442
  14.1164231049   12.7822691903    5.4292723136
  11.0158073054   14.6969033949   11.0889104309
   4.9172851180    2.6238514810    6.5781245232
   1.6573335162   12.5352102942   11.7037050268
   4.3418753199   17.0030590463   14.6615234562
   1.0995485234   18.0371185331    7.8584293120
  10.9138150660    2.2576250854   14.1491227051
  12.1870223559    3.0628203570   13.8515635369
   4.9845821110    4.1060685613    6.0046055082
   5.4874200906   18.9199699199   14.2052482334
  10.3250054134   12.5949467988   10.2992061927
  -0.6580764601   13.2004498264    8.4652940274
  17.0313509444   11.2703537166    7.8845673682
  -0.7726564676   17.1657302362    6.7315819006
  -0.9587751907   10.4575893030    7.0685202889
   6.3212338627    6.0742161336   14.6420479473
  15.2446606167   14.4262176389    4.3688764292
  -0.6699042325   18.3132538601    5.6606869741
   3.0497998808   12.5298151531    9.6107360720
  16.9066894006    9.8596304199    4.9783501137
   4.0670312505    6.2635759667    6.3206013490
  12.1378958930    1.0888266220   18.1572703477
   2.6608050479    4.6651635628   13.1059216593
  10.0876744406   19.4804579776   18.2409260085
  16.6287414235   14.4975555138    3.7409105773
   7.5351916210    6.4064050485   15.6865976555
   3.4964400172   13.5477658257    8.5850905438
   8.9741617705    7.4212804724    5.4619613284
   0.2609890495   18.7365810559    3.6030402912
   8.0338186101    7.8882116600   15.5830370532
  10.6784399273    7.2724959127    9.7844357102
   1.2061585953    6.1499259362    2.5989038931
  13.1341295730    2.1852168702   18.5064114271
   2.1518734604    4.8793234612   10.6486079089
   1.4913874361    4.6194489140   11.9424622969
  10.8908741312    4.9013782017    3.4942304581
   9.6619821536    5.5984506180    4.1717182663
   9.3369363039   15.4943424686   18.1596262821
   9.7378940200    7.8726991586   10.9303398759
  13.7832011265    8.0541287819    3.4037085257
   8.8609449310   17.8604638837   12.1823771466
  -0.6737166677   13.1233251481    3.0428152211
  14.7857757912    5.1339747415    5.4308220364
   8.2814769021    8.0510406272   10.4929351175
  14.7975379403    9.6838350103    2.0324626224
  12.4728364408    5.2913463035    1.7781698033
   2.6816403522   14.7313228781    6.8452732093
  13.8607818234    7.1842551332    4.6744422950
  17.8311345026    6.4910922433    2.7932175027
   9.0953126857   17.4642757950   14.5675533407
   9.5238030593   13.2515372381   17.9062764370
  16.2492593065    7.5081370141   14.2925648721
  17.4875496908    7.2560757202   13.3586211053
  17.1097268764    5.7217283417    1.6733416862
  15.6240511323    2.7625194907   11.2396820656
   9.2810073932   11.9489637566   18.6866556223
  16.1052967032    4.3088491427   10.9762679186
  10.6198242211   17.7374148115   14.5842909637
  15.6972200145    4.7330602986    9.5646867125
  -1.0811824061    8.5578774744   12.5459055871
  10.8531246728   18.8857980453    7.0002595611
   2.8827638521   10.2030027311   15.2007233208
  -1.4504831553   10.8289075717   18.9654773799
   0.9302085216   13.1719169762   15.1688290896
  16.8871866762   12.9202059899    0.1032466020
   4.9030919811   10.1496629307    6.4955477410
   6.1409765846    9.2370505915    3.7321426736
  10.0215223347   16.5638341961    4.6906697444
   9.2513630740   17.7042571265    5.4690247544
   1.8274363977   12.2686535100   15.9745940343
   2.7906608965    0.4837518532   12.9373960001
   1.3586733849    1.0254454664   12.6645807660
   1.1958993871   18.1518484118   12.5455007911
   0.6146782106    1.2032490848   10.3948224514
  10.2401274809   11.0196580632    1.5173697238
   2.5122868882   10.0152605561    6.3852650082
   6.1913308999    9.7485795219    5.9948220403
  12.4067888488   19.3801292330   14.5981540852
  -0.7976772435    8.1105444607   18.3824343181
  17.3353549957    4.0958125305    0.0872208585
  -1.1661237064   11.9100762299   15.0711616137
   0.4073312687   10.2925726546    0.1170365674
   9.7845491080   17.4989599786    2.4713135210
   9.7586213783    5.7681561091   13.5611329096
   7.4534231622    1.6569742826   16.7322942029
  10.0308970741    5.0481041435   18.4888003377
   9.4537566187    3.5601189043   12.6553809759
   7.8907754426    1.3504017947   18.7884869238
   9.3584461527    3.8867828911    0.7233714349
   6.4506100683    3.0140669684   18.1988036376
   7.8341522793    5.3193572444   18.4606750197
   8.7691001839    1.6593099265   13.4536748097
  12.5767824891    2.9888230571   12.6096818590
  10.2499552299    1.6365190978   11.8274133349
  13.2003619847    2.9246111794   14.7450426195
   5.2081321172    6.8805116947   14.6549791746
   6.0038687034    4.7557407505   14.7487389443
  11.9249648180    4.4928062835   14.0926120208
   6.8654710036    6.1661801279   13.3020206499
   3.6000218061    3.7621096586   12.8824349040
   9.1717408810   18.5332824762   17.9358869269
   3.1059869315    5.8953733552   13.3370045332
  11.7944160512    6.7979337044   10.3959180099
   1.3776243563    5.0330423367    9.4951459697
   8.6449918541    8.0417003091   14.2411270016
   9.0834250210    8.0014690532   16.3705034114
   2.0817258774    4.2232300729   14.2554232849
  11.0331129182    8.2705224021    8.9418431317
  11.0747164156   19.2719809859    0.2397704712
  14.2387510867    2.0457722311   17.7085642035
  11.1742842994   19.3420145775   17.3651018921
   3.0299550324    3.8086715201   10.4360438843
  10.1856566404    6.2046285896    9.0159356212
   7.5366220941    8.2951596640   11.5604305556
  13.9945051887    2.4816969974    0.5189270565
  12.6076953557    3.4980731228   18.2112856320
   7.1151979955    8.8891012350   15.6432485599
   2.9756593131    5.8929399023   10.6922180913
   7.7801126709    6.8273971792    9.9910347474
  16.3761040185    8.6266663662   15.0026716129
   8.0624622790    9.0384469329    9.5603900631
  14.3608447400    2.5748309951   10.9748905306
  14.9402343452    7.5526133724   13.5728018220
  16.2841455349    3.7821128323    8.8191583468
  16.3138215394    1.7959807987   10.6746084185
  16.0218825962    5.9996507513    9.1553158186
  16.0358490774    6.4264512975   15.0905248565
  -0.0652642377    8.2155474974   11.7152767924
  15.7824682098    2.5678890874   12.6256809517
  -0.7134772918    9.7291901043   13.2199233675
  14.3967077757    4.5885476676    9.4012727743
  16.9525972384    9.0423147797   11.6529176213
  -0.9997430510   19.0588987227   18.5098484083
  15.0046326892   12.3044979578   15.9673026954
   1.4028338760    3.0047658444    3.0896341918
   6.3635104561    7.1151496243    1.5713727704
   6.0999157825   16.2073611239    7.9147150422
   9.2530249344   10.9527432627    7.6428450595
   5.5528725640    6.3822172401   18.9374839802
   4.5250139849    2.5484278106   15.8284135974
  17.5797898226    3.1718070859    5.9677373439
   0.4911705112    1.0136977781    1.5616246148
   2.5486635684   16.8348565455   17.3680276140
  18.3909556623    0.8902827784    0.2400172871
   8.2064419565   15.5742669067    7.4052292697
   0.8076894559    1.4799317197   17.7014808224
  -2.3865746257   19.2240099785    0.7713382820
  13.6489350218   12.6854891006   11.9763916480
   1.4352149655   19.0847172926   17.2991547607
   7.8847324640   14.2440859625    6.1264278239
  13.7086682913   14.9032838220   15.1480630761
   4.8982742883   10.7885787337   19.1016249127
  15.3155523158   12.3899813713   12.0188915136
   3.9907994383    3.8201396268    1.1956734738
   3.3006961053    5.2820666308    0.4825484310
  12.8428581779    9.9321343278   17.1419006038
  12.3598667846   10.0797598869    6.0073427161
   1.3572546161    1.7393337084    4.4518794722
   0.0703907193    2.2226183923    6.2195683513
  11.1115336022   13.0462675124    6.8864385887
   3.1257050193    1.5633277700   15.3538336452
   5.6952840481   18.8076462969    9.0532686478
  12.1636073923   13.9716814789   15.8000385585
  13.0658033069   11.3882458580   13.9400327466
   1.6883838202   15.1982725468   17.4226228408
   3.4134834537   15.3307846492   17.0499402769
  12.0511801202   15.3591787664   14.7686222559
   7.3077257053   16.7686245482    9.1159841320
   2.1693224736    2.6309387070   17.8985844357
   2.9506014787   17.1718318126    1.2530476574
  -0.8030221602    7.5054619462    6.3212123839
  14.7365134056   10.4868501030   16.0229262760
   1.9867289031    3.4288574162    4.7708966605
   6.5093761496   15.2778202750    9.3376600364
   8.4244785905   11.5129421802    6.1912901883
   4.4671450768   10.3962898781    1.2620264582
   7.4203767050   13.9781898661    7.8333040826
   3.1630354129   10.2656212356   18.9733826664
   3.9758157438    4.2822836691   18.8378002521
  14.6773584848   14.1201355513   12.3773804566
   0.9844323904   19.3272590913    0.2769067510
   4.7565700447    0.8547056157   15.4130158204
   0.7389428273    2.5664559080   18.9912164907
   2.6631975555   -0.0782527286   16.4562259342
  17.9664883274    0.4113110130    3.8910934520
  17.6111662075    1.8121598868    2.9411433261
  11.6354321233   10.5203224983   15.8787235358
   4.1378925165    7.9847839224    1.7143272508
   3.7885585380    7.3736190808    0.0106804928
   0.8589967398    6.9427153114    6.0778815177
   1.1753294891    4.5882312062    6.4130478307
   1.5351748569   16.3046051489    0.3341527076
  11.8022822738   11.1205614790    7.3332282454
   4.5940624284   18.9454576244   11.2506110356
  11.2039580625    9.4049174848    7.2163451403
  11.7221092058   11.2630809114   17.6189051786
   9.9194339559   13.2317462612    5.6292943805
  14.9003745641   10.7452469624   13.9683029489
   4.4391097426   18.1639344623    8.3338815065
   7.9486498411   13.9000772842    4.2050555722
   0.2944409350    4.1644420172    7.7823154134
   0.1533323968    7.0313519403    7.7257133608
   6.1995534294   14.6957356693    2.5700173447
   7.0253783019    1.4429206733   11.5422334078
   1.9375670335   14.2513093646    1.2294706991
  13.9884035713   17.0847922003   17.6319607766
  14.8304306374   16.3214751437   16.3319126318
   5.3277746954   14.7648866148    0.6484465603
  -1.5050244262   14.8555675654   12.2763924000
   8.4935068648   12.3012336350    3.9210761099
   5.7464293199    2.1185970427   10.6434200156
   3.1352609574   18.2453624099   10.6245179676
   4.8758052945   14.2476094310   17.4630825779
  -0.5212858532   14.1618992182   10.9380621095
  15.2125732649    0.3483536081    2.6260538799
  15.5510976082    1.5457685600    4.0221603105
   5.7893576925   17.2843183577    4.2023096407
   6.3874221307    1.1909279343    8.1627492894
   4.3950593272   19.1270394681    2.4151887259
   1.5431359764   15.2762748447    2.6460656693
   7.1544657361    1.5636509043    4.4164392243
   3.9849224034    1.8984968569    2.1246980726
  -1.9863685048   17.1457269891   12.0336390789
   2.6157086277   13.8320198600    4.1314616116
   3.1549331792   12.8728651527    2.7176456780
   6.9108279170   12.5576483862    4.1188504870
  14.0568774635   14.0099160697   17.4507957801
   5.4136665622    0.8375686162   11.7105052951
  15.3609755142   14.9399205929   18.3935675245
   5.5850016618   12.7839749384   16.8430878173
  12.4282493075   14.1510996983    7.9791657213
  15.0704757085   16.2265004823   10.3288310813
   5.3574868200   13.0101597797    2.2009847302
   3.5632935926   14.9666927521   11.1132386399
   4.2010086151   17.1902075078    3.2452877996
   5.1927824675   14.9014125336   12.0382266990
  13.7010195075   13.1720624625    8.8393208171
   5.4980657204    1.8622650430    1.3166911922
  -0.0480166677   15.6145973970   11.8921823225
   7.1362169237   14.7845022145    0.4885679742
   4.3473150377   13.6423362947    3.9505364542
   7.5353109809    0.4630378385    6.9174849014
   5.7510888180   -0.0078320763    7.0057534597
   6.6304631614   14.1181014471   17.4225917295
   8.5910358836    3.8462106979   16.6385911688
  12.8998173728   18.6305794107   12.2395779246
   3.6879738332   14.7809710256   15.1390406995
   5.1810682410   15.0281075997   14.3496622673
  11.0869896480   15.0116596136    9.0253211687
   4.3764931516   16.4568124600   11.9423972730
   4.2752025934   16.9422656822    5.1074427111
   5.8818821456   19.6982974214    3.2212410276
  -1.4093346713   17.9998334065   10.6660885197
  14.5215130350   17.9827348899    4.9924320321
   7.3080072727    1.7551665707    2.5546560692
  14.3144444110   18.1344260067    3.2310205951
  13.0693250049   17.2711048636    4.0962979305
   5.1588799204    3.0741296172    2.5262925585
  14.1083248307   14.8633707130    8.0609195948
  15.4565989958   17.9095029548    9.6366488940
  11.6334488277   14.9698479458   11.9199265360
   1.0150482964   19.0143691237    8.3934741364
   1.1188226936   13.4283872676   12.1415766772
  14.1460020837   11.9645358387    6.3156514407
  14.1830521812   12.2701973872    4.4293683342
  13.2340567921   18.6605672662   10.4956103072
  13.6633757283   15.2779508195    1.8390288510
  15.3727145193   15.5968208914    1.2717023157
   0.8580650324   11.7952797487   11.4068039744
  12.8509798672   17.0883493501   11.2479821508
   2.4613962498   12.1912938204   12.3293895926
  13.1734906810   13.3249240596    5.5057313243
   4.0600491023    2.0294576301    6.1290448627
  11.6919604259   16.4665352924    9.9649813461
  -1.0517994595   14.0967873137    8.9049329695
  10.1335222818   11.5675542557   10.5936046695
   4.6371616241    2.6710943985    7.6557094639
  14.0242259451   16.8497989323    0.9613825790
   5.0330881228    4.0780169618    4.8951204693
   5.9287342049    4.3517863917    6.5288449444
  16.4627571637   11.9738641682    7.2310286247
   6.3214851980   19.1957372334   13.5335423663
   1.3330818752   18.1770797958    6.8655565013
   1.7075220789   17.2772137101    8.2559513069
   9.9825055792   15.1226541792   11.1658505966
   4.2064891811   17.0766396807   15.7404063154
   3.5154229017   17.5147431837   14.1019043698
  -0.6833584800   13.3332956628    7.3502583461
  -0.4308132905   11.1348179424    6.3801460002
  11.3827413473    1.2377295081   14.3925467292
  14.6769828780   13.9233363782    3.6380748402
   5.6084330822   19.3645527520   15.2759706774
  10.7982252585   12.5241186380    9.3144097438
  16.9976157687   10.9375659504    4.9483407425
   4.6580536526   19.5278677282   13.7185707812
   0.0695751283   19.1005303356    5.9891046740
  -1.6191298851   18.8098491287    5.4278136872
   9.2774049128   12.9205733511   10.1884930938
   2.4835447361   11.6838511805    9.1042628131
   0.4811538114   12.9988965395    8.6714716428
  14.8551947690   15.4933265274    4.7347612658
   3.9634722185   12.1381093073   10.1277856530
  -0.4124679036   16.2857613707    6.3166957272
  11.3871413426    0.9459075567   18.8434992150
  16.3137692400   10.6126999267    8.3095555321
  -1.8043856363   16.8473253958    6.9059349763
  15.8380906219    9.6138999450    4.9024261778
   3.4079380478    6.9302636875    7.0505061486
   9.5313082267    8.1117325024    6.0793847114
   3.6947510388    6.5597082943    5.3810069994
  -0.1811380496    9.9551335427    7.7082529720
  -1.4866276279   14.9747907310    4.3325993001
   1.3966088634    6.1442082102    3.6887777551
  17.3140008924    9.3677035626    4.0860967868
   0.0494518063   18.3637659737    2.4910579197
   1.3742020815   18.9772778164    3.7895077793
   3.6237091108   14.5349374748    8.8798230331
   1.2185134384    5.1861626539    2.1528290203
  16.5585129746   15.1910587767    2.8382687121
   4.5806846668   13.2864675790    8.3241545356
  11.6099693459    4.7091549909    4.3872299924
   7.1573494916    6.3092354247   16.7182823893
   5.1507265884    6.5210134471    6.5307795252
   2.0859830303    6.7149356472    2.2133481013
   8.1649836958    7.7665204809    4.7948653579
  10.2871918840   15.7545012977   18.8175906954
  10.5331759739    4.0242139595    3.0070760708
   8.4881356755    6.7697926573    6.1771796985
   1.0540459589    3.5902671136   12.0856736392
   9.1207279093   18.9946993647   12.2347779468
  13.0219816437    8.8971875497    3.7555199585
   8.6499499600   16.2981579000   18.3899617377
  13.8913593303    4.6739146300    5.6803019208
  13.1234674513    7.7417364644    2.5435834137
   9.5966553665   17.2901351254   11.7164914769
  -0.2291689401   19.7076233778    3.7191486751
  15.4365166769    9.5427348343    1.0973718493
  13.3792052707    5.5031126838    2.4211944292
   8.9884258650    5.9728745021    3.4115638457
  -0.0717562435   13.3259748334    3.9404112114
  14.9774401377   10.6992958528    2.4435308621
  12.4319620172    4.2326966032    1.6023889685
   9.6394555212   15.4887923411   17.0944898368
   9.2859787480    4.8302899833    4.8897215064
   8.0051549683   17.8237230501   11.4282733817
   2.3720193846   15.5641484740    7.5030522623
  -0.3420881966   13.8416510954    2.3136712624
  10.0997864480    8.8460003448   11.2450822213
  15.1951897816    5.7138124557    6.2717083073
  -0.3282566449   12.1425189040    2.5651958592
  17.3270761721    7.4661195754    2.9971180856
   3.7326383325   14.9823593478    6.3718454437
  15.5402461534    4.3826070913    5.1934868007
   8.5539268237   18.1598353590   15.2713802148
  -0.8789537844    5.9435729344    3.6502339731
  12.7872407845    6.9518322482    5.1084935857
  13.7312901694    9.7816003738    1.6491618845
   1.9627017531   14.7746801037    5.9124860018
  14.3768498303    7.7639427652    5.3786780450
  12.4799068602    5.8846035649    0.7716088275
   9.2000233274   13.1299662773   16.8319589104
  -0.7036186692    7.1190480596   14.0915023337
   9.5828379026   11.1897072723   17.9136216242
   8.8104010241   16.4842009822   15.0703769730
  10.5541603045   13.6779392224   17.9564789128
  16.4374422819    5.0671502750    2.0523868989
  11.1718974372   17.0512914500   13.9199022416
  16.7542563536    6.3600095466    0.8477582051
   8.2205780344   11.8207900608   18.9164713973
   2.8611594060    9.8240915948   16.2298965129
   0.5311883669   13.9603102279   15.7673084999
  11.0990738822   16.7983086996    4.6111584088
  13.3832719403    0.1830244198    6.9613566254
   4.8532716555   10.2411655206    7.6110868526
   6.2819386325    9.6528994961    2.7713628427
  11.1100046772   18.4908378940    7.9737963668
  17.1621189985   10.3965485633    0.2286540064
  -1.6821907329   10.5620078542   17.9876681194
  15.4878454627    4.8274955397   11.7472436367
  -1.7359304790   13.9998303187    0.2284954578
  15.8095441000   12.6749352314   18.3334805625
   0.6840386968    0.2115079182   12.6488424042
   3.4453917709    1.5025943806   12.9539350410
   0.6601148191   17.6905312079   13.4238061735
  -0.3537232346    0.7993177929   10.6506732228
  11.0951793212   17.6103829777   15.5418584285
   4.7374673219   11.0976861764    6.0140976929
  -1.7869759070   11.5643500207   14.1903748077
   9.3212508159   17.1789438736    1.5687897976
   2.3743937251   10.3237663670    7.4245291753
   2.0226498746    9.8264397986   14.6135166491
   9.2214431916   18.6288924255    4.8727553461
  17.2934021298    8.4827071087   17.8080470790
   1.5821501335   13.6063313202   14.3533716360
  10.5569589322   11.1479361185    2.5799238121
   2.4281383341   10.9948304417    5.8636945339
  15.4761663295    0.4457649187   13.9688146811
   6.7072361404    8.3103374689    3.7849032161
   2.3637625496   13.0470688247   16.6630322656
   2.1462399132   18.4310024148   12.8636267552
   1.1846714401    0.4663218574    9.9103189080
   9.8643734755   15.6787552163    5.3328255074
  -0.9128245732   11.0712893681   15.6260864380
  16.8246011385    3.0769658829    0.4197350840
   3.8502392098   10.0214589382   14.7585764894
  16.2288149427   12.7774059527    0.9642654881
  11.6068401863   18.6775968342    6.2768803504
   5.0342007966    9.1351294291    3.6608482195
  10.5814663951   10.0729413061    1.1896808156
  15.9644931678    4.5178498093   19.0993755168
   7.0170572513   10.1416042591    6.6101808604
  12.3536452872   19.6541981558   15.6434580270
  -0.5389095288    7.9205966525    0.1794722277
   9.2082364256   18.4207994134    2.6868450119
  -0.4375651323    7.2292935177   17.7677239984
   2.8480919166    0.1391921928   13.9630563578
   1.2404315077    1.7092872270   13.6375820208
   1.2513993182   17.3796390577   11.6916298898
   0.4704605044    1.9826044770    9.6217318996
   0.2946855982    9.9498648916    1.1262806396
  17.4770213229    3.7476308524   18.4891476581
   0.7249040280   10.9322891110   19.2293558047
   1.3348460136   11.4218082421   16.5607295002
  13.0573737035   18.4808842130   14.4894577601
  10.8417231866   17.7429793200    2.2827875698
   1.7499161569    9.2612889217    6.2316470943
   8.2003298110   17.3655721174    5.3406742859
   6.2626152044    8.6526863915    6.0772779650
   9.0513751989   11.0122998843    1.6065046460
  -1.6799638296   12.5973497251   15.6581269593
   5.1605256029    8.8783317744    0.0342740971
   9.5283055469   13.9885944762    7.4331193815
  14.4309186042   12.8399115384   13.8863790865
   3.9045856713    1.4632147942   17.2739623333
   2.7062036114    1.2746519905    0.0211565506
  -0.7175978611    5.4649858267    6.5600586311
   5.2759748746    5.4630181369    1.2783283552
  -0.1153255034    3.3067640138    4.4945535082
  10.3884418492   10.7944268353    5.8856716811
   5.3242088990   16.8968470288    9.7902087342
  14.8571795569   19.6774843999    1.8418902570
  13.1976684179   11.8187974098   16.6025963388
   3.1022864450   15.7943096514   18.9721102265
  12.7404798422   15.9532250374   16.4980459854
   6.4981595120    0.3089459115    9.9157853528
   3.5224690609   14.8871219275    2.5645067530
   7.3823547103   13.0634010224    2.2689448219
  12.8926733523   19.3530737053    4.3541329560
   5.6093396678   12.9764092374   18.8706603243
  -1.3687712791   15.9343370270   10.4166380918
   4.3791440407   18.8777441780    4.5460890580
   5.4185640023    1.1588809507    3.2965094266
  13.4449592822   14.8153797194   19.1129186751
   6.1356819735    2.0614023016    6.1945421751
  14.7966264272   17.7381377806   11.6595567212
  13.1243501416   15.0055979242    9.8251112284
   3.4214046284   15.0450098810   13.1511750053
   5.5336786154   17.5351330722   14.1982150268
  10.2981271615    2.5807978774   15.2834859063
  10.0210123320    2.7348366491   17.6692837308
  -0.2509866373   17.5321625228    7.9468140357
  11.1117333231   13.2982085175   11.2163548636
  15.2057594671   13.6372396247    5.5982660388
   2.2901386384   13.2414402731   10.5700699892
  -1.3441530380   12.0886894960    8.8650125357
  17.4037344331    9.4680132957    6.2094034301
  11.6119870499    1.1655251431   16.8522419783
   3.8418488663    4.8743237541    6.5063564344
  -0.2647928749   17.7102656748    4.4005909818
  10.1039533980    6.8020368641    4.8766165653
   8.5582265793    5.5276584846   15.4452628994
  16.9603906280   13.1895343265    3.3013535059
   2.6953056035   13.5174120474    7.5031882271
   9.6644026149    6.8992442516   11.9248803545
  14.4533565337    5.9422921859    4.3065519662
   0.1047517663    6.9628855328    2.3064144110
   0.4592056663    5.6426068723   12.1704989664
   8.7510108271   14.3373005836   18.5235638630
  11.3548266604    5.7476427692    2.5035271806
  14.9821724305    8.5877486940    2.9300253292
   8.3659787819   17.1888506758   13.4000831724
  17.5100248814    4.3117912362   11.1057867350
  17.1383698919    6.3060285818   12.3289727044
  17.9820008329    4.8123338691    1.1141251776
   2.8891078470   11.6735224429   15.1504341277
  11.0772222560   19.0797862710   14.1384622835
   6.5495755207   10.1597409256    4.6819280449
   9.5870736091   18.0603736031    6.8442872425
  10.6578298296   12.0393105225    0.5870378697
   0.2508809592    9.1037069032   18.4172709019
   0.3155667219   19.2018187910   11.9919070996
   1.3527621996    1.7592105526   11.4716711760
  -1.3751000670   12.1808151724   19.2198415624
   9.4725737894   16.4575313469    3.3699972105
  -0.0505934758   12.4605088849   14.4674016901
   3.7842030771    9.3273574801    6.1101297218
