B2 C140 Ca1 F48 H298 O66 
1.0
1.8997257325832706e+01 -2.9768628093475653e-16 4.5918842422645706e-17 
-2.7584717652762842e+00 1.9772947710182780e+01 4.1076081789828509e-17 
-5.5875796953428059e-01 -1.5806511100820297e-01 1.9262097341390149e+01 
B C Ca F H O 
2 140 1 48 298 66 
Cartesian
  10.5229256382    2.0599348912   16.6049485148
  -0.9482258113    5.4230171434   11.7905114025
  18.7914358244    0.3259609302    1.0614830577
   8.1901254317   14.4874137819    7.1774518152
   5.7131218482    6.7214178136    0.7744145731
  14.4911623597   13.0322481380   12.4309501942
   4.0773258316    1.5900252594   15.9269362210
   2.5730062694   -0.1390400013   18.6811468770
   1.2085897967    2.7177360281    4.2316062643
   3.3247393748    0.0592824077   17.3233434922
  -0.3217849068    3.2224347728    5.9420694729
   4.2821187647    4.7537991809    0.6075679132
   2.6005225512   15.7582223715   17.6297412491
   1.4295430493    2.0705698361   18.3993080588
  12.6450422327   14.9687839099   15.5648390859
   4.6339589962   10.1549881865    0.1966450429
   6.3737805059   16.2648349833    9.0288965809
  14.2812304237   11.4942580961   15.8273504718
   9.4332706379   11.4551472545    6.6915746242
  10.0203668935   12.9403705804    6.6330531318
  14.1274935184   11.5179885684   14.2668088802
   4.5873752614    7.7501441125    0.6741559525
  12.2392168093   10.7487160514   16.8582152750
  11.4659867810   10.3037829043    6.6128436226
   0.2021323792    4.4056308321    6.7450900148
  -0.0602475214    6.7397920714    6.7186857938
   4.9017057819   18.1335760503    9.3343604638
   2.5939347692   16.2462330035    0.7915868950
  17.3890635163    0.7428016656    2.9965890665
   4.0578074067   18.8007431794   10.3588291492
   2.3997966859   15.1143262679    1.8155386081
  14.0174753526   16.1007592710   17.0844676144
   6.1689090276    1.1589346325   10.9919347484
   7.7249429441   12.9677960751    3.6430445464
  15.9307778884    0.6493572461    3.4120082775
   6.2025037055   13.6832348411    1.9940708863
   6.2379776676   14.1487293251    0.5915306861
  -0.9085093067   15.0342148837   11.4729726327
   3.4321649246   13.6813464634    3.3500151931
  14.2621341959   14.8562763558   18.0123752423
   5.6314527076   13.4957518357   17.5859557007
   4.6944321740   17.4684787564    4.2141401727
   4.7476358404   19.6455565925    3.3846331627
   6.8796065784    1.1624223548    3.4299361441
   5.0182222065    2.0420520468    2.3386947807
  -1.9992806793   17.1008888790   10.9330920365
   6.5144986186    0.8525872929    7.1097994995
  13.3093303862   14.2049466423    8.6194910375
  15.4876997588   17.2108309349   10.6140937073
   4.1260321004   15.3413919390   11.9669429554
  13.7352342818   18.1142530962    4.1332481982
   7.5405933528    2.3100561346   17.8752042184
   8.8516174172    4.3698057681   18.7328714729
   8.7120651652    3.3484521955   17.6279959977
   4.1828600594   15.4360748967   14.3496792907
  13.3465680565   17.9790226755   11.3670844869
  11.6637046604   15.3171810159    9.9530545798
   9.7948165007    2.3026111041   13.0106553458
  14.2186446450   15.7236801191    1.0192624488
  14.1035255083   12.7428563981    5.4288773771
  10.9925902671   14.6581356468   11.0632740921
   4.9006487769    2.6408858188    6.5436670130
   1.6053054071   12.5647837291   11.7082525007
   4.3239715897   16.9543508238   14.6702297198
   1.0482195711   18.0297750707    7.8824879897
  10.8685415560    2.2480256801   14.1394828596
  12.1858139458    3.1078152760   13.8999506279
   5.0045494470    4.0389844945    5.9860039913
   5.5108589925   18.8974925927   14.2011387055
  10.3314308858   12.6094963597   10.2800045690
  -0.6410414152   13.1501755121    8.4695305681
  17.0341768159   11.3050362031    7.8568206707
  -0.7968081024   17.1285758356    6.7220225765
  -0.9703288658   10.4311726088    7.0718661547
   6.2776466996    6.0093939913   14.6618089535
  15.2220683984   14.4538685862    4.3610588402
  -0.6987848254   18.2385321183    5.6197484060
   3.0108467354   12.5197509761    9.6409280151
  16.9083887064    9.8540336903    4.9831869939
   4.0729344627    6.2022446259    6.3238689411
  12.1497408915    1.0784883350   18.1600840711
   2.5850206368    4.6362735606   13.0661039752
  10.0411597934   19.3887781607   18.2865095330
  16.6727476036   14.4827890313    3.7443484311
   7.4739015933    6.3307016300   15.7144478056
   3.5304590342   13.5647057256    8.5794531776
   8.9873175184    7.4215734945    5.4385506789
   0.2693997835   18.6911172248    3.6145325784
   7.9540224293    7.8958917974   15.5389473541
  10.6382418991    7.2286879868    9.7797884457
   1.2206593544    6.1615070916    2.6172299519
  13.1208937527    2.2382685661   18.4962881590
   2.1465252851    4.8478538955   10.6375024328
   1.4307572419    4.5728559497   11.9884465943
  10.8680017812    4.9131201974    3.5116410248
   9.6624355339    5.6429396064    4.2287974982
   9.3185272710   15.4735246722   18.1695696615
   9.6950734972    7.8736789474   10.9220704012
  13.7521719883    8.0456846008    3.4246922218
   8.8365663971   17.8399178750   12.2295677252
  -0.6567426165   13.0540690063    3.0829009688
  14.7834735058    5.1516713823    5.4464653352
   8.3160867065    8.0162815064   10.5233252977
  14.7796346620    9.6860090443    2.0318854378
  12.4785001396    5.2845975211    1.7744955354
   2.6525869814   14.7043854852    6.7837018309
  13.8391231279    7.1837850943    4.6433071868
  17.8530905828    6.5427678689    2.7586785030
   9.0958667766   17.4349278527   14.5971494004
   9.4529489842   13.2226316385   17.9498949832
  16.2001690394    7.4866764186   14.2920815571
  17.4531275777    7.2695753086   13.3723426954
  17.1522502234    5.7096684047    1.6697998662
  15.6164195833    2.7382717220   11.2168915181
   9.2568061915   11.8989707079   18.6732592503
  16.1335026950    4.2901413373   11.0034763112
  10.6247530234   17.6758770536   14.5625000369
  15.6679395149    4.7032253112    9.5737563177
  -1.1300055586    8.5630642870   12.5490007101
  10.8201972142   18.8775276364    7.0212187572
   2.8290851222   10.1928609225   15.2287694287
  -1.4958001583   10.7358545210   18.9829279832
   0.8957015553   13.0706382582   15.1632155999
  16.8615844520   12.9532144001    0.0654671690
   4.8775070604   10.1592195657    6.5091479080
   6.1152534423    9.2313142668    3.7390875225
  10.0292909705   16.5656185163    4.7181976959
   9.2166547226   17.7192285537    5.5138588720
   1.7911164552   12.2426434215   16.0158338584
   2.7341317958    0.4779372129   12.9342196768
   1.3552490250    0.9820365375   12.7114025794
   1.1088310314   18.1518231969   12.5568190898
   0.6331582575    1.1623466869   10.3511027203
  10.1884408369   11.0049857440    1.5002610603
   2.5105794351    9.9755908022    6.3708398933
   6.1971832279    9.6905589659    6.0381139141
  12.3641889679   19.3495330903   14.6512930925
  -0.8837517826    8.1245735815   18.3946687037
  17.3433600172    4.0748713573    0.1205985234
  -1.2025393955   11.8826742006   15.0354750995
   0.4002132664   10.3253716729    0.1021222580
   9.7742831405   17.4425854965    2.4831719688
   9.7519372017    5.7455067881   13.5680548077
   7.3779968362    1.6203964082   16.7312534807
   9.9842967501    5.0187822961   18.5099553632
   9.4662004064    3.5448040511   12.6191281641
   7.8394670571    1.2841772695   18.8214751983
   9.3795370910    3.8943316334    0.7299034343
   6.4451756453    2.9732457235   18.2258214858
   7.7890830539    5.2684000168   18.4873623511
   8.7155478117    1.6175338893   13.5056275276
  12.5658031404    2.9732073896   12.6029353460
  10.2198697445    1.6144626193   11.8592425117
  13.1548344152    2.9045690836   14.7545883662
   5.1695296232    6.8680121889   14.6952369307
   6.0251688100    4.7586343122   14.7581029921
  11.8657852678    4.4631024547   14.1355348392
   6.8181993819    6.1540090817   13.3347958539
   3.5417617436    3.7422854158   12.8980756178
   9.1558833546   18.4678273066   17.9583780446
   3.0955257261    5.8648176966   13.3620873450
  11.7617537721    6.8033311939   10.3936845242
   1.3506312933    5.0477769153    9.4846918374
   8.6139875950    8.0177011711   14.2653738254
   9.0489529871    7.9895049583   16.3759827874
   2.0430711162    4.1876936651   14.2906968569
  10.9916463984    8.2260825204    8.9802432540
  11.0912779067   19.2493167345    0.2940834920
  14.2131306700    2.0146613851   17.7362683393
  11.1580187972   19.2881767311   17.4322497654
   2.9865467505    3.8021338465   10.4625721076
  10.1245684855    6.1953497858    9.0180528499
   7.5215515576    8.2672722856   11.5819371738
  13.9898454270    2.4349217350    0.5413431294
  12.6031441238    3.4756007908   18.2259422120
   7.0911677675    8.9010586914   15.6714937559
   2.9337406226    5.9162983878   10.6774395587
   7.7945695655    6.8067957544   10.0018665685
  16.3076679239    8.5937335542   15.0125560558
   8.0600739501    8.9896100275    9.6261883488
  14.3057645988    2.5749044428   11.0020815649
  14.9227942627    7.5321916965   13.5642269068
  16.2913896116    3.8106955125    8.8213407857
  16.2850384349    1.7743231266   10.6463124271
  16.0270269234    5.9567292071    9.1555597545
  16.0292709003    6.4040147737   15.1295063334
  -0.1409106196    8.2431230629   11.7243807957
  15.8131385579    2.5276102704   12.6091196813
  -0.7169002156    9.6878604892   13.2436700467
  14.3207774553    4.5554612757    9.4435642494
  16.8858159536    9.0112142402   11.6827917136
  -1.0672848194   18.9604480019   18.4701704499
  15.0613767955   12.3599330445   16.0767345674
   1.3825720624    2.9139501374    3.1704684239
   6.4622749809    7.0854718957    1.5269740698
   6.1284964418   16.2324253695    7.9397741731
   9.3414651835   11.0114539716    7.6685070464
   5.7115145128    6.5212253801   18.9456474249
   4.5576384406    2.6069903625   15.8169043573
  17.5639524770    3.1503814569    5.9727691133
   0.4999162705    0.9598450202    1.5985438869
   2.3749546576   16.8198710571   17.3058918042
  18.2778225151    0.8571439295    0.1643403755
   8.1717228934   15.5398067482    7.3263378762
   0.8153635717    1.4599547347   17.7185223482
  -2.3353909970   19.2246908948    0.7501525284
  13.5030615198   12.7514604628   11.9554612042
   1.3806937812   19.0937230083   17.2643251450
   7.8415916335   14.2199418622    6.1498955903
  13.6869842415   14.8447306661   15.1542662191
   4.9413994151   10.7794921828   19.1047477404
  15.3291345330   12.4621862949   12.0331307238
   4.1323542037    3.8473941893    1.1949476211
   3.3185471515    5.2931391694    0.5649336316
  12.8478215185    9.9211362139   17.2336341854
  12.2854159354    9.9736841140    5.9405300977
   1.3397116204    1.6075174122    4.5583501764
   0.0920209910    2.1878596767    6.2411777067
  11.0917411955   13.0428957511    6.8616923801
   3.1427116672    1.5603237121   15.2947664098
   5.7584328229   18.8233950378    9.1889333106
  12.1375657598   14.0764437325   15.9438676942
  13.1972352918   11.2387972359   13.8977584629
   1.6727127973   15.1962978116   17.5043634159
   3.3855755764   15.3096887367   17.0283817717
  12.0308542977   15.3574610582   14.7714384782
   7.3500813661   16.8349141705    9.1080162940
   2.2359220826    2.6356465437   17.8894223939
   2.8738483385   17.1809239252    1.2792410342
  -0.7431723308    7.4597270248    6.2830016722
  14.7432384396   10.5166973697   16.0389342292
   1.9559583308    3.3671957649    4.6907017360
   6.4861960156   15.2213534547    9.3623985696
   8.4678919512   11.6047346020    6.1349376750
   4.4636981473   10.5290822038    1.2240132844
   7.5011480855   13.9549899512    7.7837031280
   3.1175400700   10.2654285516   18.9951086781
   3.9358405728    4.2793305688   18.8308109630
  14.7040110372   14.1142235154   12.4174702947
   0.9144836305   19.3290936680    0.2510522995
   4.8524525891    0.7769264929   15.4316368237
   0.7556232634    2.7176646913   18.9148695393
   2.7086479910   -0.0958852751   16.4938805445
  17.9651035827    0.4185580354    3.9164995275
  17.6808044070    1.7780961015    2.9179941865
  11.6984768958   10.3794791480   15.8297309091
   4.2213232249    7.9362972146    1.7300986607
   3.8351438228    7.4256989286    0.0300413285
   0.7828063359    6.9446287351    6.0866932728
   1.2681163528    4.5661913597    6.4166560285
   1.5299620283   16.3467380493    0.3918498729
  11.7921587578   11.0364723325    7.3327776262
   4.5685559410   18.9003752115   11.2936800192
  11.2199674072    9.3968984124    7.2084422228
  11.5610775733   11.2438892338   17.5067286798
   9.8227973186   13.3282080978    5.5591681137
  14.9251096458   10.6840636496   13.9357453186
   4.4648282344   18.1005310754    8.3530765635
   7.9192078106   13.8530285330    4.2080847708
   0.1471943681    4.2062371739    7.8236213604
   0.0341110138    7.0624367604    7.7651833548
   6.2037705229   14.6065521497    2.5109356417
   7.0535017200    1.4747379059   11.5007148467
   1.9264785293   14.1976264568    1.2005664592
  13.9377402478   17.0483821936   17.6952157141
  14.8450529604   16.2958859380   16.2960957043
   5.3433929792   14.8332914203    0.5646049666
  -1.5758056380   14.7955816162   12.2719098400
   8.5155265265   12.2936893455    3.8942123408
   5.7458471975    2.1424384001   10.6977314644
   3.0826452297   18.2432035237   10.6073740964
   4.6872704939   14.2007438763   17.3713742602
  -0.5470095833   14.1326508936   11.0223948158
  15.1807921285    0.3321924061    2.7485096802
  15.4910556949    1.5373601500    3.9945967486
   5.7711932683   17.3287583319    4.1708651667
   6.2914028604    1.1033415280    8.1267493939
   4.4496894203   19.1320436898    2.4398331977
   1.6642884609   15.3003783946    2.5332445190
   7.0602101774    1.5291498725    4.4443413867
   3.9487589495    1.9128554634    2.1074309846
  -2.1034153417   17.0485691961   12.0327628689
   2.5607607771   13.7810146232    3.9730092489
   3.1331151741   12.8643787813    2.6491549847
   6.8418051860   12.5708615086    4.1699114551
  14.1393081900   13.9131931921   17.5356920009
   5.3398669518    0.8257081302   11.6148963490
  15.3259179446   14.7503653321   18.3532757256
   5.6690689087   12.6680218420   16.8793362259
  12.5230309822   14.0529889415    7.9024903085
  15.2140209517   16.0993930433   10.2818111685
   5.2953210761   13.0749075507    2.1138618578
   3.5900716665   15.0059348365   11.1124332434
   4.1506343458   17.1615257823    3.3586965907
   5.1471972410   14.9662732917   12.0636487055
  13.6750081974   13.1510662760    8.7203254152
   5.3985132618    1.9288185846    1.3096552574
  -0.0017244944   15.5562785227   11.8947985132
   7.1756900446   14.7639841885    0.4744129601
   4.3257299941   13.6834268892    4.0207757539
   7.4980070088    0.5695698247    6.8801806505
   5.8268328835    0.0003180604    6.9654645388
   6.4876888689   14.1383388517   17.4404968897
   8.6579809055    3.8013904527   16.6483581067
  12.8981965736   18.5393537512   12.2132041808
   3.7337831483   14.8407762962   15.1177342705
   5.1796827060   14.9425129033   14.3122568165
  11.0077812326   15.0204030830    9.0847275259
   4.2832261740   16.4335685153   11.8903943853
   4.3331176676   16.9795964714    5.1215959812
   5.8520760809   19.6469278754    3.2861729290
  -1.3594551241   17.9153579295   10.6402713130
  14.4984179416   17.9393416030    4.9302139219
   7.3148264598    1.7412446211    2.6161034486
  14.3984067873   18.1943451764    3.1657444741
  12.9868063178   17.3395105186    4.0973065547
   5.1454368011    3.0788255826    2.5402087915
  13.9458017134   14.8577478461    8.0033301837
  15.3469831311   17.8062389716    9.6320113808
  11.5485468661   14.9273989479   11.9742763048
   1.0025630700   19.0242283639    8.3748345486
   1.1254664564   13.4580112324   12.1251053808
  14.1518171858   12.0937436126    6.2158107251
  14.0683965612   12.2037581920    4.4486618608
  13.2774748029   18.5673121205   10.3983465499
  13.5221749344   15.3035977018    1.7428312511
  15.2390924735   15.6511355936    1.1515553615
   0.8089700814   11.8834046458   11.3052308888
  12.8217878447   17.0712742775   11.2740306198
   2.4852125802   12.0432073863   12.2896312777
  13.1746922054   13.2430194004    5.4261371070
   4.0975089436    2.0328805342    6.2817740237
  11.6846952140   16.3817401075    9.9023419960
  -1.0448557126   14.1135009629    8.8765682887
  10.0826030120   11.5364542095   10.5187568205
   4.7405074717    2.6309324644    7.6836597445
  14.0212737657   16.7720565876    0.9174825543
   4.9785903432    4.1779201186    4.8878822447
   5.9222185267    4.3998818484    6.5539999034
  16.4357240788   11.9381498253    7.2578595383
   6.3611944717   19.1169236673   13.5455563106
   1.3464495254   18.2248324342    6.7770831198
   1.9314541892   17.3300709131    8.3314320515
  10.0100786276   15.0829451858   11.1250786579
   4.2287153761   17.0704516246   15.7618757725
   3.4575417971   17.4407205346   14.2302271427
  -0.6636670903   13.3018081981    7.3947402139
  -0.4459670466   11.1197189055    6.3718898187
  11.2801366467    1.2614977998   14.3897789229
  14.6233728880   13.9505164009    3.5538945006
   5.6953789975   19.2292574359   15.2685247887
  10.7084474384   12.4299268069    9.2182411337
  16.9831116634   10.9218368027    4.8882088880
   4.5929948287   19.3911066764   13.7714488930
   0.0809944262   18.9459747793    5.8861016952
  -1.6283210990   18.7878673874    5.4355987011
   9.3136316812   12.9718225763   10.1164511316
   2.4377459233   11.7150226670    9.1246959299
   0.3637501584   12.9617207357    8.7112785015
  14.8481095221   15.3805066534    4.5453501493
   3.9030267489   12.1138293948   10.1116710376
  -0.3249623781   16.1331025529    6.2898923459
  11.3422037655    0.9515390833   18.9459351210
  16.2454224466   10.7508437493    8.4001718348
  -1.7643406076   16.7842059586    6.9985899514
  15.7807267237    9.6527137529    4.9490936843
   3.4233251578    6.7942257490    6.9890111689
   9.4336304858    8.1633493256    6.0650002471
   3.6936118629    6.6436108993    5.3718183797
  -0.1716187926   10.0398855463    7.6665953559
  -1.5932652507   14.9128412106    4.4415396525
   1.5161295666    6.1003580951    3.7012778069
  17.3556083473    9.3239652083    4.0955532736
   0.1409225231   18.3642037834    2.5776150822
   1.2868955572   18.8788955676    3.7692653302
   3.4894737564   14.6327293546    8.8441652558
   1.2137701034    5.1554009941    2.1234736098
  16.6651480498   15.1298943687    2.8664071586
   4.5484077282   13.3204649563    8.3471497634
  11.6648068895    4.6912542822    4.3796487280
   7.0579185464    6.2857052811   16.7343304350
   5.1466977109    6.5010493516    6.4743619130
   2.0805893388    6.6508765757    2.1352186811
   8.1924381402    7.7779541138    4.8390840846
  10.2055133993   15.7874102958   18.7974575147
  10.5240177434    3.9289075741    2.9863658882
   8.5261691012    6.7523578407    6.1499536309
   1.0672397504    3.5928135816   12.0119584934
   9.0843061512   18.9295515717   12.2817921438
  13.1604421834    8.9602007742    3.7352871927
   8.5247628040   16.2548255178   18.3088361696
  13.8754605349    4.5521300661    5.7129409051
  13.1814933976    7.6656829081    2.5859876668
   9.7634268513   17.2364336248   11.8471384175
  -0.2399449063   19.6845121577    3.7022720932
  15.4098159814    9.4912538577    1.1279896415
  13.3883037234    5.5592948840    2.3408656119
   8.9663883482    5.9725766578    3.4140194112
  -0.0535049474   13.2930079497    3.9869121916
  15.0082778591   10.6901166438    2.4273805200
  12.3763133908    4.2120132297    1.5602176804
   9.6106960086   15.3540382452   17.1663854850
   9.2338983444    4.8499448849    4.8645163724
   7.9971552773   17.7936449840   11.4510259348
   2.4269851113   15.5602582622    7.5416748186
  -0.4186205573   13.7784681201    2.3070947562
  10.0858724976    8.8152262971   11.3936486004
  15.1571014175    5.7384043866    6.2236141268
  -0.3600540334   12.1458151487    2.5892695310
  17.2678051305    7.3784092831    3.0419209533
   3.6211528060   14.8348021021    6.3585820529
  15.5448628099    4.3799647091    5.1907959458
   8.5971529561   18.2248375700   15.2506650290
  18.0079067108    5.9428273787    3.7380112193
  12.8481988849    7.0707085695    5.0744336388
  13.7378420441    9.8284004698    1.6816475697
   2.0129164113   14.6909361598    5.9964567913
  14.3997952254    7.7964713125    5.5061511116
  12.5074271258    5.9270244978    0.9001065893
   9.2246186733   13.0857863848   16.8500426654
  -0.7034684899    7.0119565723   14.1470411736
   9.5881450606   11.1177326895   17.9141537672
   8.8917689457   16.4736145554   15.1132209613
  10.6161923545   13.4406830184   17.9694105912
  16.3101920808    5.0408621367    2.1233045933
  11.1086888010   16.9253249522   13.8548541614
  16.7537710001    6.3600239051    0.8152823386
   8.1359449368   11.6447750257   18.9617759215
   2.8272184904    9.8947445261   16.2471825260
   0.3821953081   13.9050744904   15.8765146893
  11.0886232504   16.7126606767    4.6129413064
  13.4098257373    0.1975834153    6.9393794919
   4.8682175463   10.2408721470    7.6166512103
   6.3514581472    9.6485356100    2.7345322806
  11.1463862559   18.4829940271    8.0437048316
  17.1777659215   10.4824270546    0.2746937376
  -1.7463574205   10.3939388634   17.9157639917
  15.5131307280    4.8695162307   11.6584682660
  -1.8419647122   14.0114886882    0.2505823602
  15.7814482166   12.6666794614   18.3758230595
   0.5296003927    0.0677514525   12.7001785796
   3.4788927283    1.3342231652   12.9054544541
   0.5910832549   17.6445606386   13.4254907458
  -0.4240556175    0.8101180345   10.7032796593
  11.1009146742   17.4822286289   15.5500864359
   4.7429420697   11.1644094044    5.9959380111
  -1.7935740669   11.5182724882   14.2854585487
   9.2582982781   17.1387350014    1.5435620512
   2.3617144301   10.2525465854    7.4596596558
   2.1080239898    9.6406583471   14.5500647476
   9.3104999962   18.5698294931    4.8351986138
  17.2392762373    8.3545332823   17.7781318736
   1.5748139140   13.4982344351   14.3517252266
  10.5828991612   11.1584944970    2.4593230040
   2.3963528298   10.9653296395    5.9195911103
  15.4745928231    0.3459579285   13.9733284869
   6.7487277060    8.3054849435    3.7995686422
   2.3190933448   12.9331216730   16.6586979669
   2.1787125679   18.4096973316   12.8555711108
   1.2375618542    0.3739884929    9.8529048205
   9.9018939710   15.6028418728    5.2892361538
  -0.9782221203   10.9060951165   15.6862645107
  16.7690215075    3.1336984838    0.4210822609
   3.8531636376    9.8805854698   14.9206812948
  16.3327670212   12.7088801674    0.9923008865
  11.6759470405   18.6218753770    6.2498139848
   4.9856795749    9.1542824128    3.7032374271
  10.5334204309   10.0242268533    1.1271298310
  15.8783154784    4.4379077875   18.9306388817
   7.0322320203   10.1126048309    6.5949307337
  15.1252847159   -0.0458865626   15.7277529586
  -0.6575255323    8.0179459511    0.1898968166
   9.3383769776   18.4408037710    2.6095079216
  -0.5316974296    7.2936176885   17.9306600676
   2.9707816160    0.0621003860   13.9290022474
   1.0727268023    1.6082763460   13.5187340593
   1.1738301594   17.3651106525   11.8122427836
   0.5195465627    1.9406540956    9.5823233550
   0.3071657165    9.9118250733    1.1231459592
  17.4652945405    3.7264634351   18.5359586203
   1.2637932737   10.9755123281    0.0282408418
   1.3188935052   11.4811545706   16.5800720258
  13.1252105517   18.4593450505   14.5295320296
  10.8671331554   17.7392581861    2.3666396184
   1.7138773035    9.2430754096    6.1874279348
   8.2879320943   17.2480627566    5.4025253772
   6.2988003791    8.5676831633    6.0478345616
   9.1454343526   10.9901942201    1.5104824191
  -1.8124807551   12.6055210348   15.7075340383
   5.1745459476    8.8659229789    0.0742504866
   9.4941714896   13.9796364073    7.4667290339
  14.4159891064   12.8413134197   13.8603635362
   3.8732381413    1.4294190016   17.2823968720
   2.7211078976    1.2564576781    0.0162717058
  -0.7328943983    5.4738739737    6.6078486473
   5.2771555311    5.4379948358    1.2897507391
  -0.0981773004    3.2760752362    4.4934351272
  10.3642562828   10.7313920778    5.8607948348
   5.2984606892   16.8259042935    9.7871240604
  14.8581505585   19.6839120456    1.8380597027
  13.1886889604   11.7850542342   16.6226185707
   3.0445675308   15.7224635388   19.0273276617
  12.6689115934   15.9683071672   16.5342797782
   6.4607212764    0.2813090057    9.9545062067
   3.4922724891   14.8810299656    2.5714646276
   7.4059894084   13.0414280213    2.2964789731
  12.9227712421   19.3370208547    4.3606536053
   5.5552041581   12.9309527534   18.8866628750
  -1.4086259284   15.8914033646   10.4339508519
   4.3938003271   18.8131123536    4.5404806231
   5.4106680147    1.1384832992    3.2767483741
  13.3843016304   14.8275146344   19.1446107316
   6.1404742519    2.0171081318    6.2288263607
  14.7561150696   17.7362613477   11.6860679327
  13.0607007083   14.9291329463    9.8429075597
   3.3677130313   14.9940622465   13.1846795753
   5.4968039815   17.4795543555   14.1837929615
  10.2807821212    2.5721819538   15.3251980364
   9.9797506205    2.7191716082   17.6880082281
  -0.1673855834   17.4806843148    7.9515991162
  11.0607645191   13.2388461842   11.2037931871
  15.1646679933   13.6365327884    5.6288762013
   2.2350916669   13.1976028877   10.5734283918
  -1.3779143304   12.0701556328    8.8999817771
  17.4173957515    9.5059609860    6.2602605669
  11.5996370130    1.1105751811   16.8329143394
   3.8523220826    4.8668480667    6.4929657629
  -0.2740518018   17.6840268937    4.4070246270
  10.1454241998    6.7913885414    4.8648805035
   8.4977692059    5.4413811487   15.4516910499
  17.0149531060   13.1790578900    3.3159825727
   2.6763873016   13.5260790703    7.4728600527
   9.6466057544    6.8833159795   11.9246771143
  14.4475810601    5.9644221162    4.3153389163
   0.1015176427    6.9722399672    2.3105410547
   0.4554646577    5.6220597621   12.1835724810
   8.7017536305   14.3065571916   18.5271168722
  11.3343440779    5.7376680130    2.5183547467
  14.9390187241    8.6058893458    2.9366581741
   8.3702113304   17.1780169038   13.4064310716
  17.5525620934    4.2763742711   11.1337581574
  17.1289361439    6.2760320322   12.3557718167
  18.0322592085    4.7561536850    1.1209854940
   2.8604121287   11.5781341256   15.1755159870
  11.0516630528   19.0685381564   14.1516447313
   6.5395444848   10.1253988386    4.7131356893
   9.5916265711   18.0418152915    6.8065841478
  10.6246090705   12.0234144080    0.5825144551
   0.2230578310    9.0744265899   18.4316083780
   0.3340972903   19.1916429066   12.0179298924
   1.3240011213    1.7463236582   11.4434296705
  -1.4320014835   12.1494703471   19.2529453277
   9.4657563460   16.3637573766    3.3912297221
  -0.1176403550   12.3722613501   14.4770138729
   3.7742585059    9.3119146298    6.1054460703
