B2 C140 Ca1 F48 H298 O66 
1.0
1.8639967355703295e+01 5.2601604599455041e-16 2.6571592232416749e-16 
-2.5034242168488285e+00 1.9866391050133654e+01 1.4365764465803293e-17 
-1.1973793393884069e+00 -1.6832257426585040e-01 1.9484462369026453e+01 
B C Ca F H O 
2 140 1 48 298 66 
Cartesian
   9.9172428955    2.1062119606   16.8741532785
  -1.2384519336    5.5194403245   12.1006727386
  18.2864908741    0.0787932794    1.4087469056
   7.7833114276   14.2687840673    6.5385224170
   5.7533906951    6.6072274772    1.0621628277
  14.1463280473   13.2445006378   12.6628855506
   3.6806898411    1.4743899047   16.2410808055
   1.6593235509    0.1529130231   19.0095416135
   1.2641741772    2.5423073626    5.1103404185
   2.1833026990    0.1706681159   17.5883743329
  17.8453826031    3.2305400420    5.9564682391
   4.0952054021    5.0097862306    0.1373087360
   1.4948081535   15.4760883740   18.1151636870
   0.5405720584    2.2196975829   18.6309062369
  11.8135789641   15.1650193317   15.7007782037
   4.2217665280   10.0169427475    0.3381498085
   6.2974578471   16.6892644412    9.4332753953
  13.3682508973   11.7301466420   15.9642236522
   9.3351547040   11.5765883241    6.3632054690
   9.8795182092   12.9738085349    6.1724048350
  13.4063142307   11.8656684226   14.4531555040
   4.8675562574    7.8804978562    1.0738309583
  11.6974567056   10.7505468096   17.2369326997
  11.5163076346   10.4567252026    6.8764563160
  -0.2136542158    4.2491895445    6.9058021703
   0.0612850621    6.6418038226    6.7535529188
   4.6667590010   18.4959169163    9.4790717005
   2.4928804820   16.3104645917    0.8219916401
  16.7728017962    1.2725075607    2.9580719077
   3.7905061962   18.9753443561   10.5725899910
   2.2003764766   15.0293813977    1.6655146794
  13.3523553368   16.3084118431   17.2444215147
   5.7876582130    1.2871430239   11.4170952264
   7.6612322010   13.0906589066    3.5234376354
  15.4562838915    0.8983524888    3.5779373218
   6.5953000999   14.0154540175    1.6381125932
   6.6834546435   14.1309680989    0.1337271115
  -1.8490893318   14.9598594623   11.9696751561
   3.2308594942   13.3234443245    2.8309781294
  13.2309046472   15.3334416900   18.3775615589
   5.1209221013   12.5179012873   17.7017917179
   4.9980124375   17.4984810753    4.1372426731
   4.6386896256   19.5543795236    2.9886446911
   6.5456999902    1.0478587867    2.9375858608
   4.7350797081    2.3991503474    2.5880914917
  -2.2351778570   17.1591925537   11.1534804405
   5.9727897430    0.6020930763    6.4491651555
  12.6926072876   14.3487459040    8.4090652024
  14.8428353434   17.1637311329   10.7495847849
   3.3043725153   15.7629308490   12.2793417901
  13.3139040317   18.2236612099    3.6918257128
   6.9817128053    2.1523093429   17.9847923088
   8.1360024058    4.1353005117   19.1147380112
   8.0938789829    3.1911096181   18.0032392572
   3.8040715757   15.2165853862   14.6608125852
  12.8645586080   17.9183188338   11.9573021454
  10.9632204080   14.7912714683   10.0149219946
   9.2394084719    2.1211507725   13.3420554223
  13.7302874308   16.5306157582    0.9441612515
  13.6698726871   12.8228124306    4.7963223825
  10.2315452762   14.2098522546   11.2653724168
   4.7949916341    2.7072612968    6.6158260782
   1.3426069594   12.6838707288   11.4352678387
   4.3581344865   16.5424785646   15.1936412414
   0.9100360445   18.5325020974    8.1745136150
  10.3548959190    2.2060026961   14.4253654709
  11.4612399331    3.2635636509   14.1028624485
   4.9381147711    4.0364041088    6.0814687382
   5.2030751552   18.5452620480   14.0286874408
   9.4066434694   12.1987247056   10.0504139058
  -0.7448103665   13.6128621685    8.3861015518
  16.3726617166   11.8375020933    7.9884914925
  -0.2230400431   16.9169079238    6.8091147514
  -1.3477039991   10.8228593809    7.3710080279
   5.5906651750    6.3105171805   14.9418428506
  15.0211217212   14.6172363934    4.2436320565
  -0.8577795211   17.8621750750    5.7963187053
   2.7786681657   12.8297096809    9.5438847008
  16.4737262119   10.2210972487    5.0956790594
   3.7747361772    6.1331988541    6.0008571191
  11.5952290903    1.0799707968   18.4025186294
   1.9412689498    4.6129278214   13.1617221297
   9.6300246593   19.4987762668   18.6656189448
  -2.0354160838   14.4994269752    4.1923242655
   6.7301224025    6.5059893682   15.8856490307
   3.1348838745   13.6215413921    8.3590256178
   8.6020666655    7.6879698093    5.1255265891
   0.3908338028   18.4548246828    3.8175030736
   7.1805743399    8.0631928023   15.7478495004
  10.1910093124    7.4539367508    9.7812055139
   1.2576273974    6.8326224985    2.6346976735
  12.5581090939    2.2724506524   18.7429924577
   1.7771196761    5.0180728487   10.6012110751
   1.0368207980    4.5721607778   11.8951043430
  10.7804522598    5.2153436602    3.4373871882
   9.5058771498    5.8193047159    4.1609578165
   8.3265275966   15.2737507772   17.9129145812
   9.2496272427    7.9748189239   11.0381503102
  12.8827732225    8.2305331732    3.7721134531
   8.4153949095   18.5450356327   12.3864200957
  -0.3715436886   12.9038867961    3.9599747350
  14.4922790672    5.7349490915    5.9425323035
   7.7937050317    8.2012212524   10.5982186761
  13.9711813510    9.7707616560    2.2622021660
  12.1139127006    5.5032615509    1.5954309643
   2.3096890089   14.5354324841    6.2922237507
  13.2915192742    7.6208200339    5.1063585891
  17.3576599040    6.7786068323    2.9994083917
   8.9640990251   17.7118495056   14.5275619801
   8.7898016132   13.0232146198   18.2827549839
  15.4538404963    7.5651261576   14.3848392126
  16.7386035983    7.4945056000   13.5848753708
  16.6912389569    5.9506182495    2.0054559335
  15.1029264299    2.7418315964   11.5274020547
   8.3222773406   11.8356763213   19.0453944152
  15.3777813193    4.2748420863   11.3438057445
  10.4000261117   18.1016404798   14.6905584511
  15.2392924273    4.7682103482    9.7886094637
  -1.6180619888    8.8318257827   12.8326849371
  10.1668148987   19.3578154669    7.3425772671
   2.5372493066    9.8930007905   15.9643336193
  -2.1610802899   10.8817224372   19.0761410414
   0.6802108715   12.8273394558   15.4899618113
  16.4221862366   12.7828351339    0.2390910400
   4.7273060780   10.2811399524    6.7484629216
   5.4730171873    9.3866287916    4.2031013545
  10.0294833435   16.9640609108    5.0110680254
   8.9403281131   17.7622665719    5.7606261068
   1.3943104567   11.9044744955   16.3783998012
   2.1544707476    0.2794994144   12.8253993397
   0.7676514718    0.6008339033   12.1330099424
   0.8937162494   18.0873709520   12.6109426003
   0.7994633444    0.5905441584    9.6320705800
   9.6728892287   10.4334699004    1.2577817517
   2.3391461749    9.9427064227    6.5536429227
   6.0560875291    9.6865311505    6.4672369844
  14.4561161175   -0.0783213903   14.9446150033
  -0.9595152713    8.0374432300   18.3205142635
  17.0005873972    4.0682064027    0.6386850461
  -1.5278013937   12.0215488428   15.7239648623
  -0.7274006716   10.2036498271   19.4154307896
   9.6553605314   16.7693059197    2.6376048959
   9.0950374519    5.8510745197   13.6944973479
   6.7597514754    1.8752744517   16.7146309235
   9.1147523133    5.0757391416   18.8862897297
   9.0021889905    3.4796603621   12.9672192399
   7.2646503080    1.0388853292   18.6508349095
   9.5298170905    3.7421376593    0.8124572254
   5.7766673434    2.4221142021   18.5258359183
   6.9489917251    4.6709487125   19.1133785270
   8.1525695029    1.5859396377   13.8478906038
  11.5424124151    3.2836452196   12.7225240528
   9.5816073292    1.4806344415   12.1411257342
  12.5998949726    2.9185398861   14.7083896510
   4.5012990860    6.9619603023   15.3110222492
   5.2623008049    4.9761085583   14.9727764305
  11.0781963500    4.5414133527   14.4481292746
   5.8343286056    6.5305043487   13.6389832350
   3.0544185342    3.6983533134   13.1426549335
   8.7549177527   18.5416972534   18.1854501465
   2.4982467548    5.8497866430   13.3324366348
  11.4707922204    7.0927367383   10.1507762868
   0.8032912318    4.9659316354    9.5684487789
   7.5545555465    8.3308827316   14.4810033815
   8.1380465843    8.3937962395   16.5984598186
   1.1772425916    4.3629971942   14.2859240587
  10.1208181516    8.4494485373    8.8508676047
  10.9087201074   19.6081199333    0.5227360845
  13.7404653408    1.9285543314   18.1133582764
  10.7604269715   19.1314328647   18.0751111237
   2.7509553574    4.0920920826   10.3124729367
   9.7358443494    6.3234063412    9.2162154790
   7.0934124855    8.6881754439   11.6592219651
  14.0043081042    2.6562778536    0.5811937757
  12.1751330638    3.4323631957   18.0926449587
   6.1932412598    9.0028028497   15.9569042972
   2.3275279558    6.2259391702   10.5606169438
   7.1319151579    7.1950851816   10.1442810706
  15.3780269030    8.7173703148   15.2015822429
   7.8668722301    9.2131944819    9.7457951888
  13.8371537130    2.3589903662   11.4181350930
  14.4093142486    7.5783163414   13.5430305981
  15.7249496639    3.8466506339    8.9379080239
  15.8397537905    2.0790880315   10.4873441503
  15.7601827517    5.9792915739    9.7234554118
  15.2641039559    6.4692276749   15.1985950497
  -0.6287304396    8.5376560933   11.8419670479
  15.5465627091    2.3537370067   12.7101170900
  -1.1393296905    9.7890950960   13.5312530506
  13.9193726341    4.9640833265    9.4624046696
  15.9323770963    9.3872211426   12.1007252688
  -1.8254184916   19.3801022470   19.0500937936
  14.1878186041   12.3450839595   16.3967845213
   1.5347794530    1.8848792495    4.2984807353
   6.4821720325    6.5839080413    1.8098371388
   6.4444093531   16.6106974327    8.3484583923
   8.9172142009   11.5270097227    7.3963071559
   6.3473977375    6.5571574862    0.2078843394
   4.5671305505    2.1902414450   16.5184154025
  16.8262268660    3.4631874378    5.6229939414
   0.6143113555    0.3790128331    1.8553289949
   1.2102551292   16.1563643842   17.2955624654
  18.1406399237    0.6970987720    0.4789170181
   7.2149884771   14.3614384545    7.5200777851
  -0.2071635896    1.5734669617   18.1556093188
  16.0573494028   18.9499025653    1.0336130808
  13.5880886612   12.5814081113   11.9404715401
  -0.2795908665   18.9350483488   17.2171305402
   7.6145835245   15.2315050512    6.0586429066
  12.4098130533   14.3375178905   15.9368265602
   4.5800039958   11.0390829698    0.4117567670
  15.1771445691   13.0448699220   12.6132441549
   3.6632365472    4.0922644231    0.5735804743
   2.2077842576    5.5424808295   19.1794677942
  12.3538360579   10.5789778113   18.1195170193
  11.9813887683    9.5597268615    6.5208251527
   1.3990442410    1.9330984367    6.0869750909
  -0.6414705697    2.2137835170    6.5441379108
  10.9223667700   13.0933854753    6.6023745623
   2.8521630544    2.0110503313   15.9846880084
   5.5261289690   19.0859305304    9.2857171826
  10.8572245020   14.9073552208   15.9845032774
  12.4477120644   11.6677278501   14.0069361649
   0.6402361129   14.8001468687   18.2781833534
   2.2672807831   14.8103679798   17.6538676475
  11.8356287684   15.2736005284   14.5131165204
   6.9967906318   17.3955605214    9.8205023243
   1.1247172317    2.6410940104   17.8023673797
   2.9757914411   17.0167155322    1.5314626490
  -0.4914422255    7.6052116110    6.7580667503
  13.7759548830   10.8175091279   16.2526750585
   1.9991296182    3.2991221705    5.1738362821
   6.3948195656   15.6364530761    9.9091531948
   8.4449044478   11.5019032981    5.7381478633
   3.3724788993    9.8966032931    1.1143714726
   7.4029788626   13.3990210201    5.9967451939
   2.6005768279    9.5776499002   18.8079585735
   3.6184205768    4.5629821028   18.8365854411
  14.0268636654   14.2434457147   12.2872601214
   1.0451535750   19.7657663431    0.1944126740
   4.1872007697    0.7520249377   15.6029240170
   0.2252493799    3.0659694544   19.2349023295
   1.6079530235    0.6450229324   16.8383151085
  17.6557570137    1.5345046519    3.6922867011
  16.7463896017    2.0960241141    2.0958770371
  11.5799964276    9.8841911063   16.4567604183
   4.2082841485    7.8517783973    2.0608419181
   4.1941728109    7.6239537936    0.2183744909
   0.7804561400    6.8631277364    5.9251210168
   0.8991953720    4.2207118448    6.7450646906
   1.5185707493   16.7290321180    0.5668514210
  12.0878856799   11.4257878986    6.9557618233
   4.4956354290   19.0682334977   11.4058499006
  11.1749059405   10.2226518915    7.8859764827
  10.6896743110   10.9034671491   17.6648804987
  10.0584614625   13.3632145045    5.1370700212
  13.9466756483   11.0117835511   13.9743869694
   4.1793209596   18.3872490769    8.5704130761
   7.6161916838   14.0186041159    3.9856935597
  -0.4133349682    3.9528607304    7.9298459018
   0.6290090491    6.5176423149    7.6428411873
   6.5306365382   15.0728288401    2.0805228044
   6.8717985230    1.5978386777   11.5157693629
   1.7090137823   14.0551502113    1.1465604912
  13.4537108355   17.3592056563   17.5000291068
  14.2949159602   15.9506757553   16.7253023184
   4.8163528572   14.6458632762   19.1319646582
  15.8819848908   14.7298983308   12.3708388389
   8.5621969508   12.6401002106    3.7627830755
   5.1191743441    2.0970127694   11.3803861351
   3.1475756443   18.1398701164   10.8618675868
   4.2665910521   11.8801580123   17.3582028264
  -1.3600475273   14.0410612788   11.6656046554
  14.8159331619    0.5758763433    2.6500894443
  14.9634983901    1.7835975985    4.0417656370
   4.9929989095   17.0205849907    3.0697550560
   5.9946012515    0.3642426439    7.5352173952
   4.0624445723   18.9738654561    2.2073853286
   1.5624350447   15.3872451334    2.4387066297
   6.8640702117    1.6183405544    3.8306165603
   3.7547166133    2.2178455785    2.2357310928
  -2.2827707252   17.3582585081   12.2553132493
   2.2068434543   13.2751743937    3.2586149324
   3.1607764772   12.5280614922    2.0512645591
   6.7538881065   12.4920559219    3.8427073569
  13.1620027024   14.2777172559   17.9988857020
   5.7090850366    0.6691346374   12.3633741942
  14.2058228524   15.3072062321   18.8308322858
   6.0041251074   12.0355041816   17.2930288494
  11.8383311370   13.9361158647    7.7619979739
  14.5662624903   16.0705375177   11.0828452798
   5.5415529510   13.5275348684    1.7917790581
   2.4684572816   15.5964618607   11.5404168172
   4.2757647089   16.8696709921    4.7182173117
   4.0340455998   15.0342740750   11.8279870744
  13.6300052712   13.8712522885    8.3323061143
   5.4446916670    2.8981107834    1.8820721581
  -1.2211658798   15.2336873159   12.7639348591
   6.5281178209   14.1488646758   19.3249811982
   4.0102262319   13.1684937900    3.5611064571
   6.9120630288    0.1154583813    6.0262777034
   5.0333478130    0.2617521629    5.9447514692
   4.9759324061   13.4801988627   17.2323445710
   7.8506181061    3.7857560733   17.0613375561
  12.5962392697   18.6687262757   12.5959711977
   3.2451053463   14.7095617815   15.3808692106
   4.7024687202   14.5391544714   14.3680026553
  10.2728389773   14.5320197681    9.1597902327
   3.5380173347   16.8045287398   12.4561227163
   5.9859907066   17.4184166277    4.5902598271
   5.7579033523   19.8091917387    2.9420292604
  -1.6326323787   17.9085181056   10.5824620866
  14.0433613174   18.3728720658    2.9688754665
   7.0378070608    1.5952471276    2.0588117207
  12.3801402330   17.9069998504    3.0931534881
  13.4091069889   17.3918662829    4.5400216117
   4.6011744079    3.0030102110    3.4743466364
  12.9100877549   15.4577427959    8.0527823296
  14.7437164583   17.1954649581    9.6164432987
  10.8412019806   14.3327827129   12.1246755409
   1.3790270086   18.4949394107    9.1676922339
   1.3995045267   13.1844238181   12.3902871793
  12.9112815634   12.4897885750    5.4914474021
  14.2429728535   11.9299538230    4.5352738645
  12.0909031862   17.8682444031   11.0905440200
  12.9867789334   16.4136367889    1.6826474057
  14.6976987614   16.1830964544    1.2749562081
   0.3008063369   12.3213055576   11.2890520979
  12.9142263542   17.0085307638   12.4608208827
   2.0185651569   11.7518971337   11.5169489081
  13.0943669080   13.2368653859    3.8526519120
   4.0057707776    2.1419609001    6.1591281717
  11.0711601730   15.8932403359   10.0222579921
  -1.3594975816   14.4712022783    7.8396312571
   9.1225342127   11.1664391624   10.2905485156
   4.6590920421    2.7932936574    7.6844041398
  13.7942864665   17.6343154723    0.8007877026
   5.2472355228    3.9438601595    4.9865785402
   5.7119507651    4.5741624588    6.6528357053
  16.0316065539   12.5125231067    7.2327820728
   5.8678698175   18.6905439293   13.2042123045
   0.6468281840   19.5277374497    7.8456294307
   1.7461188197   18.2092719844    7.6632061119
   9.2358097632   14.7901880628   11.1258548454
   4.9939940277   16.4240347545   16.0484617280
   3.6201666274   17.2500818782   15.5213282260
  -0.0492227679   13.2815477788    7.6236148001
  -0.6158339376   11.4157354370    6.7847936840
  10.9324566766    1.3087335540   14.5078120283
  14.5086930493   14.5282938748    3.3166555362
   5.8029912030   18.9359544258   14.8796458025
  10.1666177510   12.3491563008    9.1532113805
  16.1374767447   11.3663352732    4.8226855320
   4.1694465903   19.0808737073   14.1303130727
  -0.6106274446   18.9322822375    5.9777328088
  -1.9494780108   17.8425838393    5.6709897776
   8.5067421469   12.8303184760    9.6298466686
   2.4286960249   11.7799632783    9.2816845693
  -0.0812327256   14.1668171873    9.1265601265
  14.8646290785   15.6028076225    4.4755466670
   3.6537407406   12.6849712024   10.2501654132
   0.8326043584   16.8725553759    6.4505518861
  10.7618058275    1.1614495337   19.1686741296
  15.4800037726   11.3317670125    8.4868064860
  -0.7117553023   15.9772874242    6.9258518975
  15.6694203853    9.6525466325    4.7270369594
   2.8918459297    6.5849144352    6.4657924793
   8.7618869314    8.7717787547    5.1401520964
   4.0140068751    6.3208523363    4.8566338700
  -0.8752040546   10.2356792294    8.1040434684
  -1.6987448256   14.7706361686    5.1998669287
   1.1459774852    6.2558614592    3.5463770906
  -1.2801671021   10.0168627886    4.5604546373
   0.7375204454   18.1600060083    2.8637539152
   1.2909564784   18.6768771239    4.4705706187
   3.2875222724   14.7109575107    8.5303097572
   1.6533955211    6.2029787795    1.7765054636
  -1.6038934521   15.1699823446    3.4859070766
   4.0944946430   13.2227733249    7.9782239769
  11.5892534130    5.3128648654    4.1818552773
   6.2508175413    6.3360822136   16.8714586311
   4.7090022266    6.4567845791    6.6027360096
   1.8619057956    7.7237470213    2.7210103117
   7.8822958681    7.5408672456    4.4350653728
   8.2818574823   16.2181495541   18.4565513424
  10.5694205455    4.2082534322    3.1382358182
   8.4270517826    7.2194716166    6.1522939492
   0.6474099661    3.6237642745   11.5685956261
   8.0816786368   19.3783371048   13.0219467215
  12.0606767272    8.9047594498    4.0231554608
   7.5254363996   14.9469723972   17.1809266379
  13.4787547695    5.2905153334    6.2625601948
  12.5728117128    7.4428080481    3.1040372961
   9.4562758419   18.8753381889   12.0738503798
  -0.2134377457   19.4177007875    3.7433498098
  14.6841285164    9.5731169067    1.3769970734
  12.9321623818    5.3395807998    2.3199982278
   8.7033308472    5.7789340493    3.3833024137
  -0.1366581597   12.8144246612    5.0438811963
  14.2861891591   10.7634284048    2.5448448550
  12.0334084621    4.4961202059    1.1232127724
   9.2024246296   15.3307621284   17.1921153885
   9.2065157281    5.1954547451    5.0052585609
   7.6866501425   18.5090071219   11.6120951469
   2.4355295085   15.4367096860    6.9264909954
   0.1628590623   13.6998666120    3.4555870388
   9.6903533221    8.8914012312   11.3678081874
  15.0505982682    6.2382916339    6.6710054429
  -0.3431463405   11.9665082242    3.3819143190
  16.7993333561    7.6919020989    3.3076097936
   3.1522123614   14.5836034836    5.5901773639
  14.9764579615    4.9171810964    5.4971533274
   8.2411526003   18.5079828599   14.9164110626
  -0.9415505438    6.3918526672    3.9664074751
  12.4126603084    7.1296815910    5.4395587772
  12.9961633381    9.8862098812    1.7697993960
   1.4680176438   14.5833173861    5.6206632729
  13.6511712107    8.2289771643    6.0265082184
  12.5030818804    6.2650929598    0.9153435805
   8.2941612428   12.7734723805   17.3407729129
  -1.0505488533    7.3888683032   14.3125231800
   8.3599650694   10.9591965764   18.3333316227
   8.8441633344   16.8132464659   15.1204360861
   9.8941673378   12.9509096731   17.9658794714
  15.6527886019    5.4984435437    2.2377898667
  11.0243566520   17.4687360268   14.0736502797
  16.3994410754    6.5917135866    1.0804701846
   7.2467430239   12.0587198670   19.3412777001
   1.8135995074    9.5354165524   16.6797088821
   0.3240078464   13.7599104614   15.9530440406
  10.9102487479   17.5181510891    4.5999880228
  12.1683300893    0.4435016667    7.5752636045
   4.4309082378   10.4203681129    7.8589459401
   6.0315168687    9.2911652548    3.1971323803
  10.5639655971   19.0781201360    8.3078883324
  16.9333444412   10.4032100133    0.0034428444
  -2.2979414672   10.9565099070   18.0150441744
  14.5784141841    4.6849417771   11.9851338525
  16.2694847571   13.6901768876    0.9111287096
  14.9106827464   12.8041599621   18.6854138691
  -2.4217117944   19.5382298977   12.1316300209
   2.6859366261    1.2845885232   12.9831057236
   0.2537834412   17.6138960502   13.3395688552
  -0.2126319328   -0.0179259972    9.5641569108
  10.6557903344   18.0045566023   15.8008805097
   4.5880246706   11.2173619915    6.2617579285
  -2.3888524831   11.9924949138   15.0417719300
   9.0665082625   16.1770528016    1.9580563381
   2.2042092631    9.9410000586    7.6223036863
   2.4499679893    9.3238438860   15.0824295544
   8.6398944519   18.5609205003    5.1280706560
  -0.5157484523    7.7086312928   17.4447261103
   1.4382964317   13.1268333653   14.6742952395
  10.4308923425    9.9387802141    1.9753062341
   2.0334190267   10.8670456585    6.0111594214
  12.7501111254   19.2960508677   14.4707474539
   4.9667827129    8.3650037140    4.4659875043
   1.9215010351   12.6133967342   17.1196607721
   1.7628948262   18.4044938643   13.1687289660
   1.6920805444    0.0021888869    9.3629696886
  10.4797100549   16.2706602114    5.7785075350
  -1.3498738290   11.1041050317   16.4063277941
  15.9334641813    3.7162426836    0.9950024189
   3.6136698756    9.7499867996   16.1996145652
  15.7229146727   12.0208466880    0.6914797430
  11.0261396871   19.5181970924    6.7107737692
   4.6163895863   10.0366641438    4.1396529916
   9.4398432295    9.6329462642    0.4297156773
  15.7272366573    4.6357469942   19.2679558408
   6.7755961490   10.3188717413    6.9994521170
  14.6104521147    1.0086494120   14.6958256362
  -1.9613294932    8.3289649175   18.0742486771
   9.2442516378   17.7709267636    2.5974586316
  -0.9737803906    7.2818553699   19.1566197939
  -0.5356400274   19.6333392320   13.8897078944
   0.3464718601    1.3405360524   12.7622428823
   1.1858785387   17.3206436279   11.9089135911
   0.6739504561    1.4019576666    8.8971874484
   0.4618177681   10.0674487148    0.9839185402
  17.6310645890    3.2957310767    0.0484116075
  -0.0107206219   11.0680114368   19.4585338696
   0.7024173124   11.2349079141   16.8611562482
  11.9972648602   19.4062149834   16.0264684520
  10.7643712471   16.9700343764    2.2550122618
   1.7263141207    9.1954117352    6.0036354807
   8.1657403618   17.0856910851    6.0065553338
   6.0654091950    8.6132841457    6.7545465903
   8.7583162118   10.5807449515    1.7868720716
  -1.6794497007   12.8875843218   16.3548519669
   5.3618647258    9.1364532758    0.6959630090
   9.1461951057   14.0875927984    6.9070803102
  13.6362941862   13.1946665036   13.9725374628
   3.4324078839    0.7802199578   17.4886224225
   1.3170829573    1.4355981499   19.4748031758
  -0.8400243918    5.5069637419    6.5646535302
   4.7674812338    5.5528136219    1.2732058395
  -0.0008076111    3.0096573895    4.8028919975
  10.4310028458   10.7458375223    5.9377696035
   5.0293141931   17.1689239024    9.8400805487
  17.1413077438    0.0809795698    2.2033916229
  12.1929337276   11.9491905913   16.5964280052
   2.1413983671   16.0316324352   19.2385192036
  12.3517931589   16.4517201521   16.1908948455
   5.6560714162    0.4029014140   10.3299829507
   3.4144024712   14.6332804100    2.3087868341
   7.7313359102   13.2117488883    2.0757118688
  13.1223488879   19.5164268786    4.4127874370
   5.1089111029   12.6384640226   19.1283535523
  -1.7354529708   15.8656591319   10.8702741956
   4.4569599847   18.8447453158    4.2442003481
   5.1699423090    1.0165600018    2.8640927300
  12.0491872017   15.5744260455   19.2713447595
   6.0607893254    2.0374719655    6.2918266805
  14.0999480839   18.2718063532   11.3575611542
  12.3306560247   14.4347196993    9.7646489231
   2.8899693620   15.1489827121   13.6060179856
   5.1086852273   17.1292161602   14.0724425762
   9.6376476082    2.5546568513   15.6255235017
   9.2862043601    2.4981579750   17.9964627919
  -0.1169329718   17.5462189012    8.1580087812
   9.9913151572   12.7883482733   11.2115881002
  14.4861311232   13.8641592846    5.2914970949
   1.8813289619   13.5021428786   10.4594120507
  -1.4896111158   12.5367331252    9.0292654196
  16.3685471183    9.9552108831    6.5117842973
  11.1348274615    1.2731663903   17.0630538671
   3.6221293426    4.7451935214    6.1892910744
  -0.3319699527   17.4549163689    4.4711033582
   9.8494891381    7.1406089974    4.4788962986
   7.7475531982    5.5791231986   15.6887935820
  -1.7560798433   13.1868444826    3.8339819660
   2.2093536105   13.5462268920    7.2497990754
   9.2070593661    7.0808385094   12.0840995398
  14.1367005425    6.4900601974    4.8389847953
  -0.0561874943    7.2914051692    2.3070013261
   0.0612771873    5.6422785565   12.2192885638
   8.5036939801   14.2703399340   18.8176365301
  10.9151368306    5.9558017505    2.1748884594
  14.0540996456    8.8373164675    3.2069435013
   8.6439652073   17.3125434189   13.1235880100
  16.6840932592    4.5078281058   11.5875052077
  16.5185332589    6.4122151875   12.7193638072
  17.6274734953    4.8471582261    1.6854111525
   2.2113537725   11.1920755766   15.5855885219
  10.6219974620   19.4746029859   14.4577039810
   6.4150907448    9.8765779949    5.1324222334
   9.2910139180   18.2832289884    7.1312589172
  10.1823129951   11.6278669494    0.7165665017
  -0.1282760686    9.2199455042   18.5974057900
   0.2217167020   19.2159057900   11.9160417427
   0.9061266624    1.3460762870   10.9241078688
  -0.9057411528   12.2329735591    0.2035525837
   9.4765408162   16.1541162220    3.9058076375
  -0.3092342195   12.2023996244   14.7588320065
   3.6596999991    9.4270818013    6.2464434936
