B2 C140 Ca1 F48 H298 O66 
1.0
1.9035413607332490e+01 1.6749800028647116e-16 -7.1530325744993772e-17 
-2.7099951114234870e+00 1.9774750641809700e+01 1.4868968191755415e-17 
-1.0432821451739496e+00 5.1883000850118079e-02 1.9161551270392700e+01 
B C Ca F H O 
2 140 1 48 298 66 
Cartesian
  10.3935210338    2.2436247230   16.6540683786
  -1.1546415505    5.6072430562   12.0075790430
  18.7205382276    0.1511133881    1.2525677901
   8.0059692570   14.3943968483    6.8618878242
   5.7441332286    6.6833074785    0.9356830151
  14.2333955257   13.3325803208   12.5779228531
   4.0026830591    1.7036772436   16.0547258359
   1.9524372745    0.2691963163   18.7228163242
   1.2165404138    2.5539409710    4.6240589248
   2.6997719972    0.2030406944   17.3690376406
  -0.6863760888    3.3708769578    5.8752313723
   4.3317275303    4.8800203985    0.4534567909
   1.7741917558   15.7718131422   17.6158911253
   0.8323578317    2.4624556491   18.4732123148
  11.9988310511   15.2371430578   15.4945034955
   4.4999109261   10.0537815006    0.1742983350
   6.3980192174   16.7305491223    9.2054084643
  14.0747717348   11.7141027740   15.7349053984
   9.4882408062   11.6119651066    6.4384878732
  10.0003006278   13.0871629450    6.2506595918
  13.8676027057   11.8294949098   14.2360082477
   4.7716521640    7.8011543965    0.6941528337
  12.1241514458   10.8411298143   16.7842340540
  11.4855900768   10.1870191765    6.6462361623
  -0.2078908584    4.4097835675    6.8042331456
   0.0869204982    6.7803412172    6.7396960030
   4.7233982183   18.3115715319    9.2615448497
   2.5147509236   16.2832863432    0.6981675751
  17.1527382564    1.0744771241    2.8815615642
   3.8389978303   18.7839432460   10.4619962468
   2.2090479927   15.2080071234    1.6463206428
  13.6398157882   16.3932979068   16.9954565920
   6.1024898571    1.4134220021   11.0655716925
   7.7139687090   12.9752096687    3.6695370098
  15.8086748414    0.8285917501    3.5733106791
   6.5111095229   13.7888742096    1.8305461472
   6.5121451211   14.1035126403    0.2728623854
  -1.5231928762   15.0624586341   11.6159782608
   3.3873280423   13.4896994811    3.0301162103
  13.6324709241   15.2418499395   17.9502459432
   5.3351078240   12.8896907124   17.3106132533
   4.7480434658   17.4169151923    4.1235160048
   4.5792533627   19.5700468212    3.1976255591
   6.7784466309    1.1853740420    3.2419380995
   4.9440309850    2.4404562517    2.4410176732
  -2.3889959035   17.2334327177   10.8132784655
   6.2949880517    0.7267649892    6.7705457908
  12.9967251998   14.1879456783    8.4989701485
  15.1741112875   17.3390047813   10.5849590436
   3.6143277299   15.8443070211   12.0159935161
  13.4805110232   18.0942196855    3.8797220151
   7.2362544677    2.3521960198   17.7698113121
   8.4626153913    4.4162423334   18.7547533563
   8.2989902805    3.3671566914   17.7237355171
   3.9537436448   15.4121231106   14.3421333378
  13.1846806095   18.0010555775   11.5161123691
  11.2300818853   15.1006023438    9.7519050315
   9.4683335010    2.4194887390   13.0242927965
  14.0154750223   16.2258118262    0.9247964268
  13.9286944955   12.8344254539    5.1959199216
  10.6433957352   14.5409469396   11.0235176774
   4.8882029380    2.7188532851    6.6801747346
   1.3153816802   12.7968740385   11.3682280152
   4.2355435822   16.9053930559   14.8057437153
   1.0054719098   18.3812901152    7.8992581650
  10.5321220935    2.4242801589   14.1279199056
  11.7990398711    3.3573125004   13.7808298788
   4.9726420485    4.0461422427    5.8489144127
   5.3930053362   18.7533694778   13.9404911068
   9.8165763159   12.6630578140    9.8171855432
  -0.5855569658   13.5169203464    8.5089658957
  16.8085473151   11.9077096035    7.8946123164
  -0.5302853542   16.9051408612    6.7149704912
  -1.3337474013   10.9436777838    7.1877982364
   5.9109254101    6.3068387985   14.6393554632
  15.4066939054   14.5754661874    4.1230649674
  -0.9321824641   17.9634487549    5.6381131651
   2.6758211309   12.8231813821    9.4227741419
  16.7949400211    9.9698040911    5.0272708919
   4.0007476426    6.2202552753    6.1249977582
  12.0302802949    1.1805345689   18.0003424853
   2.1523041459    4.7680290046   12.9429298656
   9.8061015426   19.5977311518   18.3315403776
  -2.1276771557   14.4659426618    4.0705609955
   7.1170785520    6.7022087693   15.5596345373
   3.2433970693   13.7267160028    8.2942149117
   8.9902206319    7.8215456281    5.2064038417
   0.3444727012   18.6110163842    3.6709624457
   7.5941635710    8.1089106359   15.4162559077
  10.3827057910    7.4592048191    9.7381759399
   1.2944833465    6.4636843514    2.6329137631
  13.0097481068    2.3095911498   18.3905380810
   1.8703723457    5.0391688071   10.4594773985
   1.1626147549    4.7610834029   11.8696620621
  10.8851985551    5.1024123576    3.4403192781
   9.6629627967    5.6874840845    4.1754794111
   8.7113767278   15.6702238749   17.8035704914
   9.5657786706    7.9257053703   10.9145757987
  13.2192044340    8.2687798864    3.5211387386
   8.7026750156   18.3216872194   12.2019539445
  -0.5769596453   12.8437887609    3.4653756785
  14.8233867515    5.6150568640    5.6344795185
   7.9869234904    8.2304905393   10.4123512616
  14.5139171169    9.7936171103    2.1397162945
  12.3156325453    5.3400947881    1.4796266460
   2.3673482292   14.7125181663    6.2971115809
  13.6788495525    7.4468198813    4.7199574045
  -0.9394059530    6.7084809721    2.8462707876
   9.0787871574   17.7009068052   14.4517454965
   9.1201526258   13.3058907451   17.8748820183
  15.9325014345    7.6975075823   14.1151806708
  17.2554371573    7.5954527371   13.3747514650
  17.1198425566    5.8643644348    1.8692421472
  15.5324609309    2.9154429410   11.2131986950
   8.5865885748   12.0094104844   18.4633620115
  16.0029663279    4.3512236128   11.1086412950
  10.5773147588   17.9857146286   14.2700749695
  15.5442754654    4.7809802238    9.6341261455
  -1.5795171271    8.8938303943   12.5745851493
  10.5154917512   19.0908873359    7.0097018189
   2.6055271351   10.0180478673   15.5551884346
  -1.9288441777   11.1120690031   18.6586965124
   0.5778312242   12.9701918460   15.1826770427
  16.6496428956   12.8708388047    0.1193218746
   4.6640908219   10.2970140274    6.4688386748
   5.7256826414    9.2491364962    3.9342784942
  10.1757445773   16.9214286192    4.8691330366
   9.2023557570   17.9267151032    5.4988294917
   1.5668353980   12.1389451559   15.9944360624
   2.2757962862    0.5515722162   12.7031579613
   0.9454867734    0.8340915217   12.1818176970
   0.9306444360   18.2106209230   12.5526505590
   0.6884851209    0.8182651987    9.9236604539
   9.8347184606   10.6047263023    1.2222942414
   2.3829557885    9.9025573349    6.3478097029
   6.0373704743    9.6633499588    6.2493460776
  12.2128142486   19.6962762818   14.6618364689
  -1.1564204463    8.3290536112   18.1006469797
  17.4636728927    3.9958026996    0.3293837685
  -1.5908092015   12.0230357896   15.2839277957
   0.3797318904   10.4385937895    0.0445181981
   9.7636156422   16.9623937714    2.4134157130
   9.3179805429    5.8795777172   13.7151481071
   6.9395356815    1.9284458669   16.5185905572
   9.3638465623    5.3357430988   18.5307715425
   9.1403299560    3.6644898163   12.6249124238
   7.5844572513    1.2769013574   18.3869137993
   9.6453237205    3.9080304157    0.8734659608
   6.1601307805    2.9099844913   18.2052844166
   7.2974485065    5.1995167530   18.6541511359
   8.3312084192    1.8080380833   13.3712594965
  12.1093459951    3.4858201172   12.5212450819
  10.0295526676    1.6301815089   12.0574946461
  12.8711358463    2.9656655783   14.5569749374
   4.7138855382    7.0100736561   14.8702483054
   5.5438211885    5.0311932723   14.6396468317
  11.5062794542    4.6068538595   14.2825592237
   6.1954747131    6.5441837232   13.3185653736
   3.1473435160    3.7913145247   12.9145046470
   8.9620500206   18.6101401977   17.9658306423
   2.6931105198    6.0621280214   13.2325719327
  11.6822534989    6.9882771452   10.0476891495
   0.8514214632    5.0605682209    9.5863288251
   8.2004506072    8.4019418531   14.2539417838
   8.6335316986    8.3492830006   16.2150064438
   1.5064868377    4.3357459926   14.1560466968
  10.6464594927    8.4769590551    8.8247993499
  11.0466440255   19.4784134684    0.5369342683
  14.1787880974    2.2040999083   17.8280252581
  11.0372634679   19.3867848624   17.7349895201
   2.9203944099    4.2413253417   10.1426902408
   9.8214531279    6.3863428163    9.0969829420
   7.3105328456    8.5321574337   11.5502901460
  14.2445068123    2.4943102598    0.5770675550
  12.2700175337    3.3983170579   17.9600902419
   6.5954710713    8.9317194897   15.6527370868
   2.5279891445    6.2503628311   10.3413896256
   7.3035119301    7.2183678458    9.9173194607
  15.8080414984    8.8190140161   14.8605772441
   7.7291237569    9.2941289650    9.4812696346
  14.1261776736    2.7793826873   11.1956766908
  14.8807974147    7.7104368559   13.2158955936
  16.0095869594    4.0094150193    8.5656051055
  16.0761701354    2.0439137770   10.4002489912
  16.1159695629    6.0791519189    9.4925371062
  15.7747044742    6.6362300924   14.9449213713
  -0.7100923013    8.6772151361   11.6109692443
  15.9420211460    2.3705371689   12.4536471115
  -1.1726970631   10.0064227183   13.4504928433
  14.2007213598    4.7860481729    9.3350354603
  16.3321714953    9.3062538535   11.9865938176
  -1.6721977444   19.3382568143   18.5315901748
  14.7376288070   12.6149915178   15.9057398242
   1.3738118987    2.2150134514    3.6410280520
   6.3420529563    6.9916026738    1.8304224740
   6.5840522778   16.4902367363    8.1312595307
   9.3191148363   11.3946175819    7.5147464551
   6.3847380048    6.3087836822    0.1108698124
   4.6020282906    2.7445412980   16.3660472214
  17.3130836372    3.5782188519    5.5304468395
   0.5124483320    0.6555845997    1.8284781224
   1.4337150043   16.7652600609   17.2758707550
  18.5869256680    0.5704822419    0.1997791506
   7.8046748622   15.2793231398    7.4605392892
  -0.0319881720    2.1353910182   18.0178505045
  16.3785859176   18.8917929151    1.2255872021
  13.3796161966   13.0051684540   11.9629898716
   0.2845971305   18.9301285076   17.1993113560
   7.9667286719   14.7086050069    5.8676709589
  12.7074280421   14.4548876657   15.4540920536
   3.9504437283   10.9934510933   19.0257943713
  15.1022215089   12.7175271611   12.3712037877
   4.1503122812    3.8160883266    0.7131955646
   3.3773411166    5.3106212956    0.2881013481
  12.4924983446   10.5493940202   17.8210955541
  12.0495215617    9.5762281516    6.0010095804
   1.1436591708    1.5988875994    5.3382676685
  -0.6544815772    2.4569561542    6.4822662446
  11.1313563200   13.2652103351    6.2830571316
   3.0384147332    2.0693399346   15.5775964939
   5.6828385119   19.0094737043    9.2651742049
  11.0835080999   14.9477682021   16.0500671552
  12.8907317315   11.5034303192   14.0551932477
   0.9773230833   15.0163879541   17.5259677102
   2.7079271781   15.3905754055   17.1262292814
  11.6828580877   15.6208117033   14.4199048503
   7.0212104515   17.6194528604    9.4459121138
   1.4484635298    2.9895626580   17.6967111317
   3.0326718580   17.0851413623    1.2324790505
  -0.3680497035    7.7358880239    6.3850819229
  14.4464833637   10.7167349306   16.0730617187
   2.0656116253    3.2449086458    4.8034072290
   6.7813050637   15.8350240297    9.8548201419
   8.5558739137   11.3998881852    5.9198433367
   3.9437567711   10.3093125383    1.1689162372
   7.1835568254   13.6327173081    6.8483959245
   2.6069382038    9.7122661856   18.6293495662
   3.7292706442    4.7458989642   18.5338619419
  14.4382281880   14.3475982514   12.2356470675
   0.9532955186   19.6193463337    0.3155107630
   4.5491709724    1.1219397953   15.2068419118
   1.5295184622    3.0588422861    0.2074512128
   1.9946119278    0.4954581462   16.5933803954
  17.8266574588    1.1955527643    3.7257440255
  16.9141146641    2.0420536347    2.4006395813
  12.3402328112    9.9640482394   16.1380548232
   4.2093864609    7.8745348150    1.6398384008
   3.0833752507    7.6688056962   19.0568901656
   0.9448556846    6.7129491022    6.0735730637
   0.9129582245    4.6208325220    6.6770599926
   1.6172905400   16.6227667206    0.1846872028
  12.0456825301   11.0512772482    7.1500463948
   4.5909301440   18.8099578883   11.3407281966
  11.0932995378    9.5670970961    7.4700062819
  11.0489870751   11.1099879184   16.7089232001
   9.6789598124   13.4765391401    5.2259075888
  14.7341278431   11.3290174615   13.6896908404
   4.1226188395   18.4548802654    8.4632719649
   7.8310337253   13.9323410609    4.0526816542
  -0.3828129135    4.0405727727    7.8061670104
   0.1389847181    6.8948746441    7.8102640677
   6.4950708878   14.6587278375    2.3887499967
   7.1254514002    1.6870633864   11.3347852406
   1.8270986300   14.2711902941    1.0459984100
  13.6941409126   17.3541369625   17.5735092670
  14.6279380812   16.1902094065   16.3672945500
   5.7731516017   15.0285598616    0.0548020279
  -2.4638365176   14.8124751443   12.1657402360
   8.4394845537   12.2538611840    3.9602416124
   5.5412307587    2.2123700666   10.7131157060
   3.0070334607   18.1657161111   10.7131996346
   4.2296335364   12.6294966688   17.0047331058
  -1.0277354341   14.1843008547   11.1442591288
  15.0393602587    0.5067079027    2.8224432217
  15.3508612953    1.5913564760    4.1497636147
   5.3573832613   17.2263725050    3.1911662009
   5.9190340371    0.6850909477    7.8060846460
   4.3799807458   18.9455476749    2.2905655556
   1.3551474489   15.4807145024    2.2868699140
   6.8637000791    1.3751413764    4.3344696839
   3.8500756238    2.4030979833    2.2953688492
  -2.2430383994   17.3575748735   11.9617306160
   2.3363718152   13.3206058527    3.4037511198
   3.5821243105   12.6312944053    2.3513309598
   6.7268398859   12.6257576828    4.0636799852
  13.4557252067   14.3671547322   17.2670289427
   5.4700125809    1.1890883878   11.9227638580
  14.6904481888   15.1050344866   18.2442796818
   6.0417747409   12.2085782271   16.9516211048
  12.2550444356   13.7974260745    7.7850553814
  14.7010618549   16.2949928014   10.7695375681
   5.6560280097   13.0605883421    2.0821609201
   3.0560055234   15.3243609187   11.2266953676
   3.8307222356   16.8165063367    4.0827378276
   4.6614894983   15.8635501414   11.8431251128
  13.5879363373   13.3189061732    8.6200309458
   5.3318552934    2.6807601964    1.4841037000
  -0.7535144213   15.5419255254   12.2671216024
   6.3999257042   14.6462832440   19.1429203948
   4.1175002571   13.5825375557    3.8181500179
   7.3736135872    0.4148794150    6.6867752943
   3.0273114829   19.7115954895    6.2483430453
   5.5072799803   13.8725050321   16.8718458598
   8.2088828447    4.0535351280   16.8451284121
  12.5396472421   18.7275279776   11.8796794277
   3.5432213605   14.8218789602   15.0792335380
   4.9829444241   15.0020884195   14.1350683855
  10.6631096271   14.9520999512    8.8175072402
   3.4727817421   16.8888241037   11.8896168684
   5.4582558949   17.0648862321    4.8698956883
   5.6596218409   19.7010116392    2.9071961194
  -1.7315046305   17.9448336085   10.2343519020
  14.5076579962   17.8538094479    4.1062095776
   7.3747876243    1.8415127748    2.5682359416
  13.3115166198   18.1063409193    2.7820443114
  12.8791630994   17.1903130122    4.3780117807
   5.2108740040    3.2451357536    3.0671776027
  13.4624877066   15.0312990186    7.8595035656
  14.8597385843   17.6757512032    9.5576243317
  11.2523452463   14.6504488453   11.8825613257
   0.9328597223   18.9994911464    8.8260431723
   1.3368710191   13.5338927918   12.0784466203
  13.6681362077   12.6008420743    6.1904404141
  14.3108355784   11.9555124565    4.7238016914
  12.8702170811   17.8649771026   10.3359745283
  13.1647718159   16.2011203007    1.6475554687
  14.9922417158   15.8745876527    1.3446813480
   0.2814824411   12.4433731745   11.3227274136
  12.9252934700   17.0484366932   11.9380516528
   2.0468994763   11.9503622648   11.4649397067
  13.0835278468   13.0734601762    4.5361372111
   4.0132258861    2.1191841381    6.5584165784
  11.2361670578   16.2002721435    9.8473642640
  -1.1660521509   14.3880682845    8.1718716937
   9.6584027292   11.6176933609    9.7019417292
   4.9899410995    2.9810578618    7.7317759984
  14.1633363136   17.2568341401    0.5696810341
   5.2083621552    3.7947500358    4.8298283523
   5.8895610957    4.3487393275    6.3200839929
  16.4513591027   12.6397912369    7.2040904049
   5.9527814152   19.0566663517   13.0898226569
   0.9631277209   19.1782613772    7.0397670900
   2.0404282996   17.8664945982    7.7278822700
   9.7645680838   15.1625286442   11.3726665056
   4.6854582718   16.9657061233   15.8033997824
   3.2903025957   17.4731133759   14.7325714185
   0.0449541399   13.1986628108    7.7788722466
  -0.7952661026   11.5271255906    6.4319852777
  11.0069917057    1.5026810995   14.1782329018
  14.9814392499   14.1366385413    3.1888169434
   5.8878477507   18.9354130152   14.9401635842
  10.5432012132   12.7577083635    9.0259802481
  16.7862184461   11.1205410396    4.9960893192
   4.4293194721   19.2576043615   13.7414310407
  -0.5368672300   18.8626335318    6.1187864003
  -2.0192874380   17.9079368431    5.4086115312
   8.8487939020   13.1601706160    9.6517418590
   2.3182006603   11.9474468530    8.8620681610
   0.0834202418   13.7269643164    9.3386977177
  15.1451339264   15.5998428821    4.2550711744
   3.5027197611   12.4669379175   10.1596448750
   0.3162011546   16.3135648416    6.2027805606
  11.1109995748    1.2689923279   18.6661729304
  15.8624202188   11.3451952697    8.1017031141
  -1.2206199138   15.9950062904    6.9020478569
  15.8064740154    9.5685611959    4.8687718583
   3.3228754373    6.7438223464    6.7175075136
   9.5033184446    8.7468254621    5.5642177346
   3.8958512998    6.8037965233    5.1301924029
  -0.7512978654   10.4274990693    7.8888285415
  -1.6647731159   14.7239796567    5.0613384667
   1.2148471113    6.1989140505    3.7303972190
  17.4695524489    9.5131533489    4.2962977143
   0.5163964545   18.3348241194    2.6565019461
   1.3353723742   18.7471629258    4.0856202911
   3.2431307676   14.7649246790    8.8083156795
   1.4067052838    5.4272010631    2.0331278666
  -1.7053404266   15.1931137209    3.3259317339
   4.1570779363   13.2935033223    7.9486168916
  11.7687805238    5.0228250116    4.1428527649
   6.6246521188    6.5932944142   16.4868524618
   5.0566449220    6.4543254122    6.4400267997
   2.3167139508    6.9079973047    2.6128372413
   8.2259457736    8.0925875374    4.4522724723
   8.8573567606   16.4251384521   18.5342090380
  10.6293704060    4.0322806999    3.1387070394
   8.3596234709    7.5075261301    6.1241504772
   0.8013463684    3.7810619036   11.6483729270
   8.5700282115   19.3023878909   12.5802318373
  12.6135609167    9.1077113149    3.7705639888
   7.7774085993   16.0190577025   17.2775614788
  13.9379890498    5.1066629802    6.0991775265
  12.8493563876    7.7028248298    2.6360695653
   9.9182857708   18.2413704003   11.9036265977
  -0.1497241935   19.6152187666    3.6180615369
  15.1273638053    9.5489063365    1.2369200325
  13.1968244538    5.1808202806    2.0927831323
   8.7771570390    5.6357491321    3.4720988193
  -0.0076134834   12.8122817322    4.4258879281
  14.9334990186   10.7058361923    2.6614244068
  11.8758889025    4.4980524591    0.9385139200
   9.6589520150   15.7265374119   17.2360526523
   9.3669397766    5.1132076789    5.0435855250
   8.1794881319   18.0319889932   11.3011180875
   2.2128689717   15.6332117172    6.8425926626
  -0.1082267021   13.6342941268    2.8118225840
   9.7605575773    8.9778853389   11.1216273804
  15.3367615026    6.1617009903    6.3988749548
  -0.4679806240   11.8565877929    3.0363734365
  17.4139837299    7.5812134339    3.1107823321
   3.3034677994   14.6683178082    5.7608290042
  15.4695770212    4.8809655388    5.3331281946
   8.6716728924   18.5984074583   15.0157620288
  -0.7299426353    6.0532110328    3.7647117356
  12.8040741120    6.9840474370    5.1382207141
  13.5152331593   10.0203333054    1.8279467365
   1.5660728298   14.5086927889    5.5990155937
  13.9889611977    8.1295347455    5.6049932266
  12.7048560233    6.0166055645    0.7226257777
   8.9478357450   13.2671177879   16.7866853413
  -1.0550870199    7.5416235742   14.2313184066
   8.8176790091   11.1631672766   17.7319490206
   9.0396857299   16.8214188587   15.0404503391
  10.2965205436   13.3422979960   17.9999032660
  16.3075926369    5.4615179029    2.5669069310
  10.9793399931   17.4922356721   13.3813279960
  16.7958469042    6.4691874510    1.0242398127
   7.4447150521   12.0186473083   18.5302271649
   1.9968526022    9.5917625478   16.4178387565
   0.0821372440   13.6962769933   15.9056569804
  11.2273036863   17.1893111287    4.5278317502
  12.6700141891    0.2905859888    6.9426944609
   4.6131814956   10.4981036944    7.5386333235
   6.2522920365    9.5133404872    2.9475809262
  10.9464552546   18.9385758598    7.9598119584
  16.2653416424   10.5061169205   18.9544870075
  -2.0627780066   11.3474634345   17.5719074003
  15.4132273906    5.0379593016   11.8178944278
  16.7745173635   13.6961339435    0.7658079507
  15.2826253325   13.1734288080   18.3392971900
  -2.4923107447   19.7209145502   12.0303207482
   2.7185564281    1.5414975620   12.8957681755
   0.1871791497   17.7332751900   13.2062109140
  -0.2750299784    0.2999379354    9.8829190393
  10.9576450834   17.4415262521   15.1594919040
   4.6344746615   11.3056543582    5.9112248496
  16.5943980524   11.5366668492   14.7129518010
   9.3815573600   16.2834248583    1.6738139357
   2.0191362294    9.6691918615    7.3353954306
   2.3242457369    9.5124927087   14.6506821516
   9.2490989871   18.8876221806    4.9722020088
  -1.2152260017    8.2914259360   17.0078815806
   1.2177573615   13.5493126880   14.4770553373
  10.5483758081   10.4417890061    2.0999846526
   2.1933670614   10.9865012114    6.2263718935
  12.9940933705   19.7883761485   13.8389524310
   5.8236324420    8.1059650121    3.9882443668
   2.1002245237   12.8604912163   16.6174471117
   1.8572814200   18.4987967537   13.2814193653
   1.5763107857    0.0592762577    9.9542953718
  10.1896411985   16.0461171147    5.5275912904
  -1.5161065047   11.1847229769   16.0731757027
  16.5522366131    3.3849767488    0.5497408503
   3.6319307607    9.6500346800   15.7524372289
  15.9691068082   12.1704429250    0.6424831553
  11.1875159168   19.0807607432    6.1910807391
   4.8168676249    9.7715123619    3.9097211998
   9.8958379318    9.6337087983    0.5251387576
  15.9336835047    4.7230185124   18.8114394872
   6.7993335546   10.0977252853    6.9172467215
  14.7693320219    0.9865643245   15.1422406177
  16.8707905887    8.3923545873   18.4105412223
   9.2552456510   17.9548473309    2.4378006179
  -0.6900731783    7.2808409750   18.3757822864
   2.3135943007    0.1111374918   13.7366458946
   0.5167105234    1.3981302850   13.0462434999
   1.2520739523   17.5067158329   11.8198820938
   0.8961008318    1.4288527237    9.0626603579
   0.1780119908   10.0553468802    1.0730826040
  17.1420458243    3.2688211690   19.0845597783
   0.1726153412   11.1204828182   19.1282677252
   1.0754744833   11.4879384209   16.7007600484
  12.6437347127   18.9842824811   15.4948238082
  10.8412494305   17.1620789117    2.2519329777
   1.7191922589    9.2048047635    5.7989363148
   8.2018956867   17.4374673257    5.3731850334
   5.9965361189    8.5774022892    6.4977804238
   8.8833098578   10.7082376795    1.5844470984
  -1.9245306687   12.9559813699   15.8093513474
   5.4628208819    9.0462028357    0.4918828044
   9.3177817614   13.9245246390    7.2318345647
  13.8434084752   13.2787107308   13.9414480280
   3.8397417565    1.1220614605   17.3290992272
   2.5413565299    1.4038530216    0.0465166310
  -0.8518881847    5.6631783969    6.5132915553
   5.1419277233    5.4738817887    1.4508071315
  -0.0418357721    3.2506736034    4.6561199572
  10.4347178011   10.7326507334    5.8105703852
   5.0744479505   16.9721561828    9.5674748648
  17.4687121090    0.0093954090    1.9892664801
  12.7340683830   12.0389449077   16.3351885345
   2.3876763904   15.9414000922   18.8827434903
  12.5157164145   16.4365143775   16.0800198426
   6.2173021387    0.3317037133   10.0429720666
   3.3638219360   14.8829928646    2.4131365829
   7.6174268627   13.0024130188    2.2209372091
  13.1671480700   19.4508322023    4.4867979863
   5.2286743500   12.9013001882   18.7555777879
  -1.7610987615   15.9630692760   10.4716527997
   4.4414334074   18.7501555957    4.3712895986
   5.4040683638    1.1828107927    2.8390984462
  12.6868076613   15.3287876592   19.0741653405
   6.0517852110    2.0319994065    6.1122489723
  14.6056702242   18.1368199676   11.6041191973
  12.5112355199   14.5677298356    9.6796497047
   3.0971333444   15.3428090533   13.2241528339
   5.1287313468   17.3780177537   13.8162178289
  10.0494967435    2.7841209012   15.3706611151
   9.5789028562    2.5698947247   17.6883722303
  -0.0706333590   17.4777240250    7.9715748497
  10.4664419103   13.0535507580   11.0258522758
  14.9236472296   13.8143712427    5.2877281291
   1.7281451500   13.6154405919   10.2230172991
  -1.5272125368   12.5039717345    9.0148706233
  17.0863568718    9.8584263754    6.4578961810
  11.5077430315    1.3771850467   16.6703006976
   3.8338773227    4.8236172592    6.0901200072
  -0.3814206578   17.5525796759    4.3942425450
   9.9745116063    7.0586815377    4.6173949902
   8.2470238978    5.9024710466   15.3996200320
  -1.8911101781   13.1485006053    3.6729345630
   2.2686496839   13.6247478629    7.2233899734
   9.6775346900    7.1322716590   11.9391156456
  14.4450530645    6.3356371821    4.4168175818
   0.1726948067    7.2791290077    2.2353526038
   0.1507731307    5.6641688611   12.1821239849
   8.5438026011   14.4272155284   18.4869840416
  11.2574120943    5.8935551628    2.3282873621
  14.4752315168    8.7200242017    3.0361948346
   8.3813873110   17.3747294009   13.2211481200
  17.3531011173    4.4555371781   11.3660422077
  16.9498045982    6.5254695888   12.4860607709
  17.9181835957    4.7182662797    1.4696408980
   2.5453493034   11.3731994156   15.2846017928
  10.9174359106   19.3826631383   14.3037790821
   6.5615601040    9.8498124438    4.9215914979
   9.4963610254   17.9947926160    6.8197076098
  10.2333406277   11.7536576782    0.5425115649
  -0.2513897508    9.4239818340   18.3020380862
   0.3965046669   19.3581440033   11.8674832445
   0.7597919746    1.6837909706   11.0243889589
  -1.0557883840   12.4070476624    0.0805562392
   9.5590489843   16.3321500462    3.7097301055
  -0.4891047396   12.2318634242   14.5115232259
   3.6706836832    9.4163414652    6.0422798003
