B2 C140 Ca1 F48 H298 O66 
1.0
1.8990382501041214e+01 9.4046680646830580e-17 1.3368022331734410e-17 
-2.7647391107653041e+00 1.9781369515397778e+01 1.3592195124497580e-17 
-5.1656951592719069e-01 -1.3692767052485677e-01 1.9249629576515510e+01 
B C Ca F H O 
2 140 1 48 298 66 
Cartesian
  10.5701774020    2.0331041759   16.5980136427
  -0.9172868373    5.4366755696   11.7634520366
  18.8020872700    0.3342085265    1.0552180652
   8.1992865373   14.4901809106    7.1664684228
   5.7388326456    6.7357373218    0.7776780945
  14.5270677285   13.0527159018   12.4249950643
   4.1020418352    1.6347965370   15.8943129572
  -0.1262195189   19.6442828362   18.6384337572
   1.2010734708    2.7322393294    4.2015946152
   3.3827146049    0.0792564793   17.3199353978
  -0.3135114496    3.2238520443    5.9428221793
   4.2620833698    4.7384029950    0.5995836692
   2.6105518181   15.7894658781   17.6461456040
   1.4689965859    2.0733635760   18.3768161814
  12.6989123268   14.9914059924   15.5595072034
   4.6544578937   10.1550459749    0.2165267332
   6.3600256908   16.2776907290    8.9889723770
  14.3185419551   11.5084510441   15.7901969224
   9.4009161170   11.4872598608    6.6846041635
  10.0097723401   12.9644558134    6.6344710353
  14.1610540625   11.5455919746   14.2557254159
   4.6031763877    7.7711605647    0.6796388012
  12.2663571595   10.7804056674   16.8139546552
  11.4486442368   10.3244924093    6.6193513741
   0.2157423379    4.4402724677    6.7325429324
  -0.0618474265    6.7568907744    6.7071391815
   4.9316638534   18.1436545494    9.3558359000
   2.5797536616   16.2262592104    0.7797693035
  17.3899999748    0.7330973826    3.0177610471
   4.0727969457   18.7785602840   10.3404205466
   2.3807590818   15.1043205933    1.8121513262
  14.0349736483   16.1278093386   17.0782023335
   6.1484828561    1.1561890204   10.9849446982
   7.7230400718   12.9921356671    3.6273281690
  15.9573370809    0.6231412729    3.4169218094
   6.1779014631   13.6825505624    1.9737922489
   6.2337761649   14.1855956209    0.6112132110
  -0.8798163593   15.0512015540   11.4662870377
   3.4161393733   13.7045574797    3.3636898789
  14.3015690806   14.8842760224   17.9995764343
   5.6338491802   13.5646145284   17.5767488534
   4.6966275627   17.4909760940    4.2048463069
   4.7800171272   19.6512417655    3.3782154762
   6.8817263508    1.1737793405    3.4453851927
   5.0272814250    1.9996836299    2.3314033488
  -1.9918165155   17.0908940634   10.9153787788
   6.5331226134    0.8635185731    7.1126302092
  13.3262727900   14.2357833207    8.6239520691
  15.4729264097   17.2418250556   10.5897976296
   4.1410009769   15.3462596813   11.9615790429
  13.7365339510   18.1571394338    4.1369020447
   7.5492887706    2.3458097606   17.8627490275
   8.8498153408    4.3809887284   18.7175360043
   8.7494844872    3.3532760861   17.6369508786
   4.2051076659   15.4769455009   14.3397738925
  13.3796247527   18.0032489066   11.3613861882
  11.6947249637   15.3261118078    9.9198477735
   9.8232630991    2.2959050311   12.9916473797
  14.1874195003   15.7196216239    1.0239960910
  14.1107356311   12.7714023942    5.4275416642
  11.0102571890   14.6816098483   11.0740387349
   4.9165935427    2.6296218650    6.5612924540
   1.6392460223   12.5475244434   11.7080114327
   4.3433209153   16.9914576501   14.6668363969
   1.0779570057   18.0348025917    7.8645220004
  10.8988349228    2.2584059721   14.1438666835
  12.1967050870    3.0800721102   13.8691086548
   5.0000647759    4.0803309480    5.9944785623
   5.5011788055   18.9091985258   14.2037536771
  10.3350264759   12.6079129466   10.2961310220
  -0.6539114684   13.1789399301    8.4716207930
  17.0338652264   11.2865284007    7.8719277096
  -0.7839899200   17.1496264518    6.7321651619
  -0.9638796772   10.4448395410    7.0766377559
   6.3076381644    6.0447029857   14.6504356631
  15.2279955010   14.4376420527    4.3641704018
  -0.6832052623   18.2836400831    5.6452235082
   3.0369162484   12.5263650555    9.6212497256
  16.9087416099    9.8577574414    4.9811786123
   4.0721760285    6.2332810068    6.3168207317
  12.1515348431    1.0895669994   18.1607063121
   2.6439366527    4.6539022539   13.0877758445
  10.0703944657   19.4463594355   18.2573634242
  16.6438341533   14.4896164476    3.7402895001
   7.5197900664    6.3747633678   15.6984121135
   3.5084638750   13.5631790428    8.5813007327
   8.9767370505    7.4233846719    5.4520545905
   0.2612543993   18.7192884465    3.6107427231
   8.0062549875    7.8974613987   15.5684686486
  10.6697331097    7.2562795865    9.7821686532
   1.2092253882    6.1500961695    2.6046209762
  13.1363602204    2.2047307296   18.5060066018
   2.1536642011    4.8720242623   10.6489559718
   1.4732615370    4.5980203493   11.9588903981
  10.8846609641    4.9041835796    3.4958183067
   9.6573357152    5.6199428375    4.1953141835
   9.3357151557   15.4801541555   18.1561749144
   9.7258729788    7.8828114043   10.9232540922
  13.7769593692    8.0437348374    3.4112953966
   8.8594136824   17.8540892746   12.2055462220
  -0.6759780616   13.0978289414    3.0601879393
  14.7839344523    5.1453762222    5.4400199678
   8.3037635545    8.0392734312   10.5089690301
  14.7888113599    9.6845655179    2.0335748313
  12.4739008885    5.2829585521    1.7777812035
   2.6675048251   14.7171065613    6.8235600853
  13.8566577576    7.1830932333    4.6614451775
  17.8381698250    6.5093659235    2.7792536166
   9.1009482763   17.4557091377   14.5743750253
   9.5015851481   13.2412241253   17.9221642794
  16.2407675080    7.5062391060   14.2964074050
  17.4810085355    7.2609538095   13.3662644772
  17.1252423097    5.7139362199    1.6706864855
  15.6238024447    2.7507041967   11.2236595529
   9.2782248707   11.9318121301   18.6842155435
  16.1263575963    4.3081035048   10.9891541807
  10.6249032352   17.7151066242   14.5793114106
  15.6891442333    4.7234864459    9.5632603659
  -1.0927700430    8.5586482264   12.5510969209
  10.8401942062   18.8882622560    7.0121638972
   2.8671349223   10.1978717482   15.2166435709
  -1.4614130529   10.7961839968   18.9709807107
   0.9231065827   13.1316719104   15.1681172504
  16.8737474357   12.9275517625    0.0905041281
   4.8969145311   10.1495199978    6.5016820153
   6.1362336129    9.2377508487    3.7379291052
  10.0256375584   16.5630462860    4.6972683790
   9.2299962686   17.7076655187    5.4894592808
   1.8140372948   12.2599141046   15.9892440295
   2.7736605327    0.4806112185   12.9374635089
   1.3623737427    1.0130461460   12.6801025657
   1.1699058570   18.1572643702   12.5509442357
   0.6333901575    1.1876331320   10.3769319638
  10.2215952859   11.0129518518    1.5145050436
   2.5100588095    9.9999668343    6.3780937032
   6.1916158428    9.7307999262    6.0118863673
  12.3928761725   19.3741985156   14.6184192889
  -0.8228484365    8.1146251926   18.3801253322
  17.3431477401    4.0939008926    0.0999075169
  -1.1717674786   11.9037551826   15.0491954034
   0.4008820113   10.3043301823    0.1128862984
   9.7784077558   17.4765415221    2.4799178806
   9.7632298650    5.7609966448   13.5632757630
   7.4357168248    1.6442480705   16.7342593638
  10.0217212619    5.0394784364   18.4954990251
   9.4659299817    3.5545781959   12.6406765833
   7.8803614582    1.3247145239   18.8015310838
   9.3644041367    3.8867003320    0.7252155597
   6.4580694114    3.0006788594   18.2091069699
   7.8255176966    5.3021290863   18.4677128319
   8.7563501448    1.6443016743   13.4759007476
  12.5786637026    2.9842191901   12.6079874031
  10.2455017071    1.6276412665   11.8385280930
  13.1877853784    2.9188994739   14.7472465321
   5.1981844446    6.8795904842   14.6698885892
   6.0234708174    4.7589122365   14.7526396035
  11.9089659207    4.4806447177   14.1096915255
   6.8518740890    6.1621104721   13.3151853366
   3.5798729018    3.7560383387   12.8895916866
   9.1702401156   18.5083299193   17.9456868983
   3.1085110719    5.8859377909   13.3476385365
  11.7858529378    6.7993407042   10.3937249864
   1.3687117763    5.0397007048    9.4882148692
   8.6405377720    8.0319951758   14.2486115310
   9.0775718937    7.9976515735   16.3719085267
   2.0729893937    4.2123425185   14.2686252820
  11.0190301636    8.2529494243    8.9568174985
  11.0788075149   19.2609982834    0.2624954491
  14.2360069325    2.0320700501   17.7177532838
  11.1759108754   19.3236676020   17.3898023204
   3.0168028718    3.8057253789   10.4469698967
  10.1654345111    6.1979687716    9.0170310320
   7.5358883644    8.2832969043   11.5673635761
  13.9915465028    2.4640483729    0.5251256105
  12.6147884260    3.4918569090   18.2159758957
   7.1118637779    8.8964393544   15.6541228841
   2.9651760522    5.8987041104   10.6862193279
   7.7897983836    6.8173398457    9.9949953941
  16.3556444985    8.6143649237   15.0065118217
   8.0629695022    9.0196231097    9.5873255733
  14.3469233775    2.5756961145   10.9863815367
  14.9353796618    7.5457899279   13.5668006508
  16.2907336575    3.7959661253    8.8212170313
  16.3066268943    1.7879862166   10.6619245154
  16.0267051491    5.9858856637    9.1549744945
  16.0398493949    6.4189112478   15.1053978919
  -0.0911768106    8.2275217297   11.7196199000
  15.8021241378    2.5521053068   12.6218393829
  -0.7075538509    9.7143893558   13.2276788350
  14.3734315721    4.5749629452    9.4167439155
  16.9338004945    9.0310052844   11.6642761253
  -1.0175851825   19.0279011911   18.4895027524
  15.0431133646   12.3438847100   16.0166711174
   1.3939667336    2.9762024317    3.1159655521
   6.3956676746    7.1036222258    1.5562934010
   6.1153505744   16.2209482291    7.9298175814
   9.2991270146   10.9772821491    7.6433667274
   5.6268475742    6.4317562250   18.9067349177
   4.5224864364    2.5259170690   15.8340344844
  17.5748641207    3.1634902072    5.9544524314
   0.4855925558    0.9881773904    1.5663057114
   2.4835615608   16.8269814212   17.3460607978
  18.3367774969    0.8777598137    0.2231706252
   8.1894355330   15.5533588990    7.3742239371
   0.8144898940    1.4743574961   17.7137844562
  -2.3684561187   19.2299904123    0.7630654355
  13.5963023226   12.7099120037   11.9676036423
   1.4145053706   19.0846906199   17.2862138507
   7.8666053585   14.2272490868    6.1256638215
  13.7060117403   14.8924006427   15.1578139167
   4.9427973091   10.8101323026   19.0971511773
  15.3182850659   12.4103237305   12.0276386550
   4.0411449928    3.8215875808    1.1979384210
   3.3069426725    5.2863895456    0.5071729369
  12.8572335626    9.9467886156   17.1743262331
  12.3412851809   10.0342907608    5.9798766577
   1.3481133598    1.6866641227    4.4953675126
   0.0808596838    2.1946318530    6.2217002837
  11.1169786931   13.0631892748    6.8800784431
   3.1329256338    1.5583067515   15.3174403920
   5.6894342318   18.7992816698    9.1047382040
  12.1401918869   13.9981180927   15.8600425021
  13.1244490556   11.3440373474   13.9285193471
   1.6897123198   15.2002823509   17.4556813613
   3.4155533910   15.3141006370   17.0303824873
  12.0593559453   15.3537153427   14.7903110867
   7.3367484044   16.8000679617    9.1050119929
   2.1840221249    2.6124892981   17.9205444494
   2.9202939692   17.1803515591    1.2658155769
  -0.7686942910    7.4920229776    6.3053004509
  14.7430782897   10.4920767545   16.0258489000
   1.9817833769    3.4196802044    4.7409529223
   6.5079639288   15.2602420636    9.3425924167
   8.4389550970   11.5535503904    6.1701728272
   4.4660694431   10.4500609631    1.2282405859
   7.4535580729   13.9705408962    7.8089268120
   3.1551143953   10.2733164201   18.9882476678
   3.9562955336    4.2857757472   18.8575644432
  14.6905358807   14.1116220545   12.4064623299
   0.9580900338   19.3133212194    0.2885496754
   4.8176543467    0.8001781077   15.4039057844
   0.7725815821    2.6075837338   18.9303666570
   2.6862885942   -0.0820857267   16.4678684019
  17.9650479852    0.4258871283    3.9063444938
  17.6427355515    1.7962092284    2.9449118930
  11.6572660054   10.4631101925   15.8224177883
   4.1693290935    7.9645630283    1.7346723962
   3.8126950272    7.4020628709    0.0181649298
   0.8319634612    6.9612721001    6.0733947995
   1.1864002929    4.5680166874    6.4209491142
   1.5116530183   16.3228307945    0.3523796136
  11.7968305318   11.0765107759    7.3290120227
   4.5723819220   18.9312474904   11.2487374121
  11.2185737059    9.3976159256    7.2174495179
  11.6880649919   11.2663193820   17.5603345541
   9.8768879637   13.2703518097    5.6032743392
  14.9346337772   10.6998596578   13.9533466034
   4.4594943646   18.1387218166    8.3416943079
   7.9325000202   13.8459510085    4.2017292242
   0.2327461227    4.1897243887    7.8074115087
   0.0961510384    7.0444767976    7.7234137824
   6.2190435484   14.6679787951    2.5490443483
   7.0379994327    1.4539603919   11.5159177566
   1.9150857924   14.2328607377    1.2066099029
  13.9743800297   17.0808892489   17.6579570973
  14.8436002661   16.3198472564   16.3108936773
   5.3454630547   14.7750417991    0.6289323415
  -1.5040370748   14.8373930515   12.2554059749
   8.4911696746   12.3036722635    3.9178397693
   5.7502865252    2.1302345987   10.6738092390
   3.1056622564   18.2491400955   10.6309846507
   4.8168689859   14.2299750065   17.4346397202
  -0.5310193867   14.1512122787   10.9737644168
  15.1931262881    0.3311038341    2.6868341575
  15.5125073069    1.5614759217    4.0305476520
   5.7744847463   17.3001900622    4.2016619689
   6.3436095001    1.1510856163    8.1364656026
   4.4115632725   19.1309502959    2.4163517162
   1.6001175718   15.2766381402    2.6139447213
   7.1250368391    1.5394671046    4.4189971983
   3.9800993791    1.9133421820    2.1072624720
  -2.0446824859   17.1103295276   12.0361304975
   2.6094783389   13.8035246325    4.0540008049
   3.1282103542   12.8679676632    2.6876872452
   6.8990128765   12.5678671877    4.1234879934
  14.1071727725   13.9960353975   17.5032247390
   5.4068458601    0.8522751450   11.6607996291
  15.3603087604   14.8584843042   18.3777393392
   5.6317161085   12.7397705679   16.8625414898
  12.4790254334   14.1104924856    7.9390100076
  15.1270722793   16.1521124628   10.3039615918
   5.3379523273   13.0418985504    2.1608173067
   3.5828864401   14.9818020627   11.1257142303
   4.1788611346   17.1791721630    3.2916684494
   5.1833327443   14.9268901301   12.0570643906
  13.6899703403   13.1464075619    8.7906864269
   5.4458092115    1.8944626591    1.3175616900
  -0.0321861079   15.5946337067   11.8911323993
   7.1452808535   14.7708525200    0.4878882736
   4.3437275885   13.6726259761    3.9897264606
   7.5051641215    0.5044704310    6.9119648798
   5.7717693759   -0.0162949512    6.9904939640
   6.5804393241   14.1352297689   17.4324228837
   8.6299977049    3.8297543605   16.6323767552
  12.8898314837   18.6094628773   12.2664065637
   3.7076742426   14.7812856277   15.1395317761
   5.1743092946   14.9959525176   14.3450746182
  11.0444383070   15.0083487016    9.0476584796
   4.3517014688   16.4720852182   11.9274631443
   4.2885630602   16.9549338624    5.1308851095
   5.8649787614   19.6703349121    3.2395118713
  -1.3906053298   17.9557445329   10.6611478693
  14.5287057119   17.9575880132    4.9783571871
   7.3143963298    1.7465690839    2.5689268206
  14.3576355710   18.1591160896    3.1905626503
  13.0331858693   17.2977441464    4.0967885605
   5.1483184710    3.0665868206    2.5241206262
  14.0449770078   14.8831579245    8.0308460229
  15.4227373143   17.8791610064    9.6189091700
  11.6078622046   14.9455912814   11.9330273458
   0.9967157410   19.0352379044    8.3876077879
   1.1069221594   13.4681812743   12.1348926278
  14.1485108841   12.0097589683    6.2869903116
  14.1308035142   12.2497756211    4.4315273371
  13.2523960043   18.6286902091   10.4563719367
  13.6251284178   15.2976243274    1.7766819250
  15.3282158371   15.6165579704    1.2165392284
   0.8277379227   11.8272778303   11.3530147049
  12.8482015625   17.0971530569   11.2561774461
   2.4877302175   12.1341346740   12.3047924169
  13.1918794868   13.2811318893    5.4655024476
   4.0885255486    2.0366009376    6.2055858754
  11.6966129123   16.4306834640    9.9327274603
  -1.0483296130   14.1041125728    8.8951921386
  10.1014847487   11.5566225207   10.5556309942
   4.6743382603    2.6447456179    7.6693982827
  14.0247206463   16.8318702378    0.9468006386
   5.0042333511    4.1121433741    4.8831385621
   5.9367100247    4.3646430430    6.5546713968
  16.4589071610   11.9509508149    7.2644449049
   6.3405376491   19.1568678151   13.5361733895
   1.3246884543   18.1921552476    6.8396647047
   1.7998053781   17.2850276131    8.2872170607
  10.0027482347   15.1165884811   11.1482638594
   4.2197213060   17.0734476248   15.7429682987
   3.4989857872   17.4925834336   14.1496412122
  -0.6742598818   13.3210475822    7.3701011645
  -0.4383722452   11.1232762504    6.3687058570
  11.3477992830    1.2489535643   14.4241103343
  14.6665380869   13.9333927401    3.6125843840
   5.6485715064   19.3143511914   15.2916173111
  10.7606475922   12.4779164288    9.2639864251
  16.9860709593   10.9151439596    4.9367844422
   4.6312658267   19.4938170826   13.7315433704
   0.0822237439   19.0323829639    5.9419743565
  -1.6089233164   18.7970122605    5.4283579779
   9.2941823949   12.9293458585   10.1610239406
   2.4608063393   11.6824075525    9.1077768600
   0.4402125495   12.9786716439    8.6799668579
  14.8469409502   15.4473385387    4.6652340511
   3.9402314212   12.1299613846   10.1195644050
  -0.3914005589   16.2311887191    6.3136245855
  11.4022035983    0.9389819025   18.8769106331
  16.2854335762   10.6753519031    8.3398654983
  -1.7586487165   16.8227378761    6.9354439204
  15.8056920024    9.6218646822    4.9135359766
   3.4025502338    6.8964448832    7.0357803903
   9.4921718715    8.1003867043    6.0620498835
   3.6856172227    6.5879279958    5.3916667156
  -0.1621294619    9.9952896268    7.6879335756
  -1.5241210985   14.9565645993    4.3749194780
   1.4547606105    6.1335147168    3.6925985733
  17.3248997404    9.3498455101    4.0782227512
   0.0746305107   18.3526205774    2.5055937036
   1.3376646638   18.9482644316    3.7836421165
   3.5696333262   14.5452733630    8.8427454988
   1.2237759091    5.1863891557    2.1382192010
  16.6042703211   15.1767444576    2.8474901858
   4.5779629375   13.2997543912    8.3438354582
  11.6459130741    4.6994152667    4.4135763233
   7.1326472920    6.3076411943   16.7237046344
   5.1720540127    6.5091744754    6.5124119932
   2.0786427597    6.6877798073    2.1792724550
   8.1840975493    7.7579090146    4.8311815848
  10.2727349633   15.7841008951   18.8235286813
  10.5314339591    3.9904707661    2.9895410408
   8.5193806059    6.7813725466    6.1498497308
   1.0726335091    3.6141303753   12.0640981146
   9.1106567547   18.9911442301   12.2508883263
  13.0614232090    8.9432151858    3.7467061238
   8.6093201611   16.2754600188   18.3610833568
  13.9115965669    4.6338024262    5.6812949062
  13.1382995776    7.7259263446    2.5527429223
   9.6591100056   17.2700042083   11.7660156122
  -0.2315026571   19.7041722266    3.7139373177
  15.4369391669    9.5137683350    1.0905131634
  13.3852445506    5.5233908934    2.3956855430
   8.9859536181    5.9810927705    3.4231349502
  -0.0630852547   13.3115801249    3.9502214380
  14.9819892736   10.6987895715    2.4346229457
  12.4170134497    4.2415110492    1.5836051782
   9.6236715608   15.4277562963   17.1516398677
   9.2759699689    4.8265863112    4.8811470262
   7.9938966258   17.8139881100   11.4218617898
   2.3881883317   15.5715866222    7.5306455606
  -0.3823150945   13.7980778937    2.3238509781
  10.0908335484    8.8339865331   11.3075855205
  15.1761815164    5.7158322478    6.2350544228
  -0.3318970824   12.1472259847    2.5713703492
  17.3099473940    7.4328197350    3.0102292688
   3.6930350651   14.9172647586    6.3601346383
  15.5395970519    4.3765426328    5.1890971374
   8.5712065322   18.1881473362   15.2690102764
  -0.9147302714    5.9483097962    3.6841369100
  12.7978705279    6.9944770377    5.1077139690
  13.7302785517    9.8118154696    1.6611010880
   1.9880756856   14.7473652838    5.9417999766
  14.3838694526    7.7812771444    5.4364695065
  12.4841054884    5.9208537618    0.8102680789
   9.2135646935   13.1114486116   16.8284241236
  -0.6925894729    7.0917142647   14.1302392774
   9.6044855706   11.1619343091   17.9037826617
   8.8326161479   16.4653014842   15.0849813666
  10.5960132814   13.5980378712   17.9630851642
  16.4151970693    5.0571827704    2.0737949436
  11.1583624288   16.9974668052   13.8934644890
  16.7575409248    6.3590467434    0.8235937314
   8.1807681963   11.7487432246   18.9412035725
   2.8581400999    9.8668456426   16.2136224961
   0.4774446424   13.9449305712   15.8191358160
  11.0842036412   16.7596619846    4.6016956041
  13.4004260306    0.1990120140    6.9485971902
   4.8627550843   10.2398338269    7.6152967692
   6.2934017421    9.6450747451    2.7624257116
  11.1218059273   18.4744102328    8.0087992637
  17.1542269460   10.4216474777    0.2393170042
  -1.6934432744   10.4870747723   17.9731942901
  15.4974917117    4.8414864227   11.7035826666
  -1.7689108863   14.0196131519    0.2427593133
  15.7994900118   12.6714160838   18.3374236329
   0.6142027459    0.1420282372   12.6676747286
   3.4710305769    1.4643965878   12.9389862481
   0.6304689109   17.6645297772   13.4300188296
  -0.3846692289    0.7992440407   10.6751657736
  11.1098650490   17.5661697418   15.5355997812
   4.7423318305   11.1192303154    6.0000973060
  -1.7670132935   11.5442467648   14.2360184751
   9.2808060280   17.1621164183    1.5543875450
   2.3623305182   10.2961238533    7.4351238369
   2.0559672029    9.7522993212   14.5827916517
   9.2552514058   18.5955781686    4.8640694075
  17.2830876784    8.4221818690   17.7949678817
   1.5969691370   13.5660359547   14.3331605648
  10.5517012048   11.1434976654    2.5200056328
   2.4219628563   10.9954544198    5.8856393046
  15.4785677676    0.4008238688   13.9704626728
   6.7340606631    8.3044864918    3.7914804198
   2.3570093345   13.0211612519   16.6628115186
   2.1474643183   18.4132538560   12.8576055309
   1.1986244728    0.4544676988    9.9005476864
   9.8751953351   15.6445990291    5.3288253718
  -0.9250834756   11.0088349030   15.6433881902
  16.7750324331    3.0808615754    0.4183672592
   3.8513278258    9.9799905277   14.8289559425
  16.2696912079   12.7638326138    0.9687844782
  11.6391820404   18.6523289746    6.2564480469
   5.0026313846    9.1506834748    3.6697249067
  10.5553421358   10.0782274171    1.1739102325
  15.9472254519    4.4744442644   19.0463349061
   7.0326604129   10.1274883724    6.5918713947
  15.1274481983   -0.0948582204   15.6797776762
  -0.5867350357    7.9476849563    0.2007303621
   9.2661062094   18.4181342620    2.6451442642
  -0.4878253449    7.2861617498   17.8443851685
   2.9118162395    0.1189377601   13.9385033866
   1.1915661845    1.6738917565   13.5994837110
   1.2222020806   17.3617846835   11.7279238225
   0.4955532461    1.9605982854    9.6040229999
   0.2884920339    9.9492979369    1.1048790360
  17.4799486799    3.7479154109   18.5049756460
   0.7375265473   10.8924284597   19.2467477380
   1.3407956264   11.4471252663   16.5696635311
  13.1055652076   18.4540618254   14.5032101194
  10.8540349065   17.7579270210    2.3124878505
   1.7472682629    9.2645806186    6.2308761962
   8.2706926260   17.3270105045    5.3485750811
   6.2755119879    8.6173682017    6.0610687385
   9.0779663427   11.0016418773    1.5738496782
  -1.7199212446   12.5986769780   15.6730127164
   5.1602676037    8.8707169681    0.0487681970
   9.5149444145   13.9842814151    7.4463614829
  14.4283761973   12.8388169733   13.8783264752
   3.9024734988    1.4559260354   17.2776304569
   2.7139125439    1.2664954093    0.0185731962
  -0.7229673266    5.4663809194    6.5815901116
   5.2743506738    5.4526264110    1.2827793304
  -0.1059059751    3.2952691087    4.4934908006
  10.3830783078   10.7691792918    5.8773838021
   5.3150461673   16.8718734037    9.7908346234
  14.8544185280   19.6794867249    1.8387888376
  13.1972019133   11.8051029001   16.6114826819
   3.0901744130   15.7674905268   18.9911132103
  12.7170463877   15.9583031588   16.5090445013
   6.4914042874    0.2967602503    9.9325372366
   3.5050398682   14.8869422551    2.5650244047
   7.3861974952   13.0552893275    2.2809228767
  12.9000987516   19.3496153431    4.3564884027
   5.5953787472   12.9541926164   18.8767971713
  -1.3799511429   15.9180551730   10.4245335000
   4.3814082934   18.8517206006    4.5469179140
   5.4139787802    1.1529749942    3.2851532793
  13.4315270353   14.8225861946   19.1282236342
   6.1382239869    2.0487685244    6.2062957474
  14.7863730440   17.7359596665   11.6646884048
  13.1036654103   14.9785882018    9.8337483108
   3.4024090354   15.0246654845   13.1637926644
   5.5227925315   17.5143030431   14.1935811101
  10.3020759503    2.5777038295   15.2962628596
  10.0126575108    2.7346947812   17.6780628431
  -0.2164712383   17.5122552431    7.9477955005
  11.0928191384   13.2749871283   11.2099239681
  15.1891094716   13.6350558606    5.6141518999
   2.2740644855   13.2244301941   10.5693950368
  -1.3555934787   12.0848801352    8.8768749439
  17.4107429298    9.4862300629    6.2271128873
  11.6183026072    1.1449561571   16.8436889837
   3.8447870192    4.8751734628    6.5012652130
  -0.2697120576   17.6995153062    4.4023033124
  10.1215617223    6.7986577354    4.8723190512
   8.5408309790    5.4969453724   15.4477031923
  16.9852749282   13.1850786810    3.3072459060
   2.6934096538   13.5253198321    7.4938789231
   9.6592117428    6.8931565971   11.9290163064
  14.4498536104    5.9512006618    4.3083022221
   0.1030527247    6.9651904007    2.3075892842
   0.4657335079    5.6390172044   12.1785201189
   8.7413871523   14.3334640951   18.5230298145
  11.3448964117    5.7438434341    2.5117155048
  14.9641160895    8.5972488010    2.9325322107
   8.3704548264   17.1808424226   13.4070655396
  17.5309404778    4.2962895629   11.1147664371
  17.1409868226    6.2925181028   12.3383614338
  17.9987511111    4.7940840474    1.1177247256
   2.8856704700   11.6358610280   15.1585632728
  11.0711010268   19.0754304852   14.1430852536
   6.5451017583   10.1442261054    4.6963416165
   9.5878715747   18.0547052908    6.8286226758
  10.6436240649   12.0332556694    0.5833722235
   0.2512749499    9.0940522101   18.4207785457
   0.3239243542   19.1966053980   11.9999488610
   1.3470054462    1.7548792608   11.4608955639
  -1.3879374225   12.1711433367   19.2319688894
   9.4672082098   16.4175113279    3.3761248744
  -0.0757811723   12.4237048065   14.4750711870
   3.7846620462    9.3193005391    6.1065003897
