B2 C140 Ca1 F48 H298 O66 
1.0
1.8984294108796803e+01 1.3749394208674752e-16 -8.0590712643198815e-17 
-2.6655801399375170e+00 1.9765504879775737e+01 6.1929288727922256e-18 
-6.9305957154296549e-01 -2.0017752139612094e-01 1.9316748783114075e+01 
B C Ca F H O 
2 140 1 48 298 66 
Cartesian
  10.4626778787    2.1103920931   16.6635781415
  -0.9382395379    5.3854972654   11.9205250493
  18.7175021635    0.3226897419    1.0696283592
   8.2059198917   14.4427269878    7.1954892211
   5.6997770764    6.6833092487    0.7674328709
  14.3906834309   13.0215893860   12.4632185215
   4.0596036233    1.5703505357   15.9726004453
   2.3468913866   -0.1206457092   18.7712815488
   1.2052751354    2.6670655234    4.3089244670
   3.1813332932    0.0441696328   17.4248782347
  -0.3516661630    3.1965877378    5.9452858341
   4.3065473825    4.7941487739    0.6012211149
   2.5599423805   15.7463163137   17.6551258800
   1.3468901934    2.0538602225   18.4795130536
  12.5393788216   14.9627551993   15.5573398916
   4.6533998392   10.2283077737    0.1889843034
   6.4484626368   16.2638760485    9.1128327594
  14.2355804912   11.5061053684   15.8807443104
   9.5536848789   11.4501599153    6.6724671646
  10.0201614466   12.9275925322    6.6049848837
  14.0949550268   11.4832160241   14.3425738341
   4.5925264632    7.7054018670    0.6734128168
  12.1878638156   10.6759879429   16.9437401641
  11.5087250556   10.2328815536    6.6223218979
   0.1841160665    4.3287282125    6.7752278334
  -0.0886180000    6.7567488967    6.7621840297
   4.9285110704   18.1169753199    9.3048907750
   2.6780516543   16.2587694078    0.8081716389
  17.3464150595    0.7666008509    3.0070164214
   4.0417884878   18.7971380493   10.4592862027
   2.4598074832   15.1396096891    1.7704174256
  13.9509698905   16.0575769363   17.1496574871
   6.1411550215    1.1940883669   11.0383080401
   7.7099855211   12.8975283761    3.7332447380
  15.8273719305    0.6718618125    3.4594471942
   6.2927943917   13.6708358413    1.9962813474
   6.2896483153   14.1397467351    0.5429620489
  -0.9196979987   15.0323396640   11.5069613575
   3.4604187066   13.6729078921    3.3091061986
  14.1837061244   14.8303077297   18.0731460409
   5.5741694320   13.3514472727   17.6063125495
   4.7506116524   17.4199713954    4.2712379996
   4.7486426882   19.5631039249    3.3988632987
   6.8346223684    1.1761731477    3.4499998175
   4.9497178739    2.1580919880    2.2994760058
  -1.9832113307   17.1252422310   10.9932960845
   6.4131185538    0.8742254048    7.0878045927
  13.2847800993   14.1498952925    8.5874322810
  15.5550379732   17.1206196993   10.6107927682
   4.0869475475   15.3526159337   12.0305094758
  13.7901004311   18.0796804806    4.0917737762
   7.5434661881    2.2288236840   17.9300122673
   8.7510617459    4.3395724448   18.7806898547
   8.6051474519    3.2972196957   17.6717715369
   4.1747386748   15.3466793113   14.3486704798
  13.3398426288   17.9070549942   11.3776481031
  11.6339651977   15.2822205020    9.9723652212
   9.7245066112    2.2324764958   13.0553026949
  14.2591395406   15.7604846898    0.9900730458
  14.0695008049   12.7068329193    5.4046864026
  10.9772258860   14.6272741227   11.1538893334
   4.8828432029    2.6278729567    6.5689873722
   1.5990540679   12.5963595923   11.6853059259
   4.2726263191   16.8385272136   14.7164354008
   1.1693447468   18.0737612974    7.8847539926
  10.8216919731    2.2271211259   14.1644079934
  12.0846743208    3.1724392777   13.9486697028
   4.9780354548    4.0119898171    6.0110952065
   5.5708766346   18.8497324081   14.2209647193
  10.2660054582   12.5368848296   10.1757406665
  -0.5700051933   13.1659984806    8.4697861877
  16.9978856072   11.3213568108    7.8864510778
  -0.7503951590   17.0362836784    6.6962625299
  -0.9585801471   10.5154053997    7.0435321082
   6.2462365212    6.0492215571   14.6969424354
  15.2772205415   14.4187132144    4.3274949222
  -0.7164869427   18.1410167655    5.6011356552
   2.9959776814   12.5365035015    9.6774522622
  16.8877734220    9.8813212131    5.0015709751
   4.0783829658    6.1882432742    6.3045903782
  12.0367958530    0.9983342616   18.2014512609
   2.4251791813    4.6010192189   13.1233000885
  10.0672875452   19.3152219014   18.3883411372
  16.6993094652   14.4717144815    3.7697824201
   7.3407739811    6.2643225974   15.7285317748
   3.5462082090   13.5852290951    8.6137193226
   9.0449966154    7.4149617509    5.4727058279
   0.3287356887   18.6650191782    3.6279125884
   7.8817108682    7.8324914593   15.5033789726
  10.5141033380    7.2140954958    9.8393904829
   1.2891640514    6.1735172826    2.6300443696
  13.0080353954    2.2661381488   18.4981494390
   2.1090670091    4.8102050910   10.6006952993
   1.3542393421    4.5796645688   12.0292296619
  10.8056360415    4.8949434122    3.5729413611
   9.7016055230    5.6466109031    4.2341023870
   9.2441974112   15.5165168604   18.2085268812
   9.6784456167    7.7852423774   10.9861425168
  13.6719022372    8.1010887158    3.4554975934
   8.8682618777   17.7818230905   12.2810178509
  -0.5110259447   13.0112245901    3.1220927855
  14.7214854239    5.1523005790    5.4464692429
   8.2492685144    7.9389552755   10.5470471647
  14.7466945578    9.6978393809    2.0362296359
  12.4418646476    5.2977106055    1.8114800825
   2.6764985350   14.7260017318    6.7389245018
  13.8347635488    7.2542266081    4.6440148683
  17.8892798292    6.5558281648    2.7645125862
   9.1298048544   17.4130768866   14.6807381750
   9.3799200628   13.1844326580   18.0440481439
  16.0357089439    7.4129489649   14.2634815484
  17.3579232726    7.2929913319   13.3970019770
  17.1545303827    5.6928551448    1.7145610294
  15.5623629879    2.7624718410   11.2847064594
   9.1612921184   11.8348701581   18.6669478026
  16.0795698233    4.2241106395   11.0272971859
  10.6572020514   17.5983888796   14.5322265830
  15.6097736287    4.6564634429    9.6376625364
  -1.2114484589    8.6086371002   12.5447221261
  10.8250945470   18.8150338020    7.0188914981
   2.8000214852   10.1260725211   15.2885035500
  -1.5925450041   10.6525053343   19.0077362304
   0.8121938911   12.9698004031   15.2035821699
  16.8833875339   12.9916219592    0.0367144547
   4.8225534646   10.2000390342    6.5350070232
   6.0809777373    9.2330674160    3.6951943002
  10.0774314700   16.5700461277    4.7708306273
   9.2659614506   17.7245173679    5.4952063702
   1.7955455813   12.1809516946   16.0666811346
   2.6666432618    0.4392250869   12.9645987053
   1.2554568404    0.8433218030   12.7287128373
   1.0414980556   18.1528005224   12.6204776567
   0.6015366045    1.0898067116   10.2997678824
  10.1737737489   10.9593062198    1.3987227929
   2.5331206046    9.8999942641    6.4039139121
   6.2285533228    9.5936166462    6.0882461777
  12.3460481709   19.3011164720   14.7405659867
  -1.0333360864    8.1577013132   18.4749093716
  17.2920231575    4.0271245328    0.1068109104
  -1.3152981465   11.7915229535   15.1387867218
   0.4424788373   10.3071219096    0.0739132490
   9.8143866669   17.3659289181    2.4721301181
   9.6940101489    5.7216709042   13.6027035892
   7.1836098802    1.5546402888   16.7302326879
   9.8792267338    5.0017471082   18.5953769149
   9.4226369872    3.5322755321   12.5928377014
   7.6988840043    1.2267214665   18.8870738148
   9.4219153336    3.9534596492    0.7120572486
   6.3802255933    2.9017367033   18.2801281612
   7.6841407181    5.2016680895   18.5920930048
   8.6046412718    1.5728168329   13.5622733211
  12.4898254452    2.9653629504   12.6314938976
  10.1403890941    1.6155405328   11.9524665835
  13.0736014219    2.8580872906   14.8037767359
   5.1102927298    6.8333131130   14.7904696085
   5.9758670546    4.7311761862   14.8152718639
  11.7341183815    4.4335554813   14.2027677004
   6.7260547752    6.1397502314   13.4056436509
   3.4551656848    3.7327684667   12.9142519569
   9.1475807833   18.3857829708   18.0061150196
   3.0531087115    5.8103393327   13.3880114133
  11.6890696857    6.7996192807   10.4078511758
   1.3119866804    5.0414326671    9.5011455914
   8.5044066327    8.0067077141   14.3384075167
   8.9486840512    8.0046168578   16.4122094743
   1.9439104748    4.1395447485   14.3539131988
  10.9391961835    8.1908945989    9.0150327979
  11.1738835372   19.2569672918    0.3490371306
  14.1305871461    2.0186167354   17.8035099220
  11.1212150848   19.2014477123   17.5845101689
   2.9158965018    3.7903457783   10.4854514996
  10.0115382992    6.2256448298    9.0371367361
   7.4755072859    8.2482262106   11.6389883312
  13.9795782979    2.3545098869    0.5719905135
  12.5520791982    3.4510165961   18.2461263871
   7.0468137048    8.9081562656   15.7303221569
   2.8424755658    5.9873472886   10.6781247508
   7.8089868129    6.8045965822   10.0190565820
  16.1737235574    8.5572637592   15.0412618470
   8.0626440473    8.9469457875    9.6975026178
  14.1909180994    2.5807090355   11.0412031919
  14.9140935791    7.5026245041   13.5878555012
  16.2649789801    3.8391732723    8.7893195111
  16.2174822292    1.7349540572   10.6030394043
  16.0023993792    5.8894534319    9.1905666200
  15.9886717365    6.4041565635   15.2025425150
  -0.2166585292    8.3072788113   11.7441605726
  15.8188304812    2.4868156373   12.5795991892
  -0.7354887309    9.6083058231   13.3125841875
  14.1876232132    4.5237840873    9.5225790391
  16.7411280054    8.9820992884   11.7689853643
  -1.0793166632   18.8710225368   18.5419312164
  14.9631354611   12.2181169039   16.1163573364
   1.3928225819    2.7023126930    3.2303924317
   6.5263363738    6.9965381945    1.4218776635
   6.2088359097   16.2487475595    8.0443602857
   9.4205144130   11.0873243090    7.7572307553
   5.7085923309    6.6356206580   19.3105423302
   4.5319991802    2.5523187337   15.7754191616
  17.5718232163    3.1448209801    6.0937864874
   0.4081543023    0.9550016194    1.7023193771
   2.2699469255   16.7150486865   17.2936285334
  18.3806000051    0.7324401639    0.1804930397
   8.1723195991   15.5875762892    7.2873442067
   0.7700117718    1.4672462731   17.7300129386
  -2.3195725697   19.2387501080    0.7577429527
  13.4325489200   12.9134760069   11.9591351256
   1.3651998702   19.0965499956   17.3054803327
   7.8735014483   14.2761816121    6.1676400953
  13.4931352311   14.6643444095   15.1878579510
   4.7789270387   10.5461780380   19.1487141480
  15.3068088283   12.5850096731   12.0089975071
   4.2552976978    3.8523563171    1.1689962385
   3.3734077387    5.3619762233    0.6672908767
  12.6520975825    9.8179773584   17.5041897885
  12.1948124998    9.9267403759    5.8511031305
   1.2542378588    1.6536769653    4.6268571073
   0.0682879029    2.3077412783    6.3559642096
  11.1061313491   12.8801541144    6.7981842421
   3.1734462198    1.5781949544   15.3279305829
   5.8424969760   18.7575230070    9.3856200888
  12.1203341900   14.1033201379   16.1957402730
  13.1546027932   10.9206491148   13.8215800430
   1.6335064785   15.1257587036   17.5860453133
   3.3825726870   15.2880103897   17.0447389454
  11.9724449531   15.3981626211   14.7111627064
   7.3133085122   16.8969308487    9.1932023771
   2.1253512463    2.5808226977   17.9276763993
   2.9186806394   17.2469418788    1.3188580224
  -0.7701474377    7.4832307054    6.2709797198
  14.7464294128   10.5632330402   16.1789437740
   2.0768709729    3.2546840206    4.7277213225
   6.5056574678   15.2282401680    9.4469814612
   8.6140628724   11.5484871225    6.1771614577
   4.4981002732   10.5938757105    1.2279857201
   7.4685701151   13.9023514921    7.8853871399
   3.0313901962   10.0986940279   18.8717115352
   3.9202551018    4.3305448896   18.8995969410
  14.6588210870   14.0869898188   12.3227673539
   1.0413637463   19.3257731382    0.2250250198
   4.7396272266    0.9103439122   15.6320097275
   0.7661745990    2.8734117814   19.0460539249
  -0.1403808943   19.5886202928   16.4266332143
  17.9512526711    0.3896903882    3.8136208049
  17.7478145804    1.7987963325    2.7700921201
  11.8579483105   10.2741192666   16.0416014157
   4.2523239660    7.8900073675    1.6890745328
   3.0038947094    7.2114639929   19.2990641856
   0.8751168082    6.8130941330    6.1360948373
   1.2450829495    4.5816638694    6.5196887251
   1.6814203035   16.4274857318    0.4271304610
  11.8178761563   11.0328275031    7.3418112920
   4.6669214273   18.7537462510   11.4147657688
  11.1538879970    9.3756331524    7.1943507674
  11.2648050101   11.0342838910   17.4784679901
   9.8239448977   13.2992398433    5.6427281424
  14.8168959650   10.8759029369   13.8871116648
   4.4281270764   17.9975052272    8.2783378635
   7.9624968743   14.0024554808    4.1393333584
   0.0275761715    4.0519570729    7.8258410104
   0.0537837452    7.0589363934    7.7913159151
   6.0962195694   14.6642426692    2.6320336868
   7.0951523860    1.4297892917   11.5897073204
   2.1677151051   14.2496605096    1.3097979354
  13.9337222987   16.9271664260   17.7916314912
  14.6898843082   16.1810927668   16.3540051318
   5.5381703144   14.8992141293    0.3223198882
  -1.7019482590   14.7483841831   12.2922112546
   8.6098715988   12.2107224389    3.7504286048
   5.7410734642    2.1230073389   10.5706674653
   3.1740518748   18.1769302527   10.5237568775
   4.6647368472   13.8417710988   17.2916044419
  -0.5614783099   14.0562372487   11.0920676340
  15.1498100594    0.4550130249    2.5419093194
  15.4376757367    1.5976144668    3.9279082781
   5.8474401700   17.3202836468    4.0715118877
   6.2798394779    1.1198411416    8.1759075431
   4.5119299235   19.0405334488    2.4562880952
   1.5303176130   15.5395875479    2.4447035359
   6.8893581440    1.6076387074    4.4705713533
   3.8946450319    1.9244890347    2.1874505929
  -2.0245264052   17.0047697993   12.1011089219
   2.4721427329   13.7102562341    3.8997310557
   3.3968150089   12.8202673696    2.6126209223
   6.8184082428   12.5522528666    4.3015787421
  14.0656760966   13.8215870321   17.5556377398
   5.3121915088    0.7202971340   11.5934969542
  15.2458906786   14.6837461581   18.3461116847
   5.7360259265   12.4876797919   16.9307101737
  12.3903888358   13.9882813307    7.9023241780
  15.3832429420   16.1123478143   10.4003653554
   5.3505774527   13.1184715853    2.1209060972
   3.6280095379   15.0033648291   11.0546983642
   4.1073167615   17.0230524172    3.4147464985
   5.1400519171   14.9856056043   12.0888171324
  13.8120589005   13.1945780032    8.7250200573
   5.4371739937    1.9470623476    1.3232577126
  -0.0325267940   15.4807611243   11.9362124499
   7.2150694727   14.6556381106    0.3572548564
   4.2856505362   13.6531523796    4.0157714931
   7.5289023924    0.7414324182    6.8577141198
   5.8649050900   -0.0683951474    6.8055610256
   6.3794824349   14.1382839313   17.5103273598
   8.4861920703    3.8433455006   16.6629492995
  12.9101018382   18.5568870564   12.2126114026
   3.6278386075   14.9720042443   15.3448460196
   5.1802434087   14.9364870974   14.2097169225
  11.0734970978   15.0432156387    9.0839464339
   4.0725727524   16.4252503966   11.8164027979
   4.4697277057   16.8308668557    5.1928987292
   5.8449645119   19.7066491624    3.4317098746
  -1.2591993207   17.8692884493   10.5704051052
  14.4996682384   17.8876457857    4.9438393069
   7.3189519379    1.8398991770    2.7006361444
  14.3533962367   18.2415550856    3.2322275675
  12.9353583444   17.3524666023    4.0704424618
   5.2054803904    3.2056977589    2.6707833622
  13.9423918141   14.7407909434    7.9235767701
  15.2062804564   17.6662213110    9.7795395429
  11.4086316309   14.9483662382   12.1169027911
   1.1629463343   19.0277919692    8.4283328831
   1.2163578451   13.4284803888   12.3540278659
  14.1418114027   11.9845809511    6.3687611747
  14.1075932782   12.0797182342    4.4921422752
  13.3100996657   18.3912538083   10.4199988116
  13.5073160116   15.4013625481    1.7207674479
  15.4467554477   15.6590185890    1.2428788176
   0.7799845961   11.9534581285   11.3351476559
  12.7777252428   16.9276386710   11.3447286646
   2.1943772604   11.9844921841   12.2752951478
  13.0256441121   13.2357893251    5.3740666587
   3.9689953887    1.9993700887    6.2600287558
  11.6033959947   16.4334677269   10.0158314296
  -0.9698081790   14.1015199867    8.8424793563
  10.0871712358   11.5598140373   10.5721967401
   4.9123374340    2.7335537319    7.6334307436
  14.0269235527   16.8745549528    0.8381483689
   5.0301328985    4.2174075852    4.9240430857
   5.8634887166    4.5214130742    6.3979268698
  16.4245583158   12.0002858433    7.1257960720
   6.4049043299   19.1028766832   13.5388440039
   1.4375942533   18.2752818625    6.8880042685
   1.9869049165   17.6197920183    8.3267933106
   9.8931655797   14.9689053793   11.1114800494
   4.2561946340   17.0359706836   15.8206201078
   3.3156571421   17.3673331308   14.3618636698
  -0.5918830074   13.2455396079    7.3462628363
  -0.3945903209   11.1785588956    6.3855823000
  11.1181879756    1.1246420669   14.0780113649
  14.5939727464   14.0472411601    3.5779689951
   5.8409363399   19.1726734735   15.2208881846
  10.7278423633   12.4775158031    9.1953614801
  17.0226098766   10.9585455804    4.6965882984
   4.5689108250   19.1883612123   13.9176559896
   0.1323360307   18.8542480531    5.8518897657
  -1.6530689408   18.7313473107    5.5188616936
   9.3692289045   13.2268407569   10.0569701419
   2.3963635064   11.8314617036    9.0737821717
   0.5129746267   13.0002612483    8.8810751985
  14.7992506391   15.5577809085    4.3189878309
   3.8494934241   12.0053348567   10.1571975346
  -0.1866785415   16.2480586545    6.3163866221
  11.2873291010    1.1142591290   18.9632712795
  16.2251169621   10.7989992927    8.4617858823
  -1.7694055196   16.7583579804    7.0836089635
  15.8401401910    9.7026279589    5.0214227935
   3.3719059759    6.6279867462    7.0909521965
   9.2879162147    8.3691126999    6.0165851447
   3.8043125658    6.6204948887    5.3133096693
  -0.2042332303   10.0497992636    7.7582844637
  -1.6599187718   14.7924204923    4.6824832081
   1.5032000780    6.0085082347    3.6671720404
  17.4698476400    9.2856707180    4.2884953863
   0.3241683609   18.3734316449    2.5337570498
   1.4839872949   18.7695566287    3.8516910668
   3.4189735249   14.6738720696    9.0013211339
   1.1060691396    5.2077836702    2.1530566395
  -2.1310470502   15.1341560341    2.8817059906
   4.6367807506   13.4016326910    8.3051641686
  11.6099126553    4.6446954245    4.1936685622
   6.8833131323    6.2666271583   16.7557095177
   5.0933014689    6.5386649891    6.4329972590
   2.1189453418    6.6133720571    2.0657169747
   8.2768006873    7.9141668628    4.6939703034
  10.0854537577   15.7383204223   18.8956245914
  10.5197888599    3.9094508851    3.1942834628
   8.5615419321    6.6336615427    6.1217534276
   0.9918044751    3.4390062273   11.9461748837
   9.0986354240   18.8595934745   12.4289917184
  13.1721968385    9.0276558773    3.7974347384
   8.4280485862   16.2101401124   18.1880936385
  13.8953134280    4.4964527371    5.8350868886
  13.1992752249    7.3916114088    2.6949952786
   9.8344398854   17.3988455191   12.0646621925
  -0.1895434344   19.6129774129    3.7276165747
  15.4193750335    9.4689959781    1.1816826032
  13.4279631077    5.5299695284    2.2929459454
   8.9549557049    5.9114538031    3.4651992392
   0.0265382007   13.1519573576    4.0892875830
  15.1915801827   10.6160852517    2.4857826508
  12.3658041015    4.2404506593    1.5206517921
   9.6420965347   15.3627136036   17.1632321379
   9.0982334180    4.9803714169    4.9170956830
   8.0879890581   17.7203906767   11.5439625769
   2.5491702350   15.5107925880    7.4303179844
  -0.2591013667   13.7361843112    2.3162413019
  10.0424036679    8.7592190572   11.4008468339
  15.1175904011    5.7995867581    6.3602907318
  -0.4063995246   11.9572658603    2.7184483881
  17.1245224688    7.3884933152    3.0513658485
   3.7244079615   14.8089443241    6.2443503282
  15.5375748558    4.4761998393    5.1298870465
   8.7234234701   18.3034149386   15.1422694635
  17.8530311824    6.0335089149    3.6863060944
  12.7580329481    7.2345887579    4.9900978201
  13.7169674449    9.8382798537    1.6590617352
   1.8393913768   14.6060222781    5.8906877627
  14.3902072982    7.6748335384    5.4176141431
  12.5386742865    5.9811649234    0.8902869911
   9.2264737496   13.0769313708   16.9527730888
  -0.8311731614    6.8674341504   13.9564684902
   9.5400129328   11.0348115483   18.0484703559
   9.0968076035   16.4795456757   15.2807557269
  10.4442564525   13.1329542558   18.0978629280
  16.2316945486    5.2859708357    2.1438094100
  11.0055842156   16.8805884882   13.7861543401
  16.7571631171    6.2867836258    0.9056910150
   8.1886470120   11.5304573962   18.9361800311
   2.6331091887    9.8661102785   16.4148916910
   0.3374703155   13.6736800567   15.7877176417
  11.1961320204   16.7372871699    4.7073078179
  13.3112987640    0.1465099839    6.9556017470
   4.9382142894   10.3218312463    7.6190302696
   6.4887792617    9.6231547926    2.7737332155
  11.2108010733   18.6083003515    7.9931282955
  17.2598544890   10.5846648126    0.3681673987
  -1.7964628377   10.4520657624   17.9667741940
  15.5959210746    4.9683586823   11.7505976426
  17.0392138661   14.0817345076    0.1903672969
  15.5794139320   12.6818400924   18.4053598983
   0.6144896305    0.0944239806   12.7370022237
   3.4796586796    1.1713624951   12.7894480805
   0.5197848818   17.7055932673   13.4794095147
  -0.3136433633    0.8050238057   10.6675323671
  11.0186104018   17.3078738558   15.5474631465
   4.7086624839   11.2032710977    6.1154504958
  -2.0112692684   11.4634283387   14.2759548897
   9.4124133645   17.0033692955    1.5481196676
   2.4771610157   10.0525937231    7.4841503249
   2.1996860593    9.5119759420   14.6094668988
   9.3397504897   18.5915971860    4.7767306865
  17.1349397329    8.3776434242   17.7480804929
   1.4715186347   13.4042040637   14.4813368216
  10.6953315491   11.2136856380    2.3979729221
   2.3633464666   10.9051312926    5.9006451799
  15.4737648527    0.2527479864   14.0401094222
   6.6008736834    8.2791986408    3.8522359259
   2.3416470806   12.8475657200   16.8054887901
   2.0685739103   18.4292664411   12.8506654621
   1.1603662602    0.2541331434    9.8315038253
   9.9980852915   15.5760892399    5.2075669072
  -1.1603151770   10.9224339233   15.7094509537
  16.8382605421    3.1131612978    0.5549393028
   3.7719676216    9.6483236597   15.1378390401
  16.3864414706   12.5537616760    0.9198479583
  11.6158015809   18.6403601266    6.3831395318
   5.0171723266    9.0434100923    3.8139316301
  10.4913599734    9.9561747844    1.0911370572
  15.8901590866    4.4258990915   18.7639952011
   6.9807094023   10.1045185971    6.7390178199
  15.0794273628    0.0048593592   15.7014512127
  -0.7496647579    8.2161986384    0.1471886095
   9.3869440291   18.4256622213    2.6780524272
  -0.5064434393    7.1548745897   18.1094108573
   2.9090970481   -0.0348467882   13.9213987451
   0.7439833631    1.5711407861   13.4861593271
   1.0776252286   17.2965703635   11.8812111256
   0.5546289594    1.8762887141    9.5348878060
   0.4546090816    9.8170274239    1.0946839766
  17.3485000591    3.6366024737   18.6449554834
   1.3320058387   11.0034708794    0.1140151797
   1.2139187386   11.4518227104   16.7264866623
  13.0544669707   18.5360370268   14.6901473767
  10.8919747321   17.5141760885    2.5091766370
   1.7062469081    9.2495465836    6.0452717757
   8.2145274733   17.2000424583    5.6168119958
   6.3033088582    8.5083072354    6.0906489961
   8.9700351046   10.9589856865    1.4241587165
  -1.8699162295   12.5292160798   15.6675993037
   5.2408829159    8.8792099307    0.1399227386
   9.4692356809   13.9649382081    7.5147082998
  14.3779107254   12.8483892386   13.8550565307
   3.7559584421    1.3099228834   17.3147717036
   2.6981765143    1.2733971100    0.0305777867
  -0.7096778576    5.5192886479    6.6503841169
   5.3331021814    5.4444209005    1.3057416793
  -0.0596641280    3.2176668181    4.5158377110
  10.3218563614   10.6575671156    5.8196570385
   5.3094635048   16.7468596437    9.7852754857
  14.9232844728   19.7070748862    1.8435792788
  13.1475052775   11.7674037983   16.6836280125
   2.9208099112   15.6564246521   19.1262682315
  12.6170324097   16.0313904592   16.6164683003
   6.3556594450    0.2987015521    9.9824709733
   3.5655663432   14.8740726859    2.5912749626
   7.5141779810   13.0146603172    2.3239755896
  13.0519904515   19.2919124242    4.4099149133
   5.4663286480   12.8913865264   18.9305342783
  -1.4608808061   15.8277053773   10.4601052617
   4.4669357847   18.7658489740    4.5078494752
   5.4076182284    1.0879225039    3.2621316835
  13.2622706028   14.8248531174   19.1546360611
   6.1345772218    1.9251167775    6.3046349916
  14.6926521188   17.7498923136   11.7704674333
  12.9619561591   14.7804542025    9.8449337005
   3.3425510976   14.9855764701   13.2623873045
   5.4878529810   17.4097495214   14.1571915874
  10.1727914546    2.5915994140   15.4397453421
   9.8690501794    2.6469929915   17.7371591269
  -0.0556015077   17.3825842026    7.9872089072
  11.0426165596   13.1878457618   11.1825775549
  15.1306755449   13.6837322587    5.6099728973
   2.1535075957   13.1865501377   10.5790263158
  -1.4148326427   12.0298657334    8.9697888811
  17.4259503867    9.5104884233    6.3230069016
  11.4824539925    1.0788467385   16.8324461618
   3.8735197631    4.7902999606    6.4770087294
  -0.2194524808   17.6284876238    4.4153125363
  10.1820882499    6.7881718605    4.8578456111
   8.3492831072    5.3291973945   15.5024692171
  17.0537919195   13.1413104432    3.3581779599
   2.6341967998   13.4907754881    7.4377830495
   9.6295791682    6.8812158346   11.9222007283
  14.4544446113    6.0090043272    4.3462601811
   0.1569255855    7.0150363633    2.3186169995
   0.3868187983    5.5569257484   12.2065377811
   8.6296498908   14.2183778684   18.5619561716
  11.3310396078    5.7549836999    2.5040106977
  14.9114466996    8.6277429612    2.9550150639
   8.3856237790   17.2151878608   13.4274241932
  17.5635736796    4.2588963097   11.1899977722
  17.0898219985    6.2601972835   12.4349440956
  18.1003393416    4.6852677583    1.1293998936
   2.7841290172   11.5139333005   15.2448255626
  11.0307788511   19.0229511093   14.2140413522
   6.5490405690   10.0941300330    4.7703119043
   9.6464292549   18.0312258285    6.7867334068
  10.5917286079   12.0016629082    0.5758090839
   0.1375971387    9.0734455412   18.4926971977
   0.3871858716   19.2185691499   12.0696912264
   1.2691350176    1.7040807505   11.4501963724
  -0.8249643876   12.3000972854    0.0012086982
   9.5172343849   16.2713789118    3.4362729294
  -0.1296005013   12.2679744550   14.4522741116
   3.7677378901    9.3213862714    6.1157368759
