B2 C140 Ca1 F48 H298 O66 
1.0
1.7911239314052072e+01 -3.5171342055730674e-16 -3.4060447844579212e-17 
-2.5266286670206868e+00 1.9391582387325407e+01 1.5290609962629363e-16 
-1.0322909597580325e+00 7.9751088431009021e-01 1.9454942874299274e+01 
B C Ca F H O 
2 140 1 48 298 66 
Cartesian
   9.7974330051    2.9947889885   16.8197659153
  -1.2399193876    6.0278621361   12.1458929127
   0.0106631966    0.8619837769    1.6963691216
   7.1463127465   13.7698259454    6.5429387740
   5.1227520945    6.2170732395    1.3465503694
  12.3945293149   12.6342844518   12.6166002664
   3.6157143765    2.3036690161   15.5596393315
   1.6121042810    1.8705471852   18.3872947927
   1.3776408182    2.8305608973    5.4690850062
   1.9007044713    1.3929420556   16.9828718342
  -0.6001792742    3.8891189326    5.9390627691
   3.1150804018    5.9765758480   18.9472893724
   1.8289223412   16.2089033010   18.8036850817
   0.2866025811    3.6147679316   17.7235232022
  11.8379134537   15.5994759493   15.2888900383
   4.4561578480    9.7158385530    0.5650763739
   6.4458969317   17.1926885802    9.1845275973
  12.5953453888   11.7637252043   16.2024921515
   9.7485541025   11.9723115324    6.3855131426
   9.5334100011   13.3976081091    6.2144739768
  12.9677294388   11.4355642053   14.7621920818
   4.1655256610    7.4089613980    1.3056923455
  10.8244093185   10.2831549921   16.7123646552
  12.0677759368   11.4346105984    6.7082121506
   0.0410839382    4.8299837760    6.9709920525
   0.3691189988    7.1580484595    6.7482398682
   4.6785056449   18.5893564166    9.7135791848
   2.6162474783   16.2372174965    1.6495478544
  16.2851974708    1.5076280265    3.2430788319
   3.7203749192   19.0329894757   10.7427047260
   2.0034721757   14.8508990099    2.1703448849
  13.0688996555   16.6153617826   17.0903158024
   5.2759720483    1.7988418907   10.8495618229
   7.5663387699   13.7954977127    3.0363797118
  14.9817605216    1.1958782150    3.9078427829
   6.4581833038   14.1902250366    1.0219743559
   5.4516337784   14.7417746231   18.9781052877
  -2.1756446240   15.3975575136   12.2509406173
   2.4172237888   12.5873577163    2.3703685527
  12.6573483733   15.5575282268   18.0721535578
   5.5086120917   13.0663414859   17.2502775355
   5.3787789685   17.8512283142    3.5342490017
   7.1606275424    0.5054819949    2.4135685961
   6.0339799228    1.5060186156    2.7543525843
   3.7456800940    1.6704559190    2.5155253528
  -2.5156378308   17.2444787399   10.7868099125
   6.3777231255    1.1153578078    6.1812367776
  12.1465769255   15.1760413094    8.8163191503
  13.8687664633   17.4407848385   10.6787273181
   3.5679071305   15.4074174992   12.1983229953
  13.1783105333   18.3633158615    4.0650239644
   6.6842757477    2.2882945710   18.3341991173
   7.4881385055    4.6085609563   19.2152800172
   7.6453735494    3.4838124202   18.0488242251
   3.7401284121   15.3312522086   14.6011390957
  12.0422398655   18.2174491404   11.7714096043
  10.2006497810   14.6858992119   10.0560330590
   9.0546556881    2.8358764243   13.0635664125
  12.5434855640   15.7180270141    0.4719500694
  12.6714898474   13.0719410382    3.3936898257
   9.3442745048   13.9115957178   11.1506470970
   5.1871343634    3.1613089284    6.7118926265
   1.7152731674   12.7850385704   10.8437241525
   3.7886484125   16.7596345172   15.1324961763
   0.8889116008   18.4517096450    8.1081045622
  10.0351846160    3.0560946121   14.3172088046
  11.0353506670    4.2408035364   14.1312170016
   5.3841915633    4.6220743530    6.5057968625
   4.6229671795   18.9411044066   14.6486784989
   9.0158190808   11.8164540393   10.0544052458
  -1.1548429657   13.2397352899    8.5483552970
  15.3020124796   11.4228567800    8.5152774397
  -0.0920554106   16.9189734891    6.6783475487
  -1.5218748254   10.4043214696    7.9287467523
   5.3758519373    6.7143776000   15.7370697237
  13.9840056351   14.6703841837    4.4679657234
  -1.0527933701   17.8374215988    5.8102241805
   3.0762187969   13.6192602925    9.0330680374
  15.5579976592    9.8449276634    5.7333859689
   3.9244901548    6.2898069520    5.4592513872
  11.5750113337    2.1926127177   18.4589560724
   1.8530352932    5.0263722787   13.3302143928
   9.2221706199   20.0012461859   18.4886705193
  15.3585071467   13.9077637881    4.5814803606
   6.7780531907    7.2260162966   16.0382229007
   3.0950619345   14.2529512989    7.6900983692
   7.7123633530    7.3003733971    4.1981495542
   0.1148709203   18.2039000201    3.8073258351
   6.9295766104    8.7160085266   15.8748568280
   9.7489387204    7.7543237168    9.4506098246
   0.5534859206    8.1301764982    3.0909259720
  12.7119931743    3.1731829455   18.7699003020
   1.9133416137    5.6040357820   10.6935430690
   1.1096487194    5.1202777877   11.8930977435
  10.7410797908    5.5333415883    3.2947041291
   9.3165755031    5.6937579177    3.7485640567
   8.5791657582   15.5391186708   17.3770732661
   8.8521529340    8.3338091932   10.5631835444
  12.1966517867    8.5782523476    4.1545013693
   8.8029929598   18.0079625055   11.3131999128
  -0.8273573963   13.0471164180    3.4170652734
  14.2486097530    6.5921338010    6.4880976542
   7.4120759755    8.5926619893   10.0584553044
  13.3326745751    9.5638962375    2.2225323668
  12.0219327593    5.9406123686    1.2850546194
   2.7719405548   14.1817428015    5.3479570074
  12.4724510950    7.9199048175    5.5388510968
  16.2439588464    7.1405376683    3.3298590789
   8.5254528155   18.0031885364   13.7238324112
   8.9332372193   13.2250235516   17.9968053588
  14.8322264101    7.9975860503   14.6491748816
  15.9043797914    8.0459112594   13.4761419685
  15.7825760062    6.4737781815    1.9839884815
  14.9222644301    3.0378123371   10.9949639693
   8.6529807931   12.0448798908   19.0640379963
  14.8906515988    4.5627433397   11.1656417006
   9.3469135116   18.5388197725   14.8861181149
  14.2404754540    5.1682062786   10.0061686488
  15.7992679345    9.3774994908   12.7016288518
  11.3483904094    0.6013936896    6.8241143436
   2.5511730623   10.0100089271   16.2169572694
  -0.7462047136   10.1383633798    0.0803968281
   0.6980572860   13.2365256471   15.3668782817
  15.9235951410   12.0837329531    0.4849638637
   4.8988700119   10.4559628542    7.5302471036
   5.0718450011   10.3368968029    4.5781207674
   9.1746020918   16.8023184792    5.8058469634
   8.0077835487   17.8046250106    6.1144998573
   1.2038166924   11.9777865569   16.1281230516
   2.2422137983    0.5655433482   12.9016498368
   1.0158876917    1.1457460970   12.2097851883
   0.6841537912   17.8322694933   12.3633031658
   0.7472054281    1.6064613478    9.7831905750
   9.6835369266   10.8764953911    1.8731214614
   2.5607404419   10.0677989031    7.9507608373
   6.0767683696    9.8878227676    6.7310239513
  13.3685703129    1.1183090282   14.6319462470
  -0.5049345075    8.4181384709   18.5244902661
  16.8287040925    4.6851184543    0.7080715364
  -1.5596120330   13.2058839565   15.3213546539
  -0.2254683290   10.6536545878   19.2121517363
   9.5897146467   16.8882768982    3.4232601033
   8.5145825854    6.3909958438   13.3138271936
   6.4489000426    1.5977196597   17.1999218453
   8.3325796328    5.5613000966   18.9369347296
   8.7664907463    4.0739392685   12.5090001806
   7.3749142825    1.4178562708   19.1530288770
   8.6486202190    3.2315504867    1.0480376264
   5.5235983626    2.5916905141   18.8681178661
   6.2882214337    5.1902943151   19.3217394414
   7.8771864926    2.4029290371   13.4960159319
  11.4938107006    4.0857743233   12.8622164749
   9.6259837292    1.9610323185   12.2414234947
  12.0772317103    4.2223673474   15.0125144652
   4.3664657581    7.2746035441   16.3693338479
   5.2313813828    5.4150984271   16.1763369754
  10.5755386042    5.5225689265   14.1264677926
   5.0821963281    6.8034746788   14.3767012205
   2.6801945924    3.9317526619   13.5081551850
   8.1267592234   19.3446554398   18.0795962097
   2.5093005159    6.1708433461   13.5442979643
  11.0638020049    7.7973828453    9.8643868111
   1.0808320460    5.4895069554    9.6536932632
   7.0103569287    9.1023196230   14.5914878028
   7.9023139122    9.3229417118   16.5445514812
   0.8544140728    4.9221591640   14.3967976035
   9.7607449470    8.3170551812    8.2123244484
  10.4291389238   18.9925663130    0.3835934384
  13.7338672809    3.2025428871   17.9376947907
  10.3196645581   19.5611234231   17.7814707637
   3.0716602020    4.9123350008   10.5271247833
   9.2071833498    6.4285282027    9.2701302158
   6.6475058859    9.0919493593   11.0595191013
  14.2607466328    2.0808576902    0.5428257677
  12.1959111654    4.4627351868   18.7810391709
   5.6808071240    9.2761817481   16.2773249166
   2.2981839500    6.9174611187   10.8179657942
   6.7988498290    7.4639895365    9.5117990350
  15.0590141820    8.9468764138   15.6027108792
   7.4682365757    9.4834842910    9.0842806273
  13.7056498863    2.3956078315   10.8462478431
  13.6043113496    8.2532242486   14.1287150941
  14.7126760571    4.7906245964    8.7575237661
  15.7759731127    2.6761949953    9.9515836946
  14.5514633816    6.5155051116   10.0948759229
  14.9150518231    6.7896473876   15.3089536935
  -1.7297696957    9.1354999131   11.4181939802
  15.4672217878    2.3795474397   12.0902223390
  -1.3122590476   10.3825654095   13.2141151619
  12.8653082857    5.1390512444   10.0706819251
  14.5884595135    9.9621625225   12.6077329743
   0.8482498291    1.3086857673   18.8647653505
  12.9232589177   12.7252652960   16.4894475138
   1.6101695335    2.0082797687    4.6558355201
   5.4076592694    5.9279306881    2.3631876672
   6.1346364107   16.9945251547    8.1535943202
   9.6139311976   11.6807323919    7.4570123632
   6.0607642787    6.4929936055    0.9181251409
   4.7364952150    2.4821037936   15.4241737730
  16.4655660489    4.4575662455    5.4403655248
   0.4926232579    1.7560596254    1.2970518194
   0.8088055230   16.4357488722   18.4914005237
   0.2356992075    0.0561111196    0.9314400934
   6.5690834856   14.7063299567    6.8978906492
  -0.3206469401    2.6876693184   17.3631561550
   0.5554069570    0.7793064370    2.6421993755
  11.4363313612   11.9919733624   12.4454492575
  -0.6430469570   19.6502703845   17.1035809876
   7.0148764069   13.8134166044    5.3611998865
  12.7709460220   15.3167058369   14.8445163790
   5.2103035856   10.4822138175    0.3419568638
  13.2029115431   12.1370230226   12.1000686252
   3.0695681260    4.9257491605   18.4667931178
   2.0930752220    6.3552843258   18.8002637557
  10.8951761511   10.3718184327   17.8474577825
  11.9850481034   10.7037201591    7.4861493162
   1.0160638480    2.2883655793    6.3221298904
  16.7778975659    3.0486055368    6.5255097365
  10.4031306604   13.9110639148    6.5848675144
   2.9823165534    3.1435101283   15.4138292544
   5.3527334626   19.4358946734    9.3337689013
  11.6222030271   14.6137240395   15.8049642647
  12.4436032529   10.4778736300   14.4395615089
   1.8707884290   15.1087978646   18.9773659269
   2.4664736715   16.4536119312   17.9607508735
  11.2571958375   15.8577450117   14.5592978634
   7.1671293610   18.0410544292    9.1003934911
   0.7639919397    3.9896650400   16.8059076068
   3.3625969877   16.5266572551    2.5641215239
  -0.6177674744    7.5047049318    7.0789547639
  13.1990267425   11.0331584314   16.8021463473
   2.1419464018    3.5118535387    5.6889257214
   7.0468346109   16.3241280853    9.6298849210
   8.8712340741   11.4098779366    5.7453361026
   3.6947675019   10.2209857941    1.1653108346
   6.5831720536   12.9573124638    6.9954414158
   3.0194295546   10.2784411988   19.0767754941
   3.7703732677    6.6005643513   18.3598740085
  12.4889243380   13.6920784448   12.2216782339
   2.4730862040    1.3301039971   19.0369667619
   3.3643689216    1.4720360827   14.8481331508
  -0.3148439713    4.4267467118   18.2610251415
   1.3430767373    1.8555166361   16.1771552568
  17.0725820326    1.1640203835    3.9248155205
  16.4262454219    2.6267515186    3.0113739215
  11.5491786215    9.5941282664   16.2850797148
   3.5265126950    7.4297024119    2.1723050983
   3.6508743090    7.4063608209    0.3776129454
   0.7106379262    7.8621643673    5.9389985187
   0.7131630713    4.2617238460    7.6081829488
   1.8140241365   17.0174803490    1.5169061678
  12.9615174860   11.1665124233    6.2101980879
   4.1689598373   19.4658998491   11.5860365429
  12.2090626272   12.4369664123    7.2858189320
   9.8374398311   10.0766793617   16.4379730841
   9.1017306425   13.6806957454    5.2757084186
  14.0385727472   11.2006272181   14.5656431618
   4.0786910333   18.2780255662    8.8440896954
   7.0829259009   14.7209804778    3.3224949482
  -0.6130518020    5.3409242938    7.7056890520
   0.9862936549    7.4156529143    7.5899837245
   6.5103201617   15.2427852433    1.1564452022
   6.2445677990    2.3495595297   11.0108073694
   1.2731917370   14.3658396682    1.4273473446
  13.1770593951   17.6520338343   17.6453646838
  13.9693521405   16.3648318568   16.5909354103
   4.5619019189   15.3366045117   18.6393934474
  14.5932109768   15.4695532566   12.6673409733
   8.6265561293   13.8175473265    3.3420624406
   4.6096071759    2.5731215734   10.2991414589
   3.0970647246   18.1446943844   11.0557590096
   5.6648767367   12.0223564235   17.0366718027
  -1.9858097104   14.2920364205   12.4505247254
  14.1316174223    0.9716397815    3.1460997065
  14.5689843922    2.1077061383    4.5203173087
   4.9194036021   16.9287846155    3.9084058780
   6.9519967172    0.9153344941    7.0514304914
   7.0626161029    0.4571770138    1.3425258923
   1.3842466778   15.0421378744    3.0652250385
   5.8081061639    1.5701575513    3.8327571173
   2.8983413183    1.2538772426    1.8740671079
  -2.0611400563   17.7711500950   11.5688425276
   1.5244142748   12.2737155999    3.1492448790
   2.2779442692   12.3352537337    1.2127626698
   7.0137123374   12.9370902859    3.5711504096
  12.6367547030   14.6590111352   17.5370947015
   4.8827419804    1.4745041492   11.8326416979
  13.4078456740   15.5010467956   18.8838147362
   6.3559990792   13.5422894573   16.8303121018
  11.9769724948   14.4026961105    8.1198802173
  13.4808354944   16.4602139274   10.9357917082
   5.5281989977   13.8475273255    1.4852338875
   2.8520287144   15.7422600147   11.4191321340
   5.9650062606   18.4429293572    4.2517111725
   4.0977544421   14.5909789281   11.7538112097
  13.2546407786   15.2082285046    8.9485016155
   3.8279298359    2.7418103057    2.3247630883
  -1.5655407010   15.9890889149   12.8622359444
   6.3403735985   15.2435756892   18.6468504741
   3.1885732091   11.8505769683    2.7382542967
   6.9204297488    0.7693091808    5.2696900983
   5.3597770158    0.6859881970    6.1367969849
   4.6996719655   13.3730780147   16.6047087482
   7.3187846871    3.9095217172   17.0973705626
  11.6714319495   18.9028209046   12.5048191931
   3.3833889080   14.6728811933   15.4343373076
   4.7828769139   15.0566565281   14.5748262541
   9.9098599354   14.3654455631    8.9370079540
   4.2407019513   16.2751398106   12.3947213169
   6.1876923227   17.4325679861    2.7674298906
   8.1649121749    0.8180168947    2.6281148689
  -2.0103171737   17.6124277020    9.9026321464
  14.2793667807   18.2466496815    4.1210831241
   6.0387960559    2.5227048883    2.3406874411
  12.6963377242   18.1314174117    3.0604517344
  12.7774198752   17.4656708841    4.5991211572
   3.3298045727    1.6969663015    3.6204793858
  11.7891200333   16.1814353074    8.3857787051
  13.6174650948   17.4251768933    9.5233829772
   9.6097524389   14.5093551808   12.1447001125
   1.2948281264   18.3685641932    9.1093684002
   2.6121247641   12.1038789334   10.9615490190
  11.5660908752   12.8572543857    3.2520616696
  13.2415758349   12.1247737371    3.5372226982
  11.5146237108   18.1276542673   10.8174120820
  12.1292745484   16.7303826363    0.2821094815
  11.7745039863   15.1440082093    1.1700306827
   1.5746239402   13.4077872057   11.7469705765
  11.9810062834   17.1222214156   12.2988652565
   0.9028805453   12.1208311822   10.8962891124
  12.9959864602   13.6613179291    2.4268070375
   4.3866195942    2.8769263075    5.9515199796
   9.8432272292   15.7493013387   10.2627194683
  -1.5729896768   13.8060158770    7.7608021120
   9.7896826189   11.1732130756    9.8133539924
   4.8845121861    2.7007845147    7.6538875483
  13.4406479950   15.7584850140    1.0116617797
   5.8173840063    4.6936356726    5.4253934010
   6.1063727520    4.9664154630    7.2657891877
  14.8966531509   12.0039410563    7.6268798288
   4.9761068714   19.4424265374   13.8087981730
   0.5545449813   19.4726927640    7.9311671100
   1.7079827249   18.2304310526    7.3574663866
   8.3081770380   14.0547642903   10.9921334610
   4.2220617371   16.7640706853   16.0916793014
   2.8089182652   17.2669718167   15.0748679241
  -0.2153912028   12.8375209816    8.2856538648
  -0.7045361183   11.0389815448    7.5356492409
  10.7503269688    2.1391622053   14.3331286783
  14.0638242353   15.1185553371    3.4828839246
   5.4092599170   19.0368519591   15.4535231795
   8.9376536014   12.4687339563    9.1311598062
  15.0869612935   10.7918050297    5.6135017946
   3.5684742033   19.2101120212   15.0408778433
  -0.7842092543   18.8642804670    5.7935066084
  -2.0302559455   17.6837197091    6.1663500178
   8.0355238294   11.2567440685   10.3425047981
   3.7280279056   12.6932447729    9.0363882192
  -0.8750632210   14.1206492269    9.2009492171
  13.9502730421   15.3593440967    5.3444043402
   3.5087365528   14.5455381644    9.5163434117
   0.9557062218   16.8243584965    6.4156391314
  10.7735279982    2.3471638196   19.2758329875
  14.4839001821   10.8745050194    9.0911133107
  -0.6465353110   15.8774227115    6.7788178531
  14.9500594610    9.1181822784    5.2601449611
   3.3944674378    5.8072687398    4.5968752685
   7.5418351734    8.3627559992    4.3289020541
   4.8101305056    6.7006172996    5.0893474944
  -1.0290733030    9.9109047903    8.7691905886
  15.3680441660   13.1280232546    5.3830130609
   0.8346275773    7.2490053209    3.7715155360
  -1.4482748695    9.7839277436    5.1004414747
  -0.0881241904   18.2028248618    2.7206683908
   1.0993802734   17.5988763628    4.1626996223
   2.5355641525   15.3549200446    7.9202717782
   0.8876730573    7.8831331907    2.0332531313
  -1.7966485332   14.6420674734    4.9096684090
   4.1559220110   14.4550934305    7.5132180665
  11.4849851969    5.8581459239    3.9828346464
   6.7118089731    6.9379954616   17.2576280322
   3.2445191075    7.0386175573    5.8884671374
   1.2673460487    8.9275383630    3.3350330505
   7.0694949676    7.1086512899    3.3241886039
   7.8891960091   16.3829460149   17.6671015696
  10.8832541135    4.5041099224    2.9817163515
   7.3345601939    6.8451399690    5.1819214548
   0.6011445728    4.2092902135   11.6057731329
   7.6507877259   18.0852722857   11.2652406954
  11.3327130389    9.1363831977    4.0615867588
   8.5287112421   15.2690853071   16.3155585387
  13.7697853174    6.7229142817    7.4626120928
  12.0312897139    7.7342137937    3.4318597505
   9.1988297340   19.0326636628   11.1497287869
   0.2234738181   19.1761778165    4.2445680296
  13.8713546856   10.4721592236    2.0150474298
  12.9783595530    5.9347836620    1.8351703630
   8.5485999373    5.2388306716    3.0969331367
  -0.4341910667   12.3252438384    4.1429215790
  12.4136152950    9.2564786968    1.7230704522
  11.9146002598    4.9239227430    1.0071932356
   9.5224070020   15.8704601846   17.7066462913
   9.1296565604    5.1763045228    4.7898253453
   9.1549592485   17.3581318705   10.5515659195
   2.7502412419   15.3345210142    5.4691300434
  -0.3938129678   14.0840910212    3.7813708729
   9.1904781395    9.3046436748   10.8581278682
  14.9580538224    7.3759507740    6.5759047682
  -0.2862746676   12.7094555603    2.5124150057
  15.4016599015    7.5229397037    3.7388821018
   3.7298275279   13.8253041249    5.0080763943
  14.5745961263    5.4773945024    6.4005937066
   7.7723506614   18.7596695992   13.4971332581
  16.7120101644    6.3037818158    3.9789668065
  11.4507496528    7.6034920988    6.0227260718
  14.0673281021    8.9191626279    1.9027900216
   2.0611001947   13.9186179027    4.6500623926
  12.9364523386    8.6183846206    6.1669348248
  12.1215277143    6.6323361438    0.4668722151
   8.8596957773   12.7884093923   16.9942437462
  -1.0268611446    8.1687420801   13.9354179092
   9.1075027965   11.1842191727   18.7627078623
   7.8897156925   17.1220412990   14.0588155670
   9.9347867898   13.6185221129   18.0220011342
  14.9055590638    5.9591472923    2.0261209361
  10.2461515696   17.8405671704   14.9980652738
  15.8195909451    7.2553055398    1.2672772704
   7.5677815514   11.8306206016   18.9803114899
   1.7435263370    9.6642327303   17.0904585670
   0.3918946132   14.0312002293   16.0410870891
  10.0980155479   17.4354038577    5.8006586965
  10.7642352324    0.8549342538    5.9148009371
   5.1360949328   10.4431742347    8.5916070983
   4.5053711974   11.2117715991    4.8520512265
  11.3813869633    1.3348508299    7.7323169038
  -1.0953876352    9.5838901687    0.9968721585
  15.5207229185   10.7342973773   18.5511129492
  14.1005297300    4.6922912096   12.0166492303
  16.0110717251   13.0920133540    0.8121785551
  14.3467315994   12.7324851446   18.9153582381
  -2.3225057066   19.8612494083   12.2890119313
   3.0324219125    1.2622189182   13.0952138321
   0.0346601267   17.3979389875   13.1724150524
  -0.0347274239    0.7710985154    9.8177381695
   8.5873376421   18.3796896733   15.6768349107
   4.5988387229   11.4917773465    7.3972392251
  15.4311971961   12.8727402804   14.8411274026
   9.5074050650   17.9728675026    3.7032189979
   2.6546189543   10.1939569655    9.0777858986
   2.6470886044    9.0793478770   15.5480815294
   7.7454904988   18.5245518467    5.2978784448
   0.6687368956    7.4047946250    0.1575544917
   1.5195139759   13.6701695521   14.6979826324
   9.9032241339   11.1424170475    2.9004472364
   2.1734174409   10.9270209626    7.4507721996
  14.0621185371    0.6076511270   13.8465807373
   5.3811593362   10.4981098604    3.5790042630
   1.9850168724   12.4302609708   16.8425350810
   1.6714929349   17.9260722189   12.7941532515
   1.3610153717    1.3247812509    8.9131985967
   9.2038722265   16.0774003132    6.6822498225
  -1.5377985975   12.7950275350   16.3556611041
  15.9860480637    3.9954698738    0.7851698299
   3.5078930392   10.2957679385   16.6174471256
  15.3699339376   11.5211339499    1.2467094621
  12.4297965347    0.4214514755    6.6125416444
   4.5187404936    9.4121157640    4.3315704507
  10.1447827267    9.7979024199    1.8939226077
  15.7827260100    6.0740887930   19.2188865054
   7.0701174251   10.2832084780    7.1469638000
  13.1763353427    2.1750650577   14.2734936865
   0.1312302389    7.7092202824   17.9586476061
  10.6162372401   16.6260492766    3.2254882391
  -1.4713698672    8.2920506725   18.0879546128
  -0.6375258193   19.5252210605   13.8230383046
   0.7120812027    2.0470979274   12.7274047266
   0.6676986587   17.0355828038   11.5652392314
   0.1152580397    2.6020233982    9.6000645626
   1.2858025224    9.5290581478    0.7096556834
  -0.1327051835    4.2588014927    0.7902160259
   0.2672844647   11.5671328518   18.8030102344
   0.3892498107   11.4456149447   16.7223660796
  13.7344858128    1.1728649613   15.5989334626
   8.9431508081   16.6430807003    2.6164009789
   1.7682184501    9.3963413027    7.6549538429
   7.0854509010   17.1894157384    6.3998518644
   5.9807408411    8.8176075388    6.7461867969
   8.5781189031   10.6211188635    1.6923588728
  -1.5700679411   14.3006607493   15.5396127497
   5.0318297117    8.6138625255    1.3635440767
   8.4496730819   13.8042281426    7.0929861457
  12.6242432634   12.7017843253   13.9851068677
   3.4836041651    1.6975841416   16.7627499953
   1.3645561589    3.2778657442   18.6073716608
   0.7314124334    5.9041045353    6.2658068853
   4.4912940215    5.0376667444    0.7867043873
   0.2272760258    3.4892234082    4.8926013031
  11.0627766056   11.5176968363    5.7282118949
   5.4343273944   17.5344550689   10.0974701352
  16.5526684112    0.7755253844    1.9878907655
  11.1199878425   11.6515220122   16.3507355044
   3.3814389331   16.1022144939    0.4087904037
  12.0691885059   16.7595791601   16.0477450143
   5.3763395386    0.6478925160   10.1142629498
   3.0516018446   13.9170474034    2.3814630069
   7.5209765231   13.5605847850    1.6920745680
  12.6690208501   19.4689216012    4.7563899595
   5.3556600220   13.3543073457   18.6272769128
  -2.0269661473   15.8648469771   10.9118292687
   4.3066671448   18.6193958656    2.8870408455
   4.9092113740    0.9135709533    2.1641848331
  11.4114128570   15.9682900399   18.5889889632
   6.3573918504    2.5565397022    6.1867671957
  13.4457571528   18.4702608832   11.5493665534
  11.5924299619   14.6918807905   10.0853573491
   2.9993859832   15.0867432714   13.4140139505
   4.5097150533   17.6290332748   14.1661265002
   9.3110896232    3.1675635362   15.5484632471
   9.0261243125    3.1262163423   17.9653324938
  -0.0888338938   17.4820856967    8.0060207905
   9.4802017289   12.4881527838   11.2998075528
  12.8005218893   13.9066133705    4.5473768551
   1.7727405918   13.4429886850    9.5691202663
  -1.9779422003   12.3896570957    9.4296924598
  15.9024285775    9.4490790792    7.0568463216
  11.0753010235    2.5136999368   17.1055456669
   4.2023946594    5.4437833456    6.5746160587
  -0.9811922854   17.5142320471    4.4838921347
   9.0465772151    7.0545012275    4.0068930413
   7.7258216541    6.4745098171   15.3623624978
  15.6821815028   13.0918604791    3.4163170087
   2.5069948372   13.5010250518    6.6237805835
   8.9077749493    7.4479007020   11.6191083570
  13.4232253163    6.8166476703    5.3381512662
  -0.9072338518    8.3807466544    3.2978179210
   0.1262974863    6.1944830024   12.2238525107
   8.0423539285   14.3247786606   18.1270412903
  10.8965092076    6.3808163509    2.1051052381
  13.2520732481    9.3981661381    3.6659474739
   9.2624233925   17.5557906958   12.6161562710
  16.2101951657    4.9831757576   11.3807765413
  15.7072501512    6.8835885619   12.6537130598
  16.7684965169    5.3875409733    1.8433878697
   1.9303354440   11.0316289329   15.3511642119
   9.5431942629   19.9086796494   14.4090322444
   6.2384262012   10.3372505871    5.3605801128
   8.3423625463   18.6465802761    7.2845576955
  10.1419667972   11.6971031530    0.8923907619
  -0.0479304385    9.6701544622   18.2020539272
   0.2239989221   19.0728138309   11.8816733993
   1.4968217101    1.5765882224   10.9307894303
  -0.7064606819   11.5188211434    0.3836383878
   9.0302821559   16.1167674706    4.5253773350
  -0.4393386949   12.9029208981   14.5188474038
   3.7710691729    9.6502617473    7.3066322818
