B2 C140 Ca1 F48 H298 O66 
1.0
1.7848249660790362e+01 -7.6906053657187834e-16 4.4403133319633846e-17 
-3.0312080616770714e+00 1.9240583278843562e+01 3.8643316434773083e-17 
-1.1504782153283354e-01 1.3932307457100725e+00 1.9402045505649259e+01 
B C Ca F H O 
2 140 1 48 298 66 
Cartesian
  10.4875890767    3.7787669218   16.7487293571
  -0.8180604523    6.2733316453   12.0748908992
   0.0448812746    1.6380890355    1.5542097592
   7.3257967810   13.6494131175    7.3574329494
   4.7196379790    6.5749052665    1.0517100904
  12.9223816238   12.6543987629   12.3364030883
   4.5347926930    2.9839608809   16.4655464525
   2.4035053013    1.9865067687   18.1231277939
   1.5800019041    2.5400582832    5.5657001377
   2.7871722170    1.2668391247   16.8240123412
  -0.2251324681    4.0111300369    5.9367411407
   3.2553185502    6.4735382012   19.0650576854
   2.3851379656   17.4633660975   18.2243052733
   1.0796398174    3.7090449335   17.2891084888
  12.1779613242   15.8875445292   15.0170549594
   5.2378776906    9.9221838777    0.8024793304
   6.0431245633   17.0033281050    9.3719090289
  12.3910070279   11.8568336753   16.0541172307
   9.6228328312   11.9832838108    6.8522549393
   9.4823477183   13.4219016849    6.5433374865
  13.0403671074   11.7077029170   14.6383681626
   4.0384037763    7.9666568867    0.9803654555
  12.2003878500    9.5582009275   16.8008551567
  11.9827578961   11.8405315405    6.2908650465
  -0.0339399042    4.9997882349    7.0587426898
   0.7860193697    7.2509087948    6.7633168280
   4.8266693874   19.0948772210    9.6259789185
   2.0937804250   16.4082812575    1.1624927159
  15.9529512501    1.7011302893    2.8015356048
   3.9320784190   19.8817245071   10.6039806820
   1.3218983675   15.1746557027    1.4925566791
  13.3661809707   16.8704003451   16.7601949552
   5.4806869644    2.4897445223   10.6877680874
   7.3722522984   13.9668789812    2.9951100724
  14.8278963753    0.8220385361    3.2553079689
   5.9466468244   13.6892666984    1.0244663352
   5.7904368023   14.8731741375   18.9680953446
  15.0048550645   15.3277291042   12.1198382484
   1.9011193330   12.8117507672    1.9511860805
  13.0542505769   15.7846710580   17.9002509211
   6.0509404978   13.3518969997   17.1258605865
   4.9398089551   17.8811041709    3.8735475401
   7.2385305872    0.4334420509    2.6218161711
   6.3691221963    1.6294365303    2.6383264482
   4.3554211374    2.5268499679    2.0773810355
  15.1531840926   17.1055577107   10.3834927673
   6.9740668195    1.3339867552    6.7337750069
  12.4109613258   15.1176526413    8.8500685461
  13.7094790934   17.7133387735   10.3059928447
   3.7185669408   16.1298539555   11.9173131977
  13.0240680666   18.3985437374    4.3674171812
   7.8451319385    2.5965970957   18.1260325891
   8.1254353227    5.0353521853   19.0692188462
   8.3191566439    4.0388680723   18.0038307109
   4.0604518461   15.5037687473   14.1425711234
  12.1474669642   18.8263711154   11.5248678106
  10.2745589284   14.9723045811    9.8067270348
   9.6737246237    3.4819518245   13.1891905497
  11.9934028630   17.1885487372   19.3886256539
  11.9721365233   13.3906408325    3.2532646548
   9.7220507883   14.6702932073   11.2231326644
   5.4765811174    3.0496798778    6.2781776152
   1.5524824639   12.8629434453   11.1363079280
   3.8258974136   16.7489600271   15.0103035750
   0.1906567330   18.5326561347    8.6070029734
  10.7454556130    3.7413702561   14.3456491724
  11.7811143025    4.8335315556   13.9430798558
   5.4636978726    4.4779068203    5.8034703809
   4.6672052106   18.9390701156   15.0503010331
   8.8008611733   12.5612748493   10.7209095468
  -1.5982893579   13.4743243965    8.7203673871
  15.2448060912   11.3139698908    8.8946243720
  -0.5906499603   16.9015214795    6.8157166311
  -1.4224451919   10.5933221817    8.1797849362
   6.0426322550    6.7707943729   15.4195461459
  13.2963264883   15.1110819380    4.5178835928
  -1.4378624953   17.7531790664    5.9670032975
   2.9784967418   13.6720483995    9.3317353666
  16.0145471828   10.2600063517    5.7979975888
   3.9137234180    6.1819019744    5.3198579540
  12.0741811940    2.7004463389   18.2476611638
   2.3339674920    5.6252572847   13.3287420882
   9.0753800663   20.4836509253   18.4889768673
  14.4523287733   14.0042226367    5.0485190000
   7.3190312307    7.4549916712   16.1728088457
   2.9041134431   14.3760383667    8.0189993298
   7.5982804893    7.3465478432    4.1159214537
  -0.4796048277   17.7925882305    3.7333124169
   7.3119686231    9.0223887487   16.0643252467
   9.7954412347    7.5767107447    9.5280356478
   0.5750668724    7.6597767836    2.9944596286
  13.4279993128    3.4662675871   18.5866744711
   2.3286258666    6.1061537143   10.7299876508
   1.5502166957    5.7594768786   12.0398608229
  10.8251855860    5.9625912934    3.0708269280
   9.3756412670    6.0117022052    3.6667973939
   9.1084415757   15.7346538858   16.7467236994
   8.7769024460    8.3967378408   10.4265824615
  12.3054449168    9.4229070467    3.7123029874
   8.5765263818   17.7980481086   11.8591036342
  -1.3124748901   13.1394716169    3.9941601163
  13.9823714595    7.1454033537    6.0245308516
   7.2663673185    8.6635497318   10.0262135824
  12.4148035370    9.9234953218    1.4794426502
  12.0652890295    6.3203921068    1.0997278835
   2.9053599837   14.4490870787    5.6719057700
  12.7568281910    8.8509622968    5.0232566785
  15.9944393789    7.1838639621    3.1173791068
   8.2181164397   18.7087784405   14.0274616648
   9.7084024224   13.7563649976   17.9954113855
  15.0315888680    8.1391513587   14.4377256609
  16.1196584587    8.2017183059   13.3158989029
  15.6027273954    6.2120028902    2.0443451781
  15.3223766123    3.4185034175   10.9097489106
   9.1915386628   12.7731961473   19.0972608508
  15.3313483943    4.9467196802   11.1532064122
   8.9299868958   19.4900010619   15.0433353721
  14.7059211556    5.7125070250    9.9071075201
  16.1829837894    9.5086030389   12.5658111940
  11.4308997054    1.1559097583    7.1020709281
   2.6713888331   10.2510644921   15.5924780358
  -1.5198943648   11.5895150942   19.2352350495
   1.3719920687   13.6158847829   14.9791493042
  15.2873555399   12.0453313958    0.7960530625
   4.6978346073   10.9402033746    7.3034317500
   4.6729887682   11.1005033818    4.0826254950
   9.4634864969   17.6490893965    6.1215624470
   8.0413383779   18.2473511672    6.1047186584
   1.9128821015   12.4275826487   15.7103184169
  -0.6154499607   20.0002291442   13.0960412413
   1.1598908113    1.3864964807   12.4890086446
   0.9824307181   18.4243294800   12.5239426509
   2.0008903841    2.3049396553   10.5144855515
   8.8203223395   11.2071386903    1.9221101913
   2.6213024300   10.0824576210    8.3345708142
   5.6754483823   10.3459138958    6.2400787923
  13.9122830482    1.5200500575   14.7060779518
  -0.4312603439    8.8109804854   18.6254933085
  16.5874618870    4.6182896729    0.5038420418
  -0.9383325410   13.2462374778   15.5039474101
  -0.0420479590   11.1814617454   19.0864567469
   9.8173890990   16.6537651406    3.8541103778
   8.7331468402    7.0389140391   13.4622843208
   7.8742524025    2.1056319785   16.8906647543
   8.7522467705    6.2448180522   18.8066919028
   9.2162501916    4.5302521408   12.4525579761
   8.6927087499    1.8305006843   18.9060924287
   8.7569529707    3.2919939471    0.9089301574
   6.5167354518    2.5483590155   18.6675812483
   6.8320087270    5.4486157866   19.2464282134
   8.6204951162    2.9093957102   13.6603778131
  12.4141042499    4.4115445456   12.7468743726
  10.2414650159    2.5924802452   12.2649148378
  12.7110234246    5.0609789838   14.9006953901
   4.7918719338    6.9801079902   15.7522774584
   6.2405087277    5.4161769098   15.7648608028
  11.2871725192    6.1976962438   13.7598093734
   6.1913090234    6.8481561131   13.9964047310
   3.0893776742    4.5093066511   13.3101191621
   8.1228246053   19.7005502685   17.8508108316
   3.1528835445    6.7092164987   13.6397835518
  11.0679511135    7.7642777423   10.0673521732
   1.5746960827    5.7808663064    9.6363888710
   7.1526072148    9.4398899590   14.7581326577
   8.4840306092    9.4811101747   16.4446557611
   1.5030687928    5.4165064975   14.3518045550
   9.6982384266    8.0508796011    8.2611636653
   9.1770811483   18.8995158561    0.4084769712
  14.5017790840    3.4402607837   17.8354253140
  10.3455667477   20.0005340251   18.0904107662
   3.5516166727    5.4519231632   10.7001915952
   9.7154006510    6.2320987612    9.4652447317
   6.5193362639    9.0245813677   11.0369909105
  13.9011983175    1.6474155472    0.4515916827
  13.0500410022    4.8050104517   18.5581007420
   6.2346045507    9.6449671804   16.8829693596
   2.5242353064    7.4666162287   10.7130205881
   6.6102524669    7.6463886740    9.4125181265
  15.2564576123    9.2301011236   15.2708931265
   7.3013868429    9.7232835888    9.0706989118
  14.0556515504    3.0210790662   11.2855333794
  13.7704310891    8.0976349335   14.0586600972
  14.7524778891    5.2606846060    8.6858457757
  15.6783439308    2.9708601370    9.7330430148
  15.2644202223    6.9563861223    9.7792800815
  15.2457345493    7.0075732028   15.1987066532
  -0.9172114413    9.4254631732   11.4365595395
  16.1147430382    2.8096103683   11.8303161932
  -1.2970298833   10.4572763518   13.4950245089
  13.3248041781    5.7833497763   10.1974158304
  14.9043442570    9.9376829467   12.1201847158
  -1.2178523784   20.4981211548   18.7598832643
  11.7846934931   12.7150414443   15.8899295215
   2.0867476590    2.0817063841    4.6847777984
   5.2160700656    6.6656811820    2.0565929062
   5.2603207174   16.5884444784    8.6422175781
   9.9336206069   12.0437510392    7.9047938095
   5.4949056460    6.4506214635    0.2054987535
   5.4868329246    3.0583264075   15.8996075066
  16.8980689965    4.5127760015    5.2557334307
   0.2914416792    2.6546261949    1.7586895286
   1.5281045297   18.0147425682   18.1351348031
   0.3342321951    1.4387829321    0.5773299742
   6.8785731996   14.2292921981    8.2229934883
   0.4801106131    4.4405509294   17.8102276638
   0.9034286065    1.0090512803    2.0269633467
  12.3850234257   11.7332916161   11.9532865708
  -0.3487639692   19.4109296839   16.8733228525
   6.9906359919   14.2314937738    6.4568618201
  13.0233067201   16.0248476255   14.3591494187
   6.0732461318   10.4002509644    1.3358586792
  14.0013998444   12.4477591767   12.3193908814
   2.4842294815    5.7682806581   19.1334164565
   2.7278909005    7.3782670260   18.6118873327
  11.7743655331    9.1738706475   17.7193773761
  12.2326992638   11.4413576140    7.3012859158
   0.8962548469    1.8497756535    6.1224558036
  17.3396562547    3.1209171083    6.4722394882
  10.5001677173   13.8733458559    6.5620118281
   4.6398617465    3.4321433676   17.4949696205
   5.5023640612   19.8137660691    9.0330331933
  12.1615882842   14.8605857196   15.4985768484
  12.7580973224   10.7991593522   14.2349680386
   2.2724799574   16.3957920869   18.0060472219
   3.1425873571   17.6862616329   17.4659898840
  11.2099556900   15.9611858847   14.4550823281
   6.8947673298   17.4570928854    8.9469271520
   0.4983070233    2.8254808476   16.9237187895
   2.7032230392   16.5367113589    2.0135191846
   1.4530362199    7.9152219826    6.2126680080
  13.1502763773   12.0827679732   16.8154243143
   2.3379336620    2.8898657745    6.2886379562
   6.5132713179   16.2246490205   10.0928248926
   8.6450221483   11.3597789130    6.6295531294
   4.4488023238   10.7654454543    0.8285030308
   7.0482312296   12.6533693990    7.2417616438
   5.4572955318   11.0706089853   19.1662977764
   3.9631812345    6.2214794904   18.3039894432
  12.5940512677   13.5321734523   11.7693062102
   3.5032258747    2.0881975573   18.5936451791
   3.6907524484    3.5472949572   15.9580547203
   1.4571820927    4.1815404268   16.4705634204
   2.1772084245    1.5310767273   15.8794168968
  16.4657383497    1.9762486316    3.7092006547
  15.7074817167    2.7639453075    2.4706865696
  13.2355356579    9.6890449350   16.8730125456
   3.0350924686    7.8065456007    1.4768128280
   3.7699908880    9.6648132438   19.3722379703
   1.5802731150    6.9656831371    7.5623390339
   0.7882217636    4.7526080490    7.6862916449
   1.4506415988   17.2348620275    0.9328732328
  12.7518933961   11.3348429745    5.6304751934
   7.4770452179    1.3832342455   11.2278230058
  12.0599014842   12.9688449720    6.3137475369
  11.9499205578    8.7901580805   16.1152603903
   9.1367729070   13.6351532545    5.5215679373
  14.0477217461   12.0857872215   14.6788512370
   4.1640258446   18.5148348805    9.0077153852
   6.7997846218   14.8521406234    3.3449139161
  16.9174712329    5.2167142977    7.6258186044
  -0.0377697909    7.8247024028    7.2396997744
   5.3314065042   14.6733404065    1.2306486448
   6.2225025553    3.2227295106   10.9858477823
   0.6779269472   14.6460982385    0.8247379527
  13.5400800028   17.9278008569   17.1779497083
  14.3332619485   16.5401897605   16.3027323183
   4.7702282300   15.1300445426   18.8382880642
  13.9262984215   15.2244703263   12.4752239109
   8.3946516705   14.1075124641    3.1820777833
   4.7725309106    2.9591256452   10.0497115845
   3.4909476870   19.0741472732   11.2836400255
   6.0623631442   12.2912273832   16.8383327649
  15.5110907826   14.2790028863   12.1324977087
  11.4709332469   19.2828071422    2.5920172892
  14.0515472171    1.5928181884    3.3492739739
   4.7331227228   17.2022963492    4.7119410927
   6.3520150526    1.2951699745    7.5809667655
   3.9624774111   18.9043184616    1.6832181976
   0.5907459878   15.5087229779    2.2473472653
   6.4365343134    2.2892742754    3.5305327571
   3.2987547023    2.3674710337    1.9475309501
  -2.1560791996   17.5674414225   11.2568667910
   0.9188197426   12.4687295956    2.2917050451
   2.0992928467   12.6580342771    0.8406762538
   7.0463769908   13.1593619109    3.6783359891
  12.9532402446   14.7754492604   17.5496802847
   5.0441052664    2.2898923424   11.6886680305
  13.8999257116   15.9327845913   18.5583759744
   6.9973482462   13.6865469166   16.7088411071
  12.1893836676   14.1858638409    8.2726021735
  12.8064954662   17.0558519651   10.3345471499
   5.4462190286   12.8679957073    1.5302060489
   2.9864323202   16.0038429268   11.0589488519
   6.0148451016   18.1049305861    3.9291182960
   4.6370649286   15.6580289429   11.5108980374
  13.4976757931   15.1868781741    9.0235060880
   4.6861639744    2.9185345238    1.1225947976
  -2.2437606438   15.9270498602   12.7893401803
   6.4650806975   15.6039548818   18.5148128074
   2.7691019760   12.3076426876    2.5578138267
   8.0032599094    1.1630039067    7.0442711353
   6.7254730100    0.5924454781    5.9362537920
   5.1791129024   13.8605749681   16.5743553245
   7.9335492464    4.4310387157   17.0383352263
  11.8131250916   19.9114463482   11.6126011623
   3.8014389700   14.6816679029   14.8347000385
   5.1584816846   15.3996230770   13.8547401920
  10.0764136575   14.1304034641    9.0947935472
   3.9351180236   17.1771820500   12.1948390280
   4.8922266834   17.4138650440    2.8403595230
   8.3271995800    0.8889056363    2.4562552713
  -2.2939506980   17.1448427905    9.4374244450
  14.0003525086   18.8351351765    4.0099169703
   6.6716302057    2.2647445143    1.8344444352
  12.7920790649   17.5369024049    3.6812640405
  13.1875639655   17.9550330521    5.3776919260
   4.5278266601    3.3286593897    2.8993482866
  12.1192872137   16.1061841124    8.1918000117
  13.5459718680   18.1502933335    9.2766382652
  10.6549789118   14.8634977530   11.9726204592
   0.3456685456   18.5854953948    9.7154013058
   2.0648612823   11.9323615652   10.8977021889
  12.5679105738   13.6232353415    2.3625660861
  10.9245875698   13.1825615294    3.0815683449
  11.5384160805   18.3463430660   10.8413993390
  12.2655826481   18.0720684458   18.7537336232
  11.1840620314   16.0687823877    0.4836663305
   2.0011037573   13.3037925432   12.0285535131
  11.8339750851   18.3794622646   12.5203666658
   0.5032370365   12.6431834858   11.4021194685
  12.3081644553   12.4539228416    3.7058125473
   4.8036705374    2.2941877733    5.6607717746
  10.0381006651   15.9994076203    9.4577923212
  15.5258445899   13.7044297590    7.8858567627
   9.3836729814   11.7275551627   10.2900457040
   5.1936928574    3.0100077705    7.4081076523
  12.8608569704   15.6282695106    0.8258089143
   5.9468160835    4.6180392716    4.8355281833
   5.9539802240    4.9821138292    6.5909135025
  14.4915333217   11.5850661665    8.1637326951
   5.2620892124   19.7221890144   14.5232774898
  -0.0545238670   19.4517799940    8.2073392686
   1.1304850561   18.2046578526    8.1446580796
   8.7846955247   15.1196193036   11.4718499648
   4.1243597284   16.5226635970   16.1152137741
   2.8294876165   17.1343652498   14.8750770164
  -0.6522378996   13.1917355624    8.1948135064
  -0.6818903389   11.3646361218    7.8270791850
  11.4151451195    2.7826646243   14.5029518410
  13.6785243863   15.4059983990    3.4875571490
   4.8004565268   18.8888504675   16.1712645210
   8.3404454606   13.1542365082    9.8515890958
  15.4552457659   11.1547930458    5.6095753773
   3.5967706848   19.1923739089   14.8850705545
  -1.2263327997   18.8293383011    5.9260710127
  -2.4411661753   17.5587134022    6.2925593898
   8.0089877286   12.2209329227   11.3228989572
   3.2141234809   12.5812245605    9.1771169633
  -1.4836981259   14.3973794167    9.3767004719
  13.1793051071   15.8704493822    5.2530644788
   3.7400903292   14.1399167990    9.9079696557
   0.3565019812   17.1667563034    6.4067240097
  11.4314140380    3.0650092852   19.0631773268
  14.7406290985   10.6769602879    9.6018556062
  -0.9687769079   15.7995107452    6.8645054738
  15.7564651740    9.4825140013    5.0517778252
   4.6571517615    6.2805321605    4.5581009687
   7.3822958002    8.3727863012    4.1768194737
   3.8454332097    6.8896701820    6.1541189287
  -0.7664823022    9.9906887309    8.8661014394
  14.1837277496   13.3041080612    5.8482925547
   0.6396239824    7.0843166957    3.8098959950
  -0.6735752581   10.3900497924    5.5868984017
  -0.4660756166   17.2506981871    2.8334272262
   0.5884728138   17.7355397792    4.0984996420
   2.0580290388   15.0750274749    7.8766236151
   0.9778351358    7.1627528298    2.0839355880
  15.1887620530   14.7180759407    5.5433157862
   3.6338421495   15.1451933660    8.0630801665
  11.6170698475    6.5916396532    3.5801431787
   7.3189651341    7.2470964105   17.2563703006
   2.9931248133    6.3431876653    4.7725663355
   1.1283644485    8.5552135655    3.1011542436
   6.7735409214    6.8051831831    3.6218100520
   8.5083323706   16.6635929265   16.7491375040
  11.0644583377    4.8439200053    3.1696900380
   7.6181847912    6.9669438881    5.2004918813
   1.1209842003    4.8011015616   11.8950392168
   8.3948964139   18.9018888038   11.5386607030
  11.6531937198   10.2328662177    3.9645059647
   9.1547801379   15.1816096848   15.7571996631
  13.5069386304    6.8685754160    6.8794467554
  11.4616126494    8.6599115287    3.3554373629
   9.4133587790   17.3667182925   11.3158612977
  -0.8119177496   18.7603694462    3.4093541619
  11.4668272974   10.4077154515    1.7975172675
  12.7950921213    6.8580192878    1.7517838911
   8.8326401141    5.1530520213    3.2602636104
  -0.9841696244   12.5435194825    4.8664109843
  12.0219685496    8.8898108296    1.2206354255
  12.2716165234    5.2128122771    1.0881361350
  10.1420069032   16.0800518139   16.7842552497
   9.4058558795    5.8087411742    4.7502141619
   7.6261081838   17.2746289114   11.7405447046
   1.8824973488   14.7089988830    5.3919567310
  -0.7792370491   14.1292369221    3.7970344198
   9.2912066606    9.3858115292   10.3666791424
  14.6270475458    7.9496232207    6.3359585054
  -1.0387761857   12.3732221950    3.1772273906
  15.1795494990    7.9938530476    2.9915405223
   3.3239867000   15.4731789559    5.9935851568
  14.4274446636    6.2269283383    5.7143548546
   7.6964560947   19.4992690977   13.4029945462
  16.1304633256    6.6292475192    4.0510710515
  11.7264665408    8.7865552002    5.4714045770
  12.9714770690   10.5369739330    0.7692596207
   3.4921238599   13.9259182473    4.8784752848
  13.4080716376    9.4647938171    5.5939898117
  12.0224227123    6.7653584609    0.1298367459
   9.8591318654   13.2594247736   16.9943265371
  -0.8271555416    8.1127652036   13.9385306782
   9.6182485715   11.7680339544   18.8999869584
   7.4224386358   18.0140071130   14.4292561370
  10.7280765079   14.1049322034   18.1610851286
  14.8377444175    5.5241599279    2.3744195115
   9.7457435411   18.8556438729   15.3794535693
  15.1273095521    6.9147369189    1.2716336041
   8.0993624710   12.6346521176   19.0098582533
   2.0126864464   10.1128707356   16.4192278265
   1.5692795940   14.5371971062   15.6009570262
  10.3850280609   18.2867726535    5.8353199695
  10.6446369093    1.7122145968    6.5473422223
   5.2739331764   11.1078587537    8.2817607593
   3.8331561885   10.8672506213    4.7017555574
  11.5148018735    1.5298577607    8.1162363344
  15.8148128842    9.6545225684    0.6068898448
  15.7498027684   11.6793893216   18.2511824004
  14.7166091727    5.2150121002   11.9469772758
  15.4761475193   13.1492020644    1.2124941796
  14.4371857676   13.4335369422   19.2771150241
  -2.1936769970   19.8743262966   11.6743684963
   3.0600227436    1.4218624428   13.6453436524
   0.5238781444   17.6170332985   13.0897143417
   1.2804163948    1.6766332415    9.7408951603
   8.2239792908   19.6959695057   15.9792678524
   4.1163968795   11.8140686555    6.9378389486
  -1.9038292248   13.8478798779   15.2816610627
   9.5340151254   17.6613816829    3.6150078633
   3.1069309835   10.3313382383    9.3136190361
   2.6243668061    9.4449960250   14.9306113692
   7.7890822357   18.9125663220    5.3002219565
   0.1562150602    7.0011038784    0.0972368984
   1.8970245960   13.7477188319   14.0115201662
   9.0926967803   11.4564852344    2.9668937593
   1.8406875629   10.8322823977    8.0703462476
  11.3578985815   19.7966602622   14.5261638190
   4.6877523761   12.0164539641    3.5531508101
   2.9354699673   12.8320235360   16.0966481250
   1.7021435484   19.0434858630   13.1516366402
   2.8550111258    1.6424959829   10.6579040068
   9.8216071779   17.2558843066    7.0395867073
  -1.2332345714   12.2261952461   15.6478536114
  15.7728174452    3.8179336512    0.7803025255
   3.6560090359   10.5561680369   15.8822383019
  14.8838506279   11.2991658823    1.4952369460
  12.3290498516    1.0908737974    6.5123360480
   4.5377381087   10.3006129872    3.2588358321
   8.7282646197   10.1324811877    1.8687176162
  16.0872206386    6.6703935588   19.0275335927
   6.6605242394   10.3609688311    6.6186955978
  14.4675748484    2.1182293430   13.9553176077
  -0.4267921060    8.2136218077   17.6799994129
  10.9356674883   16.4374862303    3.7696262991
  16.4024453981    9.0601502754   18.8725161129
  -0.9622116991   19.1768647443   13.7984783333
   0.2811350851    1.5289447488   13.1210230702
   1.4634142314   17.9819440717   11.6988186608
   2.1802878614    3.1998559333    9.8350132475
   0.5623109655    9.8422045844    0.7511019182
  -0.2052169563    4.2948137576    0.2611250285
   0.4115906333   11.9932722959   18.4978335735
   1.2073304874   12.2526522727   16.5324102593
  14.1794528272    1.8167096067   15.7906749966
   9.2454834952   15.9689441326    3.1654058957
   2.1788407888    9.0926785829    8.4069818957
   7.3077293193   17.4432874805    6.2232054870
   5.5405788048    9.2491035644    5.8280422991
   7.8282319262   11.5889967724    1.7877655153
  -0.7254142776   13.6756662660   16.4798231672
   4.8605853893    8.8726473313    1.6506116599
   8.6780894292   13.9274198736    7.6360897925
  12.4875464896   12.8757006021   13.7990932153
   4.2817406663    1.5721715968   16.5033037035
   2.0463918986    3.2916864189   18.1542656379
   0.2781383450    6.1822054351    6.1824746301
   3.8846799207    5.3895958004    0.9158356715
   0.8515781978    3.6871695231    5.0514730489
  10.6233110237   11.4645392681    5.9603898959
   5.5839228344   18.0753079418   10.4309935098
  16.6905688400    1.0388428989    1.7342833436
  11.5316385010   10.8596645846   16.4421379638
   3.0769826680   16.3734600523    0.0756714608
  12.2904152778   17.0749235901   15.8262991730
   5.8157617542    1.3267686038    9.9326227772
   2.1535372581   14.2364324483    2.0751498592
   7.1891097120   13.7319499442    1.6188043994
  12.0055037414   19.3760948436    4.4928223925
   6.0188784856   13.5398670680   18.5327358423
  15.1535414917   15.6145651071   10.6812939361
   4.0906848681   18.9847963062    3.8115858265
   5.0081636433    1.3098989506    2.4399204125
  11.7873671986   16.0499150537   18.5691402060
   6.8807790213    2.6846071679    6.2137434300
  13.5607298060   18.6153070367   11.3440858686
  11.6874734423   15.1962071154   10.0294729392
   3.0780064810   15.5257788183   13.0806483234
   4.8178323854   17.6978464784   14.4766685003
  10.0957802356    4.2435893504   15.4993295694
   9.7634006240    4.0554866339   17.9237350900
  -0.7122373895   17.4847278999    8.2608734677
   9.6323574792   13.2955303423   11.5652110364
  11.9791605803   14.4595197499    4.2834739873
   1.7066303525   13.7762108842   10.1003200707
  15.7640671205   12.4361975946    9.5357762588
  15.8744854067    9.7448830859    7.1318327250
  11.6340528604    2.9945670412   16.9484529364
   4.0895593197    4.8320569543    5.8063956061
  -1.5870478997   17.2118728985    4.6347659866
   8.7784819760    7.2921901014    3.4345630032
   8.4651079946    7.0283938652   15.6688280869
  15.1184752938   13.2561100895    3.9087736212
   2.9471198704   13.5683321514    6.8090351830
   8.8318848514    7.8027210897   11.6283402073
  13.1830344211    7.5176705176    4.8050472225
  -0.7757930030    8.0096160040    2.8401447088
   0.4484653875    6.7030646166   12.1073969538
   8.7190034310   14.8521075812   17.8185422860
  10.7701741715    6.4103340334    1.7069764300
  13.2130549678    9.6119720514    2.6896452145
   9.0152562283   17.8176810409   13.2157000778
  16.7048114126    5.2149906488   11.2714610091
  15.9425208255    7.0794697614   12.5538493332
  16.7863415467    5.3686596179    1.7237691297
   1.9577408520   11.3599682517   14.8788392338
  12.4564935304    1.4459787458   14.4616711334
   5.7478097364   11.1989011894    5.0837735424
   7.9208111391   18.9808424258    7.2968837775
   9.8349969274   11.7159282575    1.0338034738
   0.3276870029   10.0027078752   18.2903204974
   0.1414521432   19.3833539044   12.0356281758
   1.3828506167    2.6490721413   11.6885082528
  -1.2525296637   11.5436851695    0.3320299675
   9.4865869096   16.4545196121    5.2487405723
   0.0375734383   13.4502712256   14.4892520486
   3.6959543548    9.9343429721    7.3687476840
