B2 C140 Ca1 F48 H298 O66 
1.0
1.7948724728259830e+01 1.2385439436253312e-16 1.6664348646593294e-16 
-2.2704786606756429e+00 1.9367786449707243e+01 6.5579681372416945e-17 
-6.3756873836268513e-01 5.2202205452110062e-01 1.9659134768306242e+01 
B C Ca F H O 
2 140 1 48 298 66 
Cartesian
  10.2689507947    2.7838393817   16.9635975147
  -0.8955966046    5.9005752730   12.1729248995
   0.2178112861    0.6554432215    1.6927235253
   7.5055482101   13.9663008672    6.8447938770
   5.2862981333    6.2834003709    1.3069060286
  12.6313541331   12.5788869748   12.7312666287
   4.0026267825    2.1713883437   16.0430625637
   2.0363754787    1.4182308701   18.9247302601
   1.5907035007    2.5802150775    5.3370011215
   2.5501990638    0.9235274510   17.4997040537
  -0.5020581383    3.4781024015    6.2051402773
   3.7287135568    5.6876427266   19.0527898884
   2.2853258862   15.6220479513   19.0235010762
   0.5302265965    3.2762799667   18.3680138163
  12.2439025623   15.4103012957   15.5009134431
   4.5114411504    9.7189886139    0.7883562181
   6.4665406479   16.7244468854    8.9550538721
  13.3430187254   11.7252442899   16.2722103615
   9.6133028051   11.5777270648    6.3097712331
   9.7561229841   13.1788975483    6.2129644249
  13.3630483080   11.5776821067   14.6979531843
   4.4374214420    7.5374731080    1.5914887636
  11.2354116014   10.5995250394   16.8466578610
  11.8580534312   11.1417548053    7.0629044716
   0.0122120143    4.6758031884    6.9651753508
   0.2311905472    6.9568202467    6.8580306308
   5.1695039753   18.5847745766    9.6792465004
   2.6161067066   16.0040484940    1.5930532210
  16.3984795025    1.6225072131    3.1481213946
   4.0670337277   18.9242090373   10.6148989780
   2.1897601653   14.7280133072    2.1202946580
  13.5192642123   16.3603868332   17.2866090687
   5.2979398568    1.7478172946   11.0887954298
   7.9261240321   13.2255870852    2.9219015995
  15.1693945820    1.0777338591    3.9067342580
   6.5481219258   14.1199943890    1.1451929531
   5.7874677936   14.4572570770   19.2991441430
  -1.6000358174   15.2606217600   12.3918257078
   3.0820572462   12.5960164753    2.6320491247
  13.1584382243   15.4119112441   18.5405007509
   5.9648959898   12.7261684504   17.7160809237
   5.7066137493   17.7989157057    3.7682037848
   7.1357819203    0.2878348608    2.5786245518
   6.0654371961    1.2905694576    2.7938083315
   3.9575259528    1.9101923097    2.3857895061
  -2.0679326848   17.1167252029   11.1157820171
   5.9919862348    1.1200809736    6.4738198550
  12.6675781706   14.9312638708    9.0757640490
  14.3728616586   17.1714871323   10.7224205047
   3.6527499293   15.3444775328   12.4341326363
  12.9988581416   18.0737279611    4.2982564629
   7.1303413469    2.2580563954   18.4774853610
   8.0712526078    4.3896267233   19.4348519787
   8.1691048896    3.4144431026   18.2158552343
   4.3625636124   15.1188809507   14.7448948825
  12.6427569850   17.8415651370   12.0930354108
  10.5094879721   14.6128194658   10.1073394909
   9.4385174297    2.5687082196   13.2817266821
  12.7079920440   16.1583778375    0.6829048686
  13.1435747488   12.7147503938    3.5912811075
  10.0276323192   13.8508285750   11.3207564674
   5.0722964476    3.1548297674    6.6383010667
   2.1349126226   12.4586606147   10.9638525162
   4.7815221710   16.4483336852   15.3650834886
   1.4457729774   18.4685278430    8.4842131792
  10.4293968576    2.7152828106   14.4810473351
  11.5117320791    3.8622600906   14.1863696928
   5.3270678456    4.6138483529    6.5332959323
   5.2919514886   18.5010513688   14.2847656845
   9.7096980178   11.7636310849   10.1523736481
  -0.9550301704   13.2905283806    8.3163876349
  15.7292543471   11.2031715261    8.4089833892
   0.3231605670   17.0888874218    6.7241758032
  -1.1330732015   10.2009236671    7.9145744048
   5.5148108639    6.6260276800   15.7394518624
  14.4755318224   14.7339045330    4.3460033389
  -0.8164727993   17.7131822715    5.8005154999
   3.7997324988   12.9227136116    9.3073825157
  16.3267674030   10.2156924294    5.5937428581
   3.9337281592    6.2710853225    5.5246759856
  11.9246665124    1.9637594573   18.6067157077
   2.2149895158    4.8145872661   13.4262375182
   9.9318356462   19.7898536421   18.7690221079
  15.8221340114   14.1793621510    4.6607952861
   6.9193483087    7.1078308033   16.0875756825
   3.8611991294   13.6753961855    8.0048525679
   8.0125966170    7.4306488642    4.5495132700
   0.4988304375   18.0484119570    3.8298623125
   7.2455054097    8.6721416598   15.9508123353
  10.1839743332    7.5128835611    9.6825031796
   0.7729920439    7.6665927329    2.8800961716
  13.1385956035    2.8519854111   18.9775506755
   2.0900334758    5.4537829024   10.8317043668
   1.4166260158    5.0790688563   12.1226279417
  10.7214915561    5.3536895056    3.2519329825
   9.3124884786    5.7500186227    3.7765929701
   8.9751957638   15.2365894374   17.5814323006
   9.1958718673    8.0996511705   10.7989682685
  12.5681549689    8.3220234784    4.2833137154
   9.0548673266   18.5215507972   11.7817146454
  -0.4499921388   12.9897826811    3.3800805954
  14.2007242668    6.2021801523    6.5681981144
   7.7216673904    8.4852076819   10.3982095005
  13.4627775252    9.4195859322    2.3071595350
  12.2943898719    5.4650329719    1.5984546119
   2.7466071883   14.0625578204    5.7875900511
  12.7970703185    7.8532723788    5.6250243947
  16.4995892715    7.2198180102    3.3198595699
   9.0589109381   17.6562470070   13.9682407004
   9.4356029798   12.9629575468   18.3623561296
  15.2619778834    7.8301611274   14.5966879398
  16.3294440048    7.7503409955   13.5760590210
  16.1517169994    6.3633755853    2.0622460127
  15.0829933377    2.9815817596   11.2858884436
   8.8648554942   11.9678500853   19.3339252685
  15.2150924292    4.5186032584   11.3471047703
   9.9515901102   18.4078662930   14.8660528310
  14.5517968483    5.1624761055   10.0975337787
  16.4608826005    9.1001860222   12.6886876267
  11.7529733709    0.4163965595    6.9186207228
   3.0693572037    9.6950609174   16.1400113366
  -0.5528022504   10.1816481065    0.2329091535
   1.3754239050   13.0008240680   15.7773720402
  15.9673084156   12.1902570206    0.4508176816
   4.9878135932   10.2075853356    7.3608852980
   5.5201354747    9.9840729388    4.3930201824
   9.7471337589   16.5020733204    5.7946110568
   8.5961081267   17.6404807993    6.3326843697
   1.9462629928   11.8116416997   16.5440107844
   2.5892769236    0.3384070324   12.5730616828
   1.3340377641    1.0349547572   11.9961227149
   1.3146704061   17.6449268384   12.6327249572
   0.5947722081    1.4195299792    9.6725371364
   9.9496102900   10.2920091392    1.7862907073
   2.6201107102    9.9504999558    7.4702518033
   6.2797466557    9.7473564780    6.6452496676
  13.6837489027    0.9459846109   15.0578133089
   0.1248459446    8.1904753107   18.6866424945
  16.5077509356    4.4898033424    0.6165007145
  -1.0445136072   12.9928631982   15.6707571596
   0.3054878905   10.3738903884   19.5314801394
   9.6366162438   16.6240055706    3.3603995886
   8.8565526628    6.1671844718   13.6094980882
   6.7939181484    1.6946228688   17.1890320957
   8.9293725862    5.4287842132   19.2853069741
   9.0788820368    3.8653432426   12.8265640059
   7.7509847584    1.3659779331   19.1636450216
   8.8493821435    3.3387698359    1.0201702220
   5.9605684983    2.5501943160   19.1087748335
   6.8394764197    4.9367866628   19.4434402610
   8.2771463261    2.0537781314   13.7377264271
  12.0071513827    3.7994619288   12.8989392424
   9.9090690061    1.7828838447   12.2532097422
  12.5614941394    3.8580288711   15.0738656784
   4.5517068439    7.2096053393   16.4791410603
   5.5046541073    5.2912882049   16.2903371686
  10.8158607443    5.0402348336   14.3179348855
   5.2279493204    6.4081145445   14.3727891342
   2.8596692982    3.6840574031   13.1936662389
   8.7591090602   19.2305557493   18.4615211923
   2.9536793309    5.7735227195   13.9471291347
  11.4956137220    7.5861885150   10.0842014571
   1.2786518699    5.3079764300    9.7718418970
   7.5548529628    8.8491192501   14.5758445202
   8.3041917163    8.9016896871   16.6635118952
   1.3686973893    4.6754000918   14.5853949490
  10.1371771989    8.2746525573    8.5718324402
  10.8448524734   18.9704390314    0.4299571546
  14.2892495457    2.5273644264   18.2428928028
  10.9135056500   19.3859163643   17.9599677198
   3.1973727347    4.7305022972   10.6302273178
  10.0288774407    6.1190790558    9.2981185519
   7.1495755811    9.0296448338   11.5335840972
  14.1047293950    2.0543362431    0.6094038981
  12.8857965733    4.1475638467   18.8435595780
   6.2847084322    9.5207231777   16.1771352700
   2.4625468269    6.7543059776   10.6797881819
   6.8497042709    7.4640398024   10.0100569656
  15.6137298064    8.8480735940   15.3972223606
   7.6008527500    9.3844350784    9.4570923171
  13.8037263283    2.5601870056   11.0701672244
  13.9607538348    8.1157031079   14.2567009443
  15.1914824717    4.4972654960    9.0140490918
  15.8057702355    2.3723645298   10.3849107251
  14.8870596631    6.4812107312   10.0374179509
  15.3962224482    6.7184603569   15.4472878769
  -0.8166669267    8.9004749997   11.4955197138
  15.3886949723    2.4908066636   12.5403850005
  -0.7767960167   10.0323103233   13.4356556798
  13.2215620630    5.1193744764   10.1636320444
  15.2203810438    9.7367417163   12.4642770751
   1.0337054334    0.8601035669   19.1094003560
  13.6449926081   12.8300058340   16.4818393091
   1.8691224148    2.4110143477    4.3754980986
   5.8793470605    6.0327581824    2.2666440176
   5.6879374736   16.0918253183    8.4275559310
   9.2906627292   11.4027619927    7.3371299899
   6.0951032389    6.5839579099    0.4379072524
   4.5697337449    3.1220702927   16.2456141235
  16.4701872844    3.6918354004    5.7635293352
   0.4897724961    1.7534227016    1.4517746270
   1.1930956282   15.5199797812   19.2554412300
   0.3462177529    0.1082697830    0.7600327230
   6.8308949014   14.3185027855    7.6834549722
   0.1397298271    2.3599211701   17.7937482026
   0.9892786518    0.2793946566    2.4891065256
  11.7364887059   12.0170810063   12.9390277410
   0.4023081348   19.2476492857   17.5317389442
   7.4123458997   14.6306744414    5.9892272187
  13.0637447973   15.2131156025   14.7608006810
   5.0292144583   10.4157602462    0.1192208514
  13.1234890380   12.0557570349   11.8459953341
   3.6708481843    4.6422232618   18.7864065633
   2.7206817951    6.0071917287   18.7030923824
  11.6514491318   10.1569213019   17.7000296971
  11.9332796066   10.2053363845    7.6682766129
   1.6881199390    1.5938229633    5.8968882049
  17.3753158360    2.6478536717    6.9320002608
  10.7105711372   13.5573215094    6.5600659188
   3.0786657927    2.3170808094   15.3896652266
   6.0536486994   19.2406450870    9.8547586804
  12.3015134995   14.5331650676   16.0309959741
  12.4828051756   10.8614261383   14.4738068090
   2.8698219376   14.6772160675   19.0052110299
   2.3782370184   16.2307708505   18.0702757580
  11.2405144090   15.5503164813   14.9108786572
   6.9099813054   17.4287233896    8.2808463688
   0.9124582844    4.0149517934   17.5898392468
   3.1692483735   16.5768959500    2.2462917356
  -0.8248154452    6.8926413653    7.0665287671
  13.8659533085   10.9946254585   16.8680811980
   2.2958699640    3.4080416665    5.7788755363
   7.3180615404   16.0574226886    9.3913546211
   8.7978500616   11.1891732181    5.7533486840
   4.0761860121   10.2423655644    1.6166740542
   7.0270842693   12.8756466996    6.6442198415
   3.6296397659    9.2672286089    0.1063805298
   4.4844085572    6.2801463392   18.4373071689
  12.4996802099   13.6219008878   12.3744354500
   2.6880970311    1.0322682183   19.5852269842
   4.7109772363    1.4103671408   15.4791104715
  -0.1566585741    3.7221592397   19.1163540343
   1.7098632632    1.1461957210   16.7425531824
  17.3014954973    1.7568597440    3.7424685562
  16.1573118491    2.6254343220    2.7503499228
  11.2897252282    9.9348108714   15.9743476191
   4.2202724360    7.6810394538    2.6384021169
   3.4743278735    7.5620588757    0.9227930089
   0.4210578834    7.6876733468    6.0717832849
   0.8458156694    4.3587035761    7.6602689389
   1.6688872193   16.4748970054    1.1587779676
  12.8944128094   11.2528816013    6.5861088131
   4.4732682797   19.0468796398   11.6687020692
  11.6383885952   11.8274748405    7.7885909609
  10.1638817295   10.8518777895   17.0837703835
   9.3890630932   13.5809741675    5.2226046197
  14.2197619018   10.8293623693   14.6156840590
   4.6183530157   18.7054110464    8.6588720237
   7.8771622735   14.2092598493    3.4896559856
  -0.7603821249    4.9980011683    7.6425474163
   0.8569530693    7.1733134405    7.6589059878
   6.5917236838   15.2009259316    1.5691902219
   6.2207674754    2.3814311554   11.1920481259
   1.4355496656   14.1358033378    1.6474329026
  13.7080575808   17.3421039218   17.5911783643
  14.4494674398   15.9308307387   16.7591637448
   4.8390240305   14.9232847198   18.8235208452
  15.3679256748   15.3981687975   12.7514000626
   8.8980015245   12.8548559343    3.1221443760
   4.5203067697    2.3936589584   10.6954785360
   3.4370726285   18.1010011139   10.4904873914
   6.0257062611   11.6646084341   17.5860908823
  -1.5206386754   14.1327254931   12.3847556924
  14.4710356096    0.8051120193    3.0397076590
  14.7754072583    1.8684041842    4.4396487394
   5.4084405052   16.7944631748    4.0970291300
   5.9901225229    0.7298566811    7.5157062894
   7.3957887131    0.0984201609    1.5130799362
   1.5328032201   14.9844853071    2.9367194059
   5.9735339435    1.5719309057    3.8019602280
   2.9388708771    1.6942963798    2.1729433847
  -1.9663331473   17.5689073173   12.0880004709
   2.6149206833   12.3937039329    3.6025714793
   2.5124870213   12.0753267836    1.6826446940
   7.1890152815   12.3898712682    3.0950009780
  12.8630221959   14.3918111926   18.2235540470
   5.1650223281    1.3268380179   12.1467153713
  13.9834473403   15.3546319143   19.2470627857
   6.8811686164   13.1765892020   17.1970755044
  12.3510317471   14.5977337290    8.0501359957
  13.8049765288   16.2312928816   10.8693420746
   5.7991289628   13.8290723249    1.7842924858
   2.7315132556   15.1909498586   11.9253588709
   6.0155465859   18.3607429442    4.6896869664
   4.3087745879   14.4537733251   12.1268507565
  13.6843235786   14.6398165746    9.1917933590
   4.2588519457    2.8052407826    1.7990425783
  -0.7892510102   15.7126931210   13.1482673333
   6.7045594838   14.9186128684   18.8678921375
   4.0335823129   12.0189477753    2.6120534270
   6.6857584213    0.5163950828    5.9721158327
   5.0418472043    0.9972703288    5.9622521895
   5.1243327702   13.0717484769   17.0768051990
   7.9078394094    3.9806227181   17.2839310072
  12.3986923973   18.4460134065   13.0135984136
   4.0396313766   14.4169405552   15.5582472780
   5.1716052639   14.7387369074   14.1159536335
  10.0116815389   14.3633950775    9.0409109704
   3.9598544358   16.3424334736   12.2636679724
   6.5181993544   17.7431264306    3.0861831495
   7.9632762540    0.7905251921    3.0729246991
  -1.4046944410   17.5705441317   10.4075214106
  13.9174153829   17.6267346130    3.9615337118
   6.2920825071    2.1245529302    2.1070238623
  12.3690038281   18.2694440002    3.5138068678
  12.4063321713   17.3091190814    4.7525909462
   3.9308814161    2.2796851921    3.4714357874
  12.6617287796   16.0089555305    9.2847262748
  14.3598980947   17.3757231385    9.6687175976
  10.6345613983   14.2271099928   12.1220026545
   1.4414343579   18.6700653484    9.5266502443
   2.9038266043   12.4559763289   11.8080492341
  12.4691273502   11.9483427112    4.0132904784
  14.0849846727   12.3311662155    3.3776445582
  11.8891833813   18.0415778376   11.3194324979
  11.6689248997   16.5370361011    0.8111728524
  12.9984501377   15.7176339672    1.5622510334
   1.1128833902   12.7312230008   11.2035350795
  12.6837644566   16.7856891844   12.3543061510
   2.1356951754   11.4262195781   10.4743294641
  12.6178486168   13.2165569486    2.8109584748
   4.2485689731    2.8825005365    5.9832203608
  10.3392717787   15.6760765758   10.3709166522
  -1.6626727192   13.7751110470    7.6507179550
  10.4324002991   10.9379699827    9.9269985423
   4.6363592666    2.8173616448    7.6299786526
  13.4991050501   17.0430341999    0.5723318173
   5.9046698643    4.7815529183    5.6620682306
   5.9592563759    4.9592982820    7.3644748246
  15.0470451236   11.4719741783    7.5654665192
   5.6699789778   18.9476814645   13.3166862620
   1.3413013821   19.5125375045    7.9362993787
   2.4637288011   18.2586437589    8.2159907103
   8.9478445452   13.9649161163   11.4853760415
   5.4786878400   16.2519154035   16.2504212929
   3.9084024226   17.0071439586   15.8034011212
  -0.0833658946   12.8173961945    7.8781898748
  -0.1453454998   10.6404302172    7.5938478287
  11.0407590525    1.7668157246   14.5589886903
  14.4879116383   14.9095222846    3.2311572393
   6.0532441924   18.9786074856   15.0617755555
   9.6140241486   12.4434212824    9.2693037678
  15.7764749957   11.2159414646    5.6183464968
   4.2180074355   18.8110248361   14.5387360713
  -0.8273127328   18.7784941312    5.9196456510
  -1.8016123345   17.2637068845    6.2037227755
   8.7703055881   11.4085123105   10.3522515611
   3.6185743753   11.8471473967    9.1499395462
  -0.5844289951   14.1728138618    8.8417796789
  14.4134832774   15.5080133789    5.0673982719
   4.6199847850   13.1110905116   10.0109304218
   1.2905160691   17.2499957599    6.1040624727
  11.1691500367    2.1192940241   19.3968617123
  15.2852302352   10.6780514345    9.2968363290
   0.1573862576   16.0454920476    6.8465032447
  15.9108192130    9.6814142746    4.7490886015
   3.2202637493    5.9915975433    4.8395816913
   7.9409285731    8.5500933254    4.7115439030
   4.8833766359    6.2217745321    4.9766546415
  -0.8118226202    9.5077872958    8.6954580164
  15.8522678669   13.5888773174    5.5979095999
   1.1366888589    7.1155915653    3.7784172832
  -0.5611152103   10.4321789108    5.3003386868
   0.4506833365   17.8880425219    2.7783343881
   1.5013700258   17.9211166903    4.3151802722
   3.9991846849   14.6978383483    8.1613852310
   0.8670106933    6.9781199367    2.0956298695
  -1.4119811743   15.0287690803    4.8927314977
   4.7093771977   13.1928301643    7.3493334217
  11.5435871280    5.7215847427    3.9801195434
   7.0498941861    6.7322805823   17.1651545514
   3.5768816918    7.1440023626    6.0210098044
   1.4133648028    8.5240482883    2.7178950816
   7.1749682317    7.2638302982    3.8755663490
   8.4822888349   16.0556024900   18.0142517631
  10.7429229312    4.2358304670    3.2070352417
   7.8403321411    6.7550009814    5.3735295157
   0.8418872647    4.1719719346   11.9607584541
   7.9667636900   18.5309817451   11.5538470186
  11.6390283358    9.0726640640    4.3143899779
   8.6741972594   14.6950305615   16.7126547235
  13.4744269966    5.5982920749    7.2152731497
  12.2549321398    7.5387505944    3.5728316688
   9.3183860330   19.5307643887   12.1503319409
   0.2826910393   19.1764165401    3.9270176637
  14.3604916160    9.9552867977    2.1416603809
  13.0860099882    5.8236733551    2.3755120936
   8.4863342539    5.6373430001    2.9462341934
   0.0290795818   12.2551482833    4.1516308110
  12.4968505955    9.9743301837    2.1703532893
  12.3461975842    4.3000217483    1.7882379937
  10.0575075431   15.4864171115   17.5972079639
   9.0653571398    5.1234876970    4.6741247288
   9.6040291692   18.3456465975   10.8288898882
   2.1298162680   14.9698762134    5.7934279786
   0.0491615583   13.9080914212    3.5300730486
   9.7080247889    9.0509338142   10.9285892505
  14.4538806763    6.9614124456    7.3274844667
  -0.2423934483   12.4959548302    2.3831842320
  15.6791920355    7.7603587510    3.8844210042
   3.8525547721   14.1894038641    5.5140104803
  15.0957118918    5.7107652413    6.3702519104
   8.0232522941   17.9599205606   13.8918489563
  16.8564474307    6.3686608841    3.9269168178
  11.8402588033    7.7078809187    6.1191518793
  13.4831983426    8.4796640567    1.6914075101
   2.3250058648   13.2351403867    5.1531541317
  13.4091711715    8.7052225091    6.0420213997
  12.4923672240    5.7650824513    0.5661035288
   9.2016960419   12.8457538569   17.2206247444
  -0.7608133888    7.5648728730   14.2210646116
   8.7244551364   11.0529445039   18.7534994999
   8.9047252622   16.6725517853   14.3773413593
  10.5406783502   13.2117384577   18.4366284844
  15.2614038796    5.8889749330    2.3462125906
  10.8891462834   17.9276696258   14.6060338841
  16.1698218562    6.8022252405    1.0549561377
   8.5326247465   11.7218403781    0.0802759157
   2.3658547204    9.0052007345   16.5419708209
   1.0771437361   13.7229261678   16.6320090756
  10.7381210285   16.9722879765    5.7947769156
  11.2415880466    0.6062766663    5.9505635987
   5.1182727500   10.2933982501    8.4714901960
   5.1612028777   10.7833651007    3.8455940270
  11.6448071588    1.2494456552    7.6309096229
  16.8200793721    9.3559830723    0.9386520806
  -1.7002728194   10.6554322999   18.8971921789
  14.5763563148    4.8105204842   12.1152772169
  16.0553228565   13.1396079141    1.0525008060
  15.2178826684   12.7345513597   19.0898055902
   0.4145225684    0.3592124690   11.9782299179
   3.3422141495    1.1061084505   12.7109424546
   0.7523778394   17.4753184144   13.5823780381
  -0.1155524960    0.6602238050   10.0578433803
   9.7555210020   18.1990968524   15.9730295211
   4.7683406899   11.1917710496    6.9467296377
  -1.7753549617   12.9540014957   14.8821350833
   8.8627685894   17.3625331597    3.1775109666
   2.2158475886    9.7956388517    8.5221338997
   3.6940634253    9.2967341892   15.3310515846
   8.1444337692   18.2056205329    5.4572675388
   0.8609082648    7.9108617826   19.4821990930
   2.1468497255   13.4962106067   15.0868397541
  10.6433071597   10.3455768635    2.6314186167
   2.5536120540   11.0183203045    7.0858801958
  12.0937460723   19.5201442913   15.2774662883
   5.7178743240    9.2031031022    3.6980171619
   2.7285398630   12.2411923368   17.2108875846
   2.4008524485   17.9318663241   12.8686745924
   1.0527126930    0.8725747551    8.7718163896
   9.6416264468   15.7063921875    6.5380542570
  -1.3100029181   12.2511917631   16.4959953683
  15.3882598746    4.5706758603    0.6379293821
   3.8061379102    9.8591311841   17.0142291263
  15.1207489516   11.6413781018    0.8244666096
  12.8276672260    0.2569068438    6.8234415471
   4.6018909085    9.5219834808    4.8689334766
   9.7495132530    9.3161542816    1.4181538482
  16.3459998944    5.4829840501   19.4134203111
   7.1161229271   10.1798134906    7.2259967681
  14.0724318743    1.6148385517   14.2648971402
   0.4347813935    7.6540643801   17.7817625895
  10.5592057358   17.1380438889    3.2682655425
  -0.9706701172    7.9824754355   18.8732568229
   0.0792025583   19.3479383575   13.6281541901
   1.1153296545    1.8703247611   12.6978789423
   1.1461584781   16.6991930615   12.1847924147
   0.0778329638    2.3162263118    9.3240114595
   1.4889457816    9.2523320202    0.6858798222
  17.0183978394    3.4548577774    0.6254724205
   0.8413966970   11.3661018246   19.2523364183
   1.3011105611   11.3063841230   17.2210547208
  13.6027750007    1.5654333671   16.0814933878
   9.6485764606   15.9257623334    2.4413555208
   1.9479191980    9.5497061671    6.7460988908
   7.7543653851   16.9973607779    6.6766535863
   6.3032406677    8.5729531802    6.5891190475
   9.0751901145   10.8234649798    2.1515878661
  -1.1316334927   14.0359325237   16.1484903319
   5.2479195807    8.6702836231    1.2883112536
   8.9035355521   13.8791163234    7.2067730636
  13.4905323974   12.7949942697   13.9411543481
   3.7674063605    1.5948144074   17.2824748172
   1.6855711166    2.7927882925   19.1386233747
   0.4772122903    5.6952435346    6.1352083796
   4.4934287003    5.1772846451    0.7787171904
   0.2887383497    3.0969209856    5.1410436028
  10.9452733731   10.9991952928    5.9112497455
   5.6723322943   17.3290797511   10.0157587681
  16.8280935433    0.6104834051    2.1085294056
  11.8839379217   11.8116709052   16.7413307985
   3.5798888369   15.9054934805    0.4626754215
  12.5158258344   16.5559822783   16.3650772739
   5.5948183031    0.6675363013   10.2406012451
   3.3779494117   13.9538705928    2.3865270725
   7.6964952719   13.4027893868    1.5987289640
  13.1782885177   19.3720607180    4.8985218509
   5.8253461467   13.0785699409   19.0741411913
  -1.4464205757   15.8217062951   11.0815880302
   4.5517454060   18.3968911920    3.1540295961
   4.8459949567    0.8037308047    2.2690107007
  11.9473709031   15.8585665466   19.1811709967
   6.2345388251    2.5074296100    6.3211183851
  13.9273041966   18.2088104697   11.5790241450
  11.8575903258   14.1598650363    9.9743820787
   3.2582814183   15.2141154596   13.8125686167
   5.3471282290   17.1504294040   14.2353326929
   9.7815980760    3.0976470640   15.6841981328
   9.4494932278    2.9590169981   18.0778348367
   0.5126895410   17.5186602701    8.0857795371
  10.3122533776   12.4343072150   11.2580047463
  13.4119459310   13.7861764147    4.6625615523
   2.5927215062   13.3722504234    9.9129269348
  16.2110772519   12.4160025426    9.2268063695
  16.1750914876    9.4529555533    6.8061874938
  11.4742485501    2.3015749903   17.2495979941
   4.1351100628    5.2406996580    6.5097420001
  -0.6067675080   17.3989354403    4.4201466314
   9.3145407237    7.1595174755    4.1483610901
   7.8208148981    6.5170579197   15.3241693495
  16.1354984800   13.2661383367    3.6112865950
   2.7540188150   13.4658852764    7.2159432207
   9.2680839888    7.4383299421   12.0150500816
  13.5781534125    6.7058686449    5.4077640556
  -0.5196301905    8.2418066132    3.0581172358
   0.4306365171    6.1276296181   12.4216628361
   8.7187040053   14.2119412902   18.6320872853
  10.9424802858    5.9294929249    2.0227790250
  13.6507229060    9.0192759566    3.6742491722
   9.5086926477   17.4143815425   12.5773414180
  16.6328380164    4.7777820173   11.4508484861
  16.0435738320    6.7067050877   12.6187842947
  17.0044546757    5.1334639490    1.7750851193
   2.4148671583   10.8320059472   15.5848835048
  12.3604234599    0.5026798739   14.5586571039
   6.4892378924   10.3572029437    5.3615521354
   8.9328162307   18.5170647224    7.3886048742
  10.4462434765   11.1844676698    0.7053173991
   0.2977441040    9.5411941408   18.3279551260
   0.6693755767   18.6266188729   11.7635785113
   1.6416879235    1.6645634944   10.7151739097
  -0.6744689532   11.4788668766    0.7047550718
   9.4260712860   15.8922724525    4.5792197594
   0.2280748717   12.7939055556   14.9753007933
   3.8497235074    9.3655078089    7.1002600704
