B2 C140 Ca1 F48 H298 O66 
1.0
1.9038503684363945e+01 -2.5820735216644737e-16 -2.7946140436869981e-16 
-2.7292848098775329e+00 1.9753362367679436e+01 4.3796119660281341e-17 
-1.0590111234062989e+00 3.5876722671920915e-02 1.9149141534263507e+01 
B C Ca F H O 
2 140 1 48 298 66 
Cartesian
  10.3407747636    2.2436825539   16.6129242993
  -1.1672697799    5.5932350217   12.0017339250
  18.7270444155    0.1498053681    1.2416521493
   7.9731592816   14.3774032406    6.8880344471
   5.7459881337    6.6881498151    0.9455898136
  14.2038525170   13.3165852909   12.5469544613
   4.0108640656    1.7215724808   16.0307914381
   1.9311080896    0.2149120287   18.7010870066
   1.2289735994    2.5497480058    4.5881910968
   2.7007876443    0.1919159598   17.3506981545
  -0.6782568954    3.3527955646    5.8908034938
   4.3434032523    4.8759518358    0.4663687382
   1.7909821078   15.7581080569   17.6005920804
   0.8199087654    2.4559300732   18.4652754366
  11.9666229178   15.2358283876   15.4828314171
   4.5176886848   10.0355577508    0.1845100731
   6.3803069375   16.6731456004    9.1963002003
  14.0916168691   11.6854457019   15.7120228476
   9.4645425948   11.6209434673    6.4412409017
   9.9877975605   13.0798958470    6.2691523426
  13.8349931704   11.8109294416   14.2315061881
   4.7399885855    7.7923500847    0.6731879857
  12.0867985783   10.8213300115   16.7888804532
  11.4302553974   10.1819451206    6.6224239541
  -0.2136810462    4.4142320495    6.7920278273
   0.0544530785    6.7877129080    6.7266740341
   4.7121996778   18.2733703043    9.2698380600
   2.5172479615   16.2586107387    0.7050918777
  17.1393625771    1.0494768140    2.8640874241
   3.8405111844   18.7613911575   10.4467792462
   2.1911038663   15.2158823167    1.6552144787
  13.6083374837   16.3616645621   16.9925049136
   6.0927349955    1.4093023990   11.0363752521
   7.6761049494   12.9491856119    3.6741740909
  15.8215075672    0.7978348231    3.5722694639
   6.4941900607   13.7307397765    1.8234210937
   6.4846620244   14.1047203153    0.2558809873
  -1.4973715597   15.0389700344   11.5923407965
   3.3601947596   13.5065563491    3.0317004823
  13.6287424917   15.2077407794   17.9324860765
   5.2910654011   12.8981486338   17.3045805618
   4.7163064072   17.3961028523    4.1292838384
   4.5693868960   19.5270477835    3.2024090159
   6.7706478947    1.1772243357    3.2862448197
   4.9328660160    2.3947423074    2.4361285043
  -2.3972709612   17.2122616240   10.7933033446
   6.3017565946    0.7405939965    6.8068576332
  12.9854149531   14.1602350640    8.4734133057
  15.1443710018   17.3224863561   10.5871715240
   3.5982453145   15.7986957000   11.9783332736
  13.4610812741   18.0807957438    3.8951918085
   7.2081945518    2.3633317674   17.7321325724
   8.4304009642    4.4106114040   18.7265204996
   8.2955986152    3.3742702987   17.7107740030
   3.9171182664   15.4052451297   14.3527639783
  13.1634023448   17.9585992717   11.4860778143
  11.2191168525   15.1124226364    9.7519420464
   9.4605666879    2.4045300309   13.0317191224
  14.0100437197   16.1642389013    0.8915721873
  13.9043443829   12.8096217305    5.2277844718
  10.6431405605   14.5226638713   11.0058358437
   4.8904303525    2.7202264700    6.6392565598
   1.3083353202   12.7683443913   11.3872530421
   4.2010565756   16.9017735738   14.7718633626
   1.0150127942   18.3609124340    7.8946593478
  10.4883900484    2.4194019149   14.1006192425
  11.8106242616    3.3139743616   13.7574338238
   4.9761224490    4.0133498148    5.8415008047
   5.3712365640   18.7064038446   13.9466730064
   9.8116841795   12.6824258019    9.8218277335
  -0.6053871602   13.4568995612    8.5328413798
  16.7926696668   11.8840526144    7.9075692156
  -0.5702071312   16.8704324097    6.7079508739
  -1.3583483949   10.9071809565    7.1609378865
   5.8936866928    6.2794452823   14.6057256541
  15.3909339316   14.5789889677    4.1093138737
  -0.9631730702   17.9377016148    5.6507904404
   2.6550508939   12.8132697552    9.4305642850
  16.7907888817    9.9546379382    5.0478965951
   4.0068133739    6.2067575712    6.1249264370
  12.0174591324    1.1742924655   17.9817401977
   2.1528865783    4.7258193503   12.9528145405
   9.7581102986   19.5620451679   18.3271816081
  -2.1384340704   14.4461604443    4.0413871146
   7.1328001428    6.6675069410   15.5232235871
   3.2204490627   13.7148014026    8.3224057558
   8.9927488801    7.8207193018    5.2120804873
   0.3367165340   18.5930685693    3.6768477112
   7.5797765190    8.0758220830   15.4308294698
  10.3976992114    7.4485293806    9.7287155278
   1.2877595069    6.4197558130    2.6433068739
  12.9971838476    2.2773541697   18.3734142637
   1.8509971242    5.0412994610   10.4470068274
   1.1590162684    4.7468080839   11.8535257670
  10.8912038587    5.0672253347    3.4373910915
   9.6345300189    5.6953872449    4.1737887518
   8.6918126129   15.6314954017   17.7887422281
   9.5506281362    7.9261233086   10.9263271385
  13.2509980665    8.2513651304    3.5215182005
   8.7196895683   18.2664952958   12.1720229105
  -0.6001762926   12.8412896877    3.4339522923
  14.7972553286    5.5810282430    5.6279736515
   8.0059548001    8.2071908840   10.4306992108
  14.5317501903    9.7775756384    2.1255024218
  12.3152677099    5.3411321355    1.4834492619
   2.3408293306   14.6895554393    6.2883537483
  13.6593703574    7.4358270712    4.6923420646
  -0.9944580465    6.6971466771    2.8495215315
   9.0585367455   17.6757973602   14.4176988858
   9.1143570550   13.2833707876   17.8372112706
  15.9475818518    7.7066092067   14.1299836961
  17.2013613703    7.5326169882   13.3416773191
  17.1116981654    5.8299914639    1.8727327414
  15.5272694564    2.8876062500   11.1919615837
   8.5840685914   11.9840152227   18.4656399424
  15.9902386221    4.3571098612   11.0956901832
  10.5457632889   17.9298795915   14.2568107606
  15.5337729768    4.7712810026    9.6053334096
  -1.5981500688    8.8504684231   12.5794303880
  10.5096030525   19.0554537541    7.0024175271
   2.5881523925    9.9869507041   15.5322375308
  -1.9538895370   11.0921016636   18.6478127992
   0.5588363051   12.9353123736   15.1670978526
  16.6529550868   12.8485582213    0.1096989899
   4.6666228805   10.2945603502    6.4604959595
   5.7347114614    9.2372801767    3.9259509534
  10.1659209880   16.8671122769    4.8279921028
   9.1917026934   17.8951107055    5.4856684211
   1.5424660241   12.1153004970   15.9728374798
   2.2708951861    0.5074890040   12.6990343438
   0.9387406667    0.8411144987   12.2243551397
   0.8874197964   18.2063042469   12.5654575681
   0.6904252127    0.8336701001    9.9325466885
   9.8457933406   10.6040828696    1.2093437475
   2.3590259635    9.8808310348    6.3215047688
   6.0107397632    9.6413177941    6.2371974681
  12.1776697686   19.6626820420   14.6530865368
  -1.1817501736    8.2996655437   18.0843024505
  17.4797720428    3.9969934491    0.2780604847
  -1.6084386529   11.9786348569   15.2423880711
   0.3696112840   10.4206629858    0.0652354254
   9.7297936323   16.9637690586    2.4471321308
   9.2931146265    5.8569309874   13.7197151723
   6.9137849046    1.8894115397   16.5244073923
   9.3523782573    5.3174924870   18.5120869955
   9.1058210610    3.6567948828   12.6128681057
   7.5626059288    1.2564560861   18.3840792038
   9.6335278815    3.9209658293    0.8670418108
   6.1228719626    2.9045273294   18.1913413377
   7.2826008044    5.2103223566   18.6343134510
   8.3077398156    1.8030458914   13.3385552218
  12.1077896086    3.4710991161   12.5113156047
  10.0379908119    1.6107604349   12.0255518085
  12.8725487555    2.9468823106   14.5646217423
   4.7083490357    6.9827656292   14.8606964504
   5.5358670537    5.0247719633   14.6271470798
  11.4757469717    4.5901210710   14.2674740983
   6.1929609066    6.5018916305   13.3075722057
   3.1453605488    3.7792743037   12.8931874125
   8.9304905088   18.5720732548   17.9693867956
   2.6801118891    6.0298483942   13.2403671225
  11.6354580206    6.9501255297   10.0521996103
   0.8470541310    5.0418332186    9.5616669186
   8.1741663374    8.3687376132   14.2313909241
   8.6283588974    8.3222104504   16.2170009241
   1.5012093235    4.3306227942   14.1671738663
  10.6307596079    8.4565046237    8.8206622243
  11.0301611975   19.4303221397    0.5364042030
  14.1555678539    2.2139899528   17.8051193693
  11.0140878886   19.3632150792   17.7107956743
   2.9159410549    4.2231031616   10.1333232423
   9.8153003884    6.3916910739    9.1021260423
   7.2926072468    8.4886058854   11.5238422949
  14.2289082514    2.4661346099    0.5724649792
  12.2446183381    3.3938368046   17.9392867625
   6.5870128941    8.9236276568   15.6295077107
   2.5349334117    6.2300056354   10.3430605356
   7.2827591106    7.1950483829    9.9131480266
  15.7850287865    8.7988294995   14.8456777144
   7.7208115291    9.2620449263    9.4915861602
  14.1232960659    2.7835139766   11.1815646347
  14.8545100072    7.6745553293   13.2213676022
  15.9970955956    3.9746973697    8.5417631245
  16.0577117175    2.0072619633   10.3724470468
  16.0773430172    6.0875245695    9.4864949263
  15.7567455263    6.6156763368   14.9181506277
  -0.7114414742    8.6817171517   11.5946148106
  15.9165768194    2.3610225634   12.4641269601
  -1.2040541703    9.9771005860   13.4193673246
  14.2120116613    4.7601322099    9.3662729708
  16.3341957232    9.2739844447   11.9813680496
  -1.6641348086   19.3014137277   18.5161846639
  14.7211499131   12.5728450777   15.8633660689
   1.3608047572    2.2004428197    3.5556168664
   6.2606171140    6.9891900432    1.8143208488
   6.5392011183   16.4666836220    8.1459059252
   9.3479991713   11.3606316998    7.5227043787
   6.2133538622    6.3165425217    0.0679217509
   4.5630945305    2.6482922922   16.3185609322
  17.3053093696    3.5423304690    5.5662950419
   0.4436556539    0.7245200997    1.8108888988
   1.4368455435   16.7513210495   17.2675303398
  18.6380215350    0.6202174414    0.2089790337
   7.8349962000   15.2367597867    7.4670721264
  -0.0683403874    2.1298848695   17.9705415747
  16.3365533609   18.8906625360    1.2031950960
  13.3849998471   12.9613223675   11.9345174614
   0.2925204653   18.8087755723   17.2196500532
   7.9751843670   14.6531161930    5.8131386207
  12.7368769640   14.3853188957   15.4088319560
   3.8945575795   10.9897584999   18.9369203597
  15.0443762493   12.6624584739   12.3141953403
   4.1186981497    3.7884170126    0.7016145441
   3.3834157474    5.3113954381    0.3477736084
  12.4144429948   10.4771334373   17.7794094919
  12.0824928247    9.5639341005    6.0129949649
   1.1228294059    1.6243218872    5.2896726101
  -0.6708954979    2.4163718234    6.4782690711
  11.0693607479   13.2477407895    6.3047053364
   3.0948957371    2.0049815222   15.5620766048
   5.5475595100   18.8854716052    9.2477268462
  11.1460949982   14.9385915662   15.9984364216
  12.8765575981   11.4199202295   14.0747444847
   0.9693101361   14.9985479553   17.5597688395
   2.6650500730   15.3905071457   17.0712562208
  11.6298243047   15.5450689208   14.4455007975
   7.0443366042   17.5403924532    9.4479792449
   1.4520522944    2.9441304224   17.7398603516
   3.0265660139   17.0396697875    1.2628967553
  -0.4004716993    7.7013945472    6.4125445809
  14.4174328914   10.6672733942   16.0532298933
   2.0754005658    3.1721340044    4.8746030200
   6.7874881988   15.8818406810    9.8103525091
   8.5030934264   11.3830868847    5.9318376395
   3.9671076144   10.3132327491    1.1234724235
   7.1533911593   13.6792217503    6.9347952974
   2.6013756684    9.7166557587   18.6331398968
   3.7152639032    4.8032935281   18.5845546374
  14.3808116060   14.3362076219   12.2824645485
   0.9084729606   19.5689950996    0.3285393316
   4.5263852662    1.1798533680   15.1859408178
   1.5474968293    2.9973399506    0.1004473562
   1.9178200331    0.3779920172   16.6303251442
  17.9073564371    1.2052906807    3.7305972550
  16.9762071386    2.0993321046    2.3926441067
  12.3154698561    9.9120462135   16.0810872590
   4.1124119303    7.9095781776    1.6480637305
   2.9842578753    7.6090409729   18.9988334725
   0.9610792081    6.6396211698    6.1568735585
   0.8429298983    4.6420708816    6.7023494697
   1.5925929209   16.5901200572    0.1803317860
  12.0884743778   10.9790179204    7.1185267641
   4.4875195837   18.7271251498   11.3176306098
  11.0855302216    9.5378765926    7.4163561869
  11.0425969456   11.1123897777   16.6983881388
   9.6717643128   13.3987906055    5.2224760272
  14.7742571786   11.3469257227   13.7045243133
   4.1237552035   18.4569217909    8.3541928419
   7.9126535403   13.9286579840    4.0366574365
  -0.3412486103    4.0113783927    7.8265575240
   0.1395744478    6.9384488261    7.8137127857
   6.4414054574   14.7303457328    2.4313550506
   7.0501062960    1.7340048359   11.3890114202
   1.7941841111   14.2449619055    1.0169984491
  13.7005187841   17.3417269029   17.5571341334
  14.5380548716   16.2239853966   16.3403642593
   5.7737799734   14.9212559161    0.1329316210
  -2.3823524842   14.8426100479   12.1163108495
   8.4077233704   12.2406511247    3.9269647896
   5.5404137257    2.2499286404   10.6616517843
   2.9833051188   18.1759179005   10.7026914493
   4.2621235357   12.6346706341   17.0337627941
  -1.0990380868   14.1408165914   11.1263046099
  15.0811398506    0.5100681013    2.8056345150
  15.2550589548    1.5720394828    4.2296066027
   5.3532320293   17.2268915444    3.1916384452
   5.9208009604    0.6986417521    7.8217103458
   4.4235050108   18.8897204945    2.3015998570
   1.2789230913   15.5206518770    2.2340489382
   6.9011645159    1.3944607654    4.3367400242
   3.8386655961    2.4381592254    2.3008000890
  -2.2566870098   17.3555478807   11.9098937514
   2.3815995414   13.3077212426    3.4176250308
   3.6113780662   12.6176560611    2.3231210443
   6.7404074211   12.5774458434    4.0823047690
  13.3631280673   14.3691520401   17.2821144582
   5.4648237163    1.1817439526   11.9063973432
  14.6376554993   15.1192305680   18.3380321256
   6.0383941546   12.2031397887   16.9099745815
  12.2117546158   13.7280614824    7.8161672047
  14.6973359745   16.2645269865   10.7408506104
   5.6439884874   13.0446255679    2.0972557198
   3.0545444618   15.2281298747   11.2008905602
   3.8032064608   16.8099441005    4.0619271424
   4.6768097751   15.8501233532   11.8632083037
  13.5883436975   13.2267423208    8.6889818780
   5.3167080529    2.6380985205    1.4532372335
  -0.7775709226   15.5393940815   12.2276616620
   6.4030979042   14.5809718200   19.1180176730
   4.1232312619   13.6044023899    3.8399059543
   7.3632372233    0.4275685635    6.6934937791
   3.0137795050   19.6323449102    6.2686267694
   5.5676445334   13.8145993920   16.8924890960
   8.2241699364    4.0945481955   16.8187798838
  12.4836471231   18.7107977234   11.8486492116
   3.5538045406   14.7710283665   15.0917774562
   4.9910087229   14.9712645774   14.1316871198
  10.6766750752   14.9436260226    8.7709363381
   3.4312220835   16.8998507222   11.9406229328
   5.3646162584   17.0015415143    4.8956714981
   5.6981280483   19.7023583707    2.9594277021
  -1.7625505983   17.9401819570   10.2508215363
  14.4740383744   17.7823590563    4.2094444244
   7.4039901905    1.8249959878    2.5896013704
  13.3127520053   18.0504609984    2.7379102632
  12.8871181223   17.1963349783    4.3018939967
   5.2024878291    3.2482687226    3.0408537386
  13.4936734613   15.0380988827    7.8564341304
  14.8261749348   17.6696904670    9.5307679644
  11.2083957259   14.6609066105   11.9157698771
   0.8531630346   18.9854554398    8.7471760700
   1.3290021339   13.5466688723   12.1239234905
  13.6713516969   12.6010595185    6.2232896488
  14.2820763472   11.8947788490    4.6943089022
  12.8539715474   17.8460045558   10.3403820075
  13.2113741498   16.1936325460    1.7109772109
  14.9389242656   15.8738647011    1.3485350972
   0.2258678728   12.4462958981   11.2651664035
  12.8240511339   17.0062685011   11.8945446619
   2.0876576790   11.9011265494   11.5188496219
  13.0358560965   13.0601276087    4.6070507777
   4.0292315294    2.0940692334    6.5665724708
  11.1752202562   16.2177802382    9.8987946702
  -1.1979418517   14.3977410468    8.2071536992
   9.6185191115   11.5515297123    9.7372877935
   4.9750665555    2.9503147549    7.7458599627
  14.1780315244   17.2500113763    0.5198793948
   5.1753679122    3.8030457534    4.7593834118
   5.8544230653    4.4161086697    6.3234923496
  16.4512793445   12.6091751273    7.2145329665
   5.9005645288   19.1013973662   13.1273114237
   0.9751498157   19.1044857469    7.0295557464
   2.0007281322   17.8709865756    7.7536905799
   9.7429052062   15.1583378823   11.3729274669
   4.6303201810   16.9575876209   15.7645787433
   3.2398853007   17.4311438192   14.7231438931
   0.0601792019   13.1330281676    7.7288609851
  -0.7692421814   11.4916810738    6.4189608866
  11.0535498983    1.4570063960   14.1159504700
  14.9800861867   14.0399922938    3.2486309524
   5.8386332170   18.9580619889   14.9305141331
  10.5858759534   12.7493342451    8.9743280098
  16.7727874454   11.0554907813    4.9453666207
   4.3973871301   19.2343196511   13.7370403933
  -0.5838515495   18.8132581767    6.0794329924
  -2.0622972980   17.9284160871    5.4009037424
   8.8549511645   13.1150751881    9.6498359778
   2.2844986932   11.9320424269    8.8206596994
   0.0620823895   13.6836523020    9.3035813841
  15.2160366983   15.6017497436    4.2051694089
   3.4825074254   12.4265900886   10.1331319902
   0.2034208575   16.2642719442    6.2291222519
  11.0528174942    1.2445222537   18.6451257276
  15.8631347531   11.2550153410    8.1259316409
  -1.2565432222   16.0859928233    6.9076746957
  15.7739866925    9.5262619236    4.8839408671
   3.3009861630    6.6668418439    6.7473916031
   9.5148088668    8.7137907794    5.5861888283
   3.8393437720    6.7512316482    5.1075263668
  -0.7413974939   10.3987334458    7.8441599523
  -1.7190851754   14.6923396609    5.0511950124
   1.2516379994    6.2240324695    3.6743733519
  17.4542830212    9.4559957503    4.3196744339
   0.4512088654   18.2940757510    2.6351680241
   1.3173719452   18.7316074961    4.0453020153
   3.2307258755   14.6058879335    8.8250140140
   1.3601763898    5.4281052651    2.0708963680
  -1.7153629154   15.2266812425    3.3484400503
   4.1822810811   13.2960081570    7.9581340221
  11.7792156028    5.0377895302    4.1116911184
   6.6400301670    6.6038840018   16.4836995203
   5.0624170253    6.4984150845    6.4787104520
   2.3316441055    6.8435331981    2.5797090812
   8.2897491208    8.0214025920    4.4923668914
   8.8412097976   16.4448215869   18.5797184930
  10.5968935295    4.0308186275    3.1947377529
   8.3465612292    7.4787430704    6.0840203467
   0.7577432264    3.7577015120   11.6737736675
   8.5292654936   19.2834413254   12.5516954729
  12.5598960633    9.1180340947    3.7195075085
   7.7556406865   16.0640768237   17.3442196747
  13.9340519946    5.1053565363    6.1253381014
  12.8045413783    7.7540130517    2.6479814567
   9.8097163837   18.2053507012   11.8090729183
  -0.1808597402   19.6304232416    3.6176167134
  15.1576997350    9.5314750217    1.2026373543
  13.1838946760    5.0939882687    2.1692637340
   8.8476062272    5.6059219110    3.4240278463
   0.0194161043   12.7928412013    4.3706669113
  14.9237723649   10.6833163546    2.6327999681
  11.8939631777    4.4685735614    0.9669486470
   9.6699560235   15.6833412798   17.2455074134
   9.3695127377    5.1184568936    5.0368523651
   8.1654059979   17.9361072761   11.2899567258
   2.1742974973   15.7028893338    6.8035994547
  -0.0998140136   13.5896024959    2.7979704186
   9.7181055114    8.9822143611   11.0501986481
  15.2805157241    6.1475126279    6.3115732044
  -0.5247592286   11.8558919963    3.0334182932
  17.4766243922    7.5634098464    3.0690982957
   3.2943696519   14.6503038079    5.7645003984
  15.5163759015    4.8592165678    5.2466705072
   8.6646489976   18.5835768466   15.0284135459
  -0.7392007732    6.0037558206    3.7190518437
  12.7753426213    6.9519892292    5.0843509631
  13.4784769782   10.0296054367    1.8555080125
   1.5444952321   14.5461585200    5.6458279044
  14.0288685663    8.1250147130    5.5604420825
  12.6135558490    5.9827506848    0.6857817070
   8.9249402586   13.2583394246   16.7784815342
  -1.0844310316    7.4246760745   14.1682814956
   8.8339708964   11.2144285621   17.7005101921
   8.9586811501   16.8178468156   15.0835169478
  10.2632257695   13.3351057322   18.0166678121
  16.3214407194    5.5166369738    2.5613837212
  10.9184956278   17.4186363101   13.3746815512
  16.8190929756    6.4456097772    0.9819030735
   7.4516043817   12.0172870589   18.5067070631
   2.0114388249    9.6307823146   16.3092452112
   0.0835142378   13.6288243837   15.8977698616
  11.2321766118   17.1641088478    4.6003562143
  12.6888807412    0.1942557737    6.9108681594
   4.5689552728   10.4979346658    7.5601421025
   6.2250120068    9.5100090116    2.9378352717
  10.9541587874   18.8556753813    7.9803428618
  16.2936505757   10.4461033529   18.9675477612
  -2.1568228555   11.3090777557   17.6411635291
  15.4785376373    4.9959124887   11.7523426710
  16.7583875978   13.7209343433    0.7027948549
  15.2252592715   13.1553182335   18.2173083775
  -2.5615325628   19.6910870383   12.0225335392
   2.7328357948    1.5349075157   12.8809280383
   0.0889157345   17.7422749545   13.2247001230
  -0.3490147758    0.2985026687    9.9024151132
  10.9513167761   17.3733693266   15.1329943593
   4.5463002118   11.1921865054    5.8580524905
  -2.3869448426   11.5451498970   14.6459797691
   9.4068120800   16.2672213380    1.5956598760
   2.0207522035    9.6502416809    7.3452207434
   2.2826289480    9.5078630414   14.6189180241
   9.2101962431   18.8892636253    4.9473676294
  -1.2787916559    8.3205233911   17.0248065580
   1.1518794399   13.5518691598   14.4505571305
  10.5340301398   10.5270657262    2.0789597826
   2.2077564436   10.9578146994    6.2803242460
  12.8795418083   19.7534236348   13.8716296955
   5.8810956943    8.1128224583    3.9647468827
   2.0759983200   12.8921222756   16.6062829058
   1.7763174688   18.4826509421   13.2080560703
   1.4462998312    0.0874342750    9.9889974089
  10.1270191720   16.0154375646    5.5465547883
  -1.5343320762   11.1827322473   16.0375235812
  16.5054878336    3.3253299829    0.5406492002
   3.6319450308    9.6456529665   15.7184274160
  15.9718481762   12.1573388666    0.6331917254
  11.1999384591   18.9794057412    6.1314288986
   4.7569253545    9.7242738092    3.8172717180
   9.8986032777    9.6286807668    0.5974999396
  15.8929624711    4.6696426784   18.8093665192
   6.8281871422   10.0508295067    6.9125615070
  14.7679173720    0.8686725530   15.1990385341
  16.8595415719    8.3737558354   18.4863873476
   9.2484273021   17.9015875926    2.4273370421
  -0.7405404323    7.3498584287   18.3668939810
   2.3631197544    0.1055715580   13.7727087499
   0.4750134837    1.3593761664   13.0468955691
   1.2278804005   17.4818495712   11.7918609822
   0.8544104143    1.4496511889    9.0418589537
   0.1800989167   10.0259319370    1.0564332184
  17.1199127803    3.2379507861   19.0843355467
   1.1975040677   11.1565247550    0.0023881502
   1.0296328161   11.4984486427   16.7107404840
  12.5651073569   18.9138598787   15.4295572414
  10.8521683132   17.1068508328    2.2809568770
   1.6801863571    9.1966615667    5.7823563544
   8.2381768213   17.4701577884    5.3390568275
   5.9867662468    8.5390391202    6.4962714187
   8.8261008999   10.7328178102    1.6292981558
  -1.9598353620   12.8928604881   15.7500695980
   5.4475851893    9.0218846123    0.4797451085
   9.3150711740   13.8677720026    7.2441105291
  13.8342981364   13.2240746017   13.9163328464
   3.8018540471    1.1329733623   17.3210120088
   2.5367898132    1.4132767086    0.0651142791
  -0.8435229284    5.6597521110    6.5071635916
   5.1624241584    5.4583183209    1.4352446419
  -0.0537314482    3.2484367074    4.6461030396
  10.4128394574   10.7141093640    5.8146139992
   5.0485677202   16.9429825607    9.5658928623
  14.7502344005   19.7564441724    1.9734673651
  12.6974616893   12.0027176772   16.3498499583
   2.3618119417   15.8938471479   18.8723212579
  12.4831539616   16.4043627897   16.0986984339
   6.2110416216    0.3099859704   10.0401227245
   3.3669118395   14.8716476269    2.4181705896
   7.5884885440   13.0018536114    2.2471577547
  13.1379957204   19.4350932955    4.5041581210
   5.1860516835   12.8874193551   18.7231988030
  -1.7872690260   15.9375698806   10.4649098752
   4.4074206796   18.7088414226    4.3737452197
   5.3913992708    1.2167763162    2.8347306350
  12.6604890248   15.2420006939   19.0726477180
   6.0323008761    2.0183781749    6.1145307603
  14.5858820633   18.0853209459   11.6149853512
  12.4841863543   14.5426056382    9.6788119660
   3.0771676778   15.3186488075   13.1882360803
   5.0882632895   17.3476394504   13.8116731532
  10.0472917847    2.7943798268   15.3845219730
   9.5543769719    2.5419327456   17.6920106689
  -0.0835302706   17.4460469103    7.9437154198
  10.4862181374   13.0596547413   11.0044955436
  14.9127490726   13.7953041004    5.2865332565
   1.6989547498   13.5979248847   10.2041635749
  -1.5490738009   12.4811411692    8.9845073333
  17.1063484655    9.8443234446    6.4571904583
  11.5153743393    1.3470527666   16.6696382700
   3.8144065472    4.8172555724    6.1039792717
  -0.4009393887   17.5429718904    4.3696778792
   9.9718157967    7.0247341766    4.6283508334
   8.2302444421    5.8674270057   15.3601007229
  -1.9176739706   13.1256676730    3.6484572612
   2.2685529044   13.6019764332    7.2293646123
   9.6603287186    7.0860146894   11.9167891606
  14.4389667168    6.3211121342    4.3980662522
   0.2043768608    7.2738696812    2.2380970111
   0.1331530390    5.6317933858   12.1845989648
   8.4955382227   14.4052338364   18.4803645631
  11.2468086750    5.8944769291    2.3380904999
  14.4977708845    8.6993693187    3.0189177743
   8.3292713543   17.3619218915   13.2469285281
  17.3326858876    4.4491131763   11.3459387129
  16.9261885244    6.4991664641   12.4774257232
  17.9325123148    4.6895482906    1.4446867261
   2.5378732794   11.3675612372   15.2683253755
  10.8693273946   19.3445392625   14.3009286103
   6.5383212978    9.8385161173    4.9143804446
   9.4930172039   17.9616633223    6.7810608441
  10.2157869807   11.7527155171    0.5349855786
  -0.2911921521    9.3840145479   18.2760324301
   0.3673392223   19.3341375936   11.8678238838
   0.7529027986    1.6802925547   11.0338050154
  -1.0451050137   12.4056112253    0.0847330018
   9.5387655353   16.3302629163    3.6929217819
  -0.5327379314   12.1998131148   14.5045061729
   3.6552526437    9.4162394540    6.0344215003
