B2 C140 Ca1 F48 H298 O66 
1.0
1.8857749041960947e+01 4.0470568770119854e-16 -7.3025465426176339e-17 
-2.6041497531576492e+00 1.9738061599018039e+01 1.1403612557613150e-17 
-9.2715201729588748e-01 -8.1153980882875065e-02 1.9296343270116349e+01 
B C Ca F H O 
2 140 1 48 298 66 
Cartesian
  10.3513639579    2.2902584995   16.6729157878
  -1.1426575721    5.3657179622   12.0095661055
  18.5406907117    0.3197962162    1.1367633092
   8.0406685606   14.4341431975    7.1555932576
   5.7410950172    6.7479070982    0.8300385032
  14.1418150696   13.2138069578   12.3964200754
   3.9985094064    1.6838072894   15.9647880282
   2.0794463336    0.0088308002   18.7077365174
   1.2340185109    2.6070166879    4.3643424261
   2.8767293524    0.0968807174   17.4467456542
  -0.4377725391    3.2392928857    5.9211831093
   4.3175085648    4.8316250712    0.5762027255
   2.2195633709   15.7868913729   17.7577782399
   1.1439685492    2.1926809550   18.4753448516
  12.2152503084   15.1621032407   15.5772876037
   4.6502140039   10.1418924764    0.1489612170
   6.4049079350   16.3979800489    9.1275987793
  14.0591307962   11.5565790239   15.8549259777
   9.3712414082   11.5908725269    6.5911110815
   9.9411862394   13.0176580962    6.5299566410
  13.9384227197   11.6069287632   14.3027421482
   4.5385156325    7.7585308855    0.6596115025
  12.0266267981   10.7058880414   16.9297258909
  11.3402368633   10.1874703849    6.5628194213
   0.0181883186    4.3795927594    6.8220819197
  -0.1163298911    6.8813427358    6.7631469622
   4.8189159793   18.1048895923    9.3901285990
   2.6433514475   16.2447451425    0.7158723261
  17.1228376028    0.8426939687    2.9827372981
   3.9278314561   18.6939851850   10.3882570390
   2.3829635965   15.1692675909    1.7552146803
  13.6180081248   16.1343369031   17.2073259710
   5.9632391204    1.3558246754   11.0365998483
   7.6588775817   12.8682856066    3.7336190649
  15.7510129726    0.6245096612    3.4690984907
   6.2971463885   13.7048195819    1.9308573453
   6.3499381886   14.1979753534    0.4592338429
  -1.0506186487   15.0602733033   11.4753977492
   3.4160444715   13.6532878660    3.2115973282
  13.8609916547   14.9681690476   18.0413969482
   5.3520488287   13.2374593676   17.5088747346
   4.7169244510   17.3380183903    4.2768451634
   4.7648594331   19.5536044398    3.3766676484
   6.6800611143    1.2061814279    3.4793081764
   4.9039205132    2.1869694499    2.3683472535
  -2.0283306266   17.1230116834   10.9622243809
   6.3259672619    0.8542696450    7.0655101358
  13.1134525163   14.1132080338    8.5021130181
  15.2640961604   17.1620936057   10.6506197017
   3.8410324801   15.4665093238   12.0239326595
  13.6549167665   18.0766818520    4.0790630928
   7.2099934415    2.2563006696   17.8116938761
   8.4253597871    4.4037510935   18.7191767519
   8.3666091853    3.2678154515   17.6624183270
   4.0228297621   15.4143020727   14.3693615542
  13.1409485073   17.8815204123   11.3808150139
  11.4161907276   15.2914359729    9.9150476341
   9.5004456478    2.3159445453   13.1148948676
  14.1349933424   15.9059956420    0.9007740832
  13.9348679691   12.7693201873    5.4095183414
  10.7295130395   14.6133573555   11.1986743997
   4.8510292770    2.6728561870    6.5764661469
   1.4287451146   12.6228952023   11.6605341353
   4.1535504665   16.8894051882   14.6872508365
   1.2506106479   18.2285548722    7.8806943430
  10.5739243886    2.2996454543   14.2077139907
  11.7686126686    3.1527086840   13.9456190111
   4.9834460587    4.0519261834    5.9746955718
   5.4740424984   18.7914903391   14.1637066033
  10.0309462696   12.6497566848   10.0382124852
  -0.5948536869   13.2152551922    8.5014773287
  16.7550764854   11.4655441976    7.8818103378
  -0.6596239004   16.9821290972    6.7189128952
  -1.0549782997   10.7340634441    7.1256344241
   6.0587574939    6.1662915784   14.6506581001
  15.1200923592   14.4610759240    4.1822416350
  -0.7738363148   18.0455329992    5.6371626611
   2.8670989926   12.6416052244    9.5639381979
  16.7625901829    9.8701684637    5.0676515148
   4.0092395099    6.1716838116    6.2774273318
  11.7543421433    1.1193991188   18.1734617052
   2.2979234027    4.6422819857   13.2058975200
   9.8245588337   19.4194411200   18.4173847386
  16.6025407047   14.4163072537    3.8876275608
   7.1668215765    6.4294330729   15.6356957739
   3.3131864783   13.6282381221    8.5845744179
   8.9870018607    7.5286364212    5.4348434045
   0.3619225094   18.6212670042    3.6087636198
   7.6691292256    7.8725098294   15.6179641260
  10.3761935930    7.3110061893    9.8078973334
   1.2593924525    6.2037915465    2.6047863824
  12.7574570248    2.2041936317   18.4950338462
   1.9917798824    4.9852257296   10.6207038897
   1.2652796678    4.6691577503   11.9182063210
  10.7911269061    4.8604224793    3.5582599366
   9.6063952383    5.6927112719    4.1993025611
   8.9253636878   15.5846235120   18.1056591253
   9.4620968179    7.7979990883   10.9960931440
  13.4900228563    8.1982078814    3.4720272873
   8.8218427648   17.9507643301   12.2623757717
  -0.4482185803   12.9082010934    3.1872743505
  14.5870844422    5.2713042289    5.4923082875
   8.0762047885    8.0133873534   10.5968022000
  14.6716724974    9.7286356648    2.0331856632
  12.3219350463    5.3446610590    1.7603334675
   2.5748550004   14.7221767295    6.5909207221
  13.6683424773    7.3421521834    4.7197278865
  17.7740820877    6.5720750086    2.7991367075
   9.0668037257   17.5655427834   14.5924292617
   9.1879292313   13.1877003266   17.9662594290
  15.8618007897    7.5363404612   14.2846688002
  17.0936752236    7.4024614939   13.3003639616
  17.1057327491    5.6919708552    1.7809517317
  15.3885002637    2.7642676360   11.2302710442
   8.8299492578   11.8420155872   18.5870270148
  15.9272856556    4.2421119395   11.0426888792
  10.5400342172   17.6608452552   14.3850324804
  15.4309023308    4.6880287505    9.6061314870
  -1.3704503922    8.6781817749   12.5707503568
  10.7146415607   18.8428502043    6.9936052468
   2.6999468929   10.0682934471   15.4185141684
  -1.8306608849   10.9147957546   19.0165537317
   0.6483289745   12.9745216876   15.2241350858
  16.7532944966   12.8787033727    0.0141858816
   4.7510148445   10.2248114905    6.5568275490
   5.9762172942    9.2131297122    3.7439618566
  10.0142166571   16.5643479737    4.7637796563
   9.2260710798   17.7053219428    5.4012278967
   1.6445703732   12.1662253242   16.1147856608
   2.5471947936    0.5505668561   12.9800599886
   1.0820495530    0.9058828115   12.5739053387
   0.9195623942   18.1745020076   12.6710116845
   0.5596683836    1.0659540483   10.2441423505
   9.9829431099   10.8668901700    1.3501513283
   2.4094823080    9.8610040895    6.4214966556
   6.0624539376    9.6187989788    6.1309062232
  12.1726099907   19.3819634465   14.7268504493
  -1.1494699556    8.3038846475   18.4381261376
  17.2896821694    3.9406543513    0.1026142202
  -1.5216570314   11.8067281307   15.1367053491
   0.4555765669   10.2807240084    0.1076462390
   9.7761156291   17.1540849622    2.5209257649
   9.4743302360    5.8075460480   13.5913622288
   6.8581282880    1.6574283513   16.6390397329
   9.6160233382    5.1942316299   18.6420404806
   9.1704081064    3.6108879085   12.5407787686
   7.4557251525    1.3191683137   18.7931800409
   9.3946355856    4.0750485858    0.6523157816
   6.2159360808    2.9060414886   18.2807608650
   7.4117821299    5.2862717845   18.7256876888
   8.3920784127    1.7385509012   13.5058802770
  12.2365849241    3.1459063266   12.7048988572
   9.9775993416    1.6792960243   12.0201890459
  12.8224858253    2.8800332162   14.7332258459
   4.9760367291    6.8844496700   14.8916124688
   5.7533283887    4.8085120801   14.8357510409
  11.4196333272    4.5759290282   14.2254042034
   6.4681313685    6.2919626645   13.3841722514
   3.2676583664    3.8102488809   12.8509399690
   9.0015889554   18.4301252581   18.0315145937
   2.8575635150    5.8521191185   13.3626702203
  11.4871381703    6.8356515200   10.3967609782
   1.2219956403    5.0385232801    9.5316195165
   8.1915596111    8.0993671895   14.2763619588
   8.6449094266    8.1713109834   16.4055437195
   1.6967618875    4.2441331428   14.4046257478
  10.7315686892    8.2529822633    8.9387204063
  11.1145628728   19.2513015921    0.4148954813
  13.9355383076    2.2645430099   17.7962748178
  10.9575143106   19.2087185667   17.6769028600
   2.7555141828    3.8662560118   10.3746710144
   9.7322357012    6.3761768687    9.0628502177
   7.3001177585    8.3283289240   11.6793059406
  13.8936739458    2.2366687248    0.4894030855
  12.3263408258    3.6219712391   18.1537430918
   6.8741793924    8.9540784627   15.7311875743
   2.6510163306    6.1745677743   10.5516581457
   7.6301849186    6.8542981574    9.9388035883
  15.7903565966    8.6434624717   15.0050672839
   7.9230348990    9.0382949308    9.6741553324
  14.0654291865    2.7014369052   11.1046240184
  14.6743280845    7.5418628576   13.5116448993
  16.0734356789    3.9137792314    8.6651530768
  15.9320532536    1.8061452970   10.4843764483
  15.7856956911    5.9077554528    9.2550950381
  15.7377498581    6.5325630666   15.1655514788
  -0.3093196997    8.4901980245   11.6697505824
  15.6725369205    2.5481234787   12.5602088622
  -0.8747100414    9.6589492090   13.3850275359
  14.0452395147    4.6079201970    9.5995261833
  16.3426255061    9.0961259147   11.8479576634
  -1.4573187185   19.1480758934   18.5992129105
  14.6859174249   12.3814157044   16.0623527046
   1.3562923621    2.5273129996    3.2976472405
   6.2621869347    7.2174273271    1.6898175566
   6.3768563481   16.2688929216    8.0599305546
   9.4704533023   11.2324805115    7.6459417514
   5.1656846615    6.3671397417   19.1334162704
   4.4218884660    2.6917272098   16.1332866550
  17.3105383173    3.1339989432    5.9690081971
   0.3230346755    1.0757043410    1.6885826291
   2.0961508730   16.7834678034   17.4144831852
  18.4165846177    0.8591610254    0.2210897164
   8.1106806131   15.5137437714    7.4761807059
   0.3208668841    1.7476965731   17.8042738461
  -2.3832542931   19.0901941444    0.9316577325
  13.2117672464   12.8919485460   11.8805138716
   0.9289097178   18.9387489303   17.5743340983
   7.8650018979   14.3027566895    6.0849675559
  13.1351622552   14.7601917202   15.2568658805
   4.3298131445   10.7909853686   18.9232104318
  14.9195875227   12.5835531894   11.8839745739
   4.0126586072    3.8467490887    0.9357525141
   3.3321721443    5.3940866233    0.5997442994
  12.3238412733   10.1230784093   17.8323897411
  12.1811320895    9.8172453257    6.0017391786
   1.1639826504    1.6382901300    4.7667590923
  -0.0624792767    2.3768470542    6.4391828035
  11.0294511283   12.9360747400    6.6908590665
   3.0766490618    1.7048101179   15.3395380839
   5.8195912208   18.6842658401    9.1939092821
  11.5649177766   14.2853069007   15.9544313443
  12.8380468342   11.1859029874   14.1353796354
   1.3891848179   15.1202262320   17.4479962695
   3.1487012375   15.4023054250   17.2767555926
  11.6207462379   15.4055108511   14.6870247934
   7.1913890774   17.0689206409    9.4403153807
   1.9698582767    2.6826476162   17.8773851178
   3.1873619943   17.0734417978    1.2340334573
  -0.7781106093    7.6412133719    6.3442222247
  14.3979959095   10.5732586790   16.2562741873
   2.0639489113    3.0696218343    4.9534600209
   6.7531992909   15.4751455154    9.6449481556
   8.3649823082   11.3030587504    6.3374348212
   4.3282501984   10.5467430679    1.1145613140
   7.1660979570   14.0307251580    7.7765970143
   2.8014915587   10.0601896664   18.8320770654
   3.7098696140    4.6865326206   18.8108840228
  14.3237933062   14.3271551665   12.2924298140
   1.0783857779   19.3672547120    0.1849165363
   4.6602068625    1.0187971494   15.6053735076
   0.6325373009    2.9349680157   19.2251889518
  -0.4438178985   19.6046682053   16.5280763170
  17.7756101182    0.6348026993    3.8141774396
  17.2961785961    1.9509610661    2.6945973498
  11.8814739843   10.1035390119   16.0867104914
   3.9807737596    7.9017446553    1.5989164615
   2.7303467874    7.2828181543   19.2481686658
   0.9346677887    6.8533871616    6.3547050472
   1.1151370526    4.5811500678    6.7253113242
   1.7289282826   16.5990229060    0.2674946958
  11.8049244119   10.9786764379    7.1561634681
   4.4759731168   18.6917218939   11.3897870018
  11.1119034337    9.3376279496    7.2370740713
  11.0570590045   11.1709299829   17.2211460396
   9.8759472356   13.3794579760    5.5217248304
  14.7506825518   11.0661713696   13.9755428237
   4.3481420628   18.2583944022    8.3515339866
   8.0522841699   13.9017456803    4.1477817803
   0.0616670929    3.8747303807    7.8062004342
   0.1040086797    7.1797838406    7.7875947122
   6.1659747410   14.5650378175    2.7086788586
   6.9264804419    1.5708635940   11.6087256363
   2.1190658590   14.3050307873    1.2104365990
  13.8067129346   17.0127568802   17.7896585584
  14.4065178671   16.0714997012   16.4506257597
   5.5456276382   14.9647886028    0.2780940370
  -1.8504515555   14.9126882679   12.3283924080
   8.5363748487   12.1307898862    3.9481231649
   5.5768723740    2.3174515252   10.5694543986
   3.0566726422   18.0913695600   10.6518227185
   4.3544552742   13.4645804255   17.0769805494
  -0.8352901456   14.0509191090   11.0692301647
  15.1381947049    0.5308133648    2.5135648524
  15.3694564740    1.5105205548    3.9563744537
   5.6912698679   17.1555017898    3.8085457521
   5.9748043102    1.0203132190    8.1488123900
   4.3872960705   19.0567666164    2.4777967114
   1.4480776993   15.5805614611    2.3784087398
   6.9233778204    1.7223033165    4.4751999721
   3.8236137932    2.3233988701    2.2289220929
  -1.7446954715   17.2983754241   12.0178390457
   2.3712833690   13.4924982767    3.7381327949
   3.6620948421   12.8759494748    2.5541169981
   6.8223264018   12.4242402249    4.3034874189
  13.5863262065   14.0566511913   17.4122655376
   5.2555790300    1.0813903002   11.8858108307
  14.8590533401   15.1923120271   18.4499922093
   5.8296516772   12.4586801022   16.8975446690
  12.1687356902   13.8103774821    7.9918192641
  14.9516868171   16.1703764753   10.6147688497
   5.5261308388   12.9626583058    2.1768425139
   3.2690022566   14.7894292374   11.3152024336
   4.0059850135   16.8294278151    3.5488537911
   4.9385525453   15.1945906271   12.0749721397
  13.6881471698   13.2423442465    8.8079907769
   5.4160635902    2.2035650147    1.3711880527
  -0.2440834646   15.5461300067   12.0312616172
   7.3455873021   14.5387107370    0.2363298479
   4.1459364671   13.5914164639    4.0323195622
   7.4260753138    0.6385573700    7.0719581541
   3.2190572604   19.6904466634    6.7153025031
   6.1139315922   14.0924030592   17.4184857040
   7.9957788177    3.8221935557   16.7853818043
  12.5433370665   18.6363568146   11.9958393045
   3.4950709501   14.7189271387   15.2129015441
   5.0230225694   15.0086679764   14.2795147814
  10.8761936635   15.1537890210    9.0062685120
   3.7479999867   16.5576203639   11.9473123730
   4.7121148849   16.8091189790    5.2706965371
   8.4634893632   -0.0127875377    3.3014918698
  -1.5185117695   17.9894087683   10.4785697111
  14.3723671665   17.7201756778    4.8568707002
   7.1990215050    1.8644818399    2.7464386907
  14.0690890193   18.1058218925    3.1348362067
  13.0312434891   17.1519503498    3.9594881533
   5.1955072130    3.1541871194    2.8744018286
  13.7511762747   14.8799689775    8.0333855786
  15.1753299245   17.6698008398    9.7278909707
  11.0808354135   14.9503821587   12.2150410595
   0.9799415921   19.1252820801    8.4586123108
   1.2690633828   13.4369055781   12.3980364598
  13.8751980278   12.2077570866    6.4634894343
  14.2347662097   12.0427813927    4.6363013064
  12.9719651277   18.1955903910   10.3721632839
  13.5664330003   15.6761038026    1.7546733366
  15.1735771606   15.6945607076    1.3914596427
   0.4805356564   12.1522085404   11.4585556279
  12.6219347831   16.9085553645   11.5224435966
   2.1666190750   11.9952766049   12.0613653140
  12.8661456618   13.2262503857    5.1926956289
   3.8611602066    2.1789424296    6.1930700790
  11.5384928550   16.3846650386   10.1300592657
  -1.0296582812   14.1644315041    8.7248166747
   9.6934412463   11.6754054404   10.3610266402
   4.6651190068    2.7493314330    7.6510228419
  14.1055959870   16.9999056131    0.6998852582
   5.0405301675    3.8887206062    4.8819107153
   5.9094354085    4.5555516345    6.3426888184
  16.2905906631   12.2633910115    7.1945521924
   6.1625752702   19.1709950145   13.3802253554
   1.4712065720   18.5338922898    6.8881714553
   2.0487789130   17.6518178057    8.2978418704
   9.6309428573   14.9043989730   11.1931677225
   4.2702038306   16.9129530960   15.8004207482
   3.2170326902   17.4159604615   14.3654334884
  -0.4012941363   13.1206040363    7.3938830262
  -0.4085843417   11.3827551205    6.5197778795
  11.1126002264    1.3073099908   14.1763412578
  14.5245777789   13.9268272863    3.4191712495
   5.8176054267   19.1659175250   15.1116585507
  10.6343220523   12.5366790544    9.1714884726
  16.9569633908   10.9795885150    4.7625160598
   4.5427928397   19.3773187902   13.9395244448
  -0.2548578858   18.9895248570    6.0594354354
  -1.8274836930   18.3883040891    5.4346104410
   9.0662965054   13.2086915339    9.7915583125
   2.3494364842   11.9223887974    8.9212168416
   0.4634647556   13.2191341803    9.0334424156
  14.8867188406   15.6110959547    4.3881415687
   3.6199201893   12.0892541336   10.1628729344
  -0.1968189437   16.1203952614    6.2503599532
  10.9437864632    1.2026631330   18.8462722839
  16.0858348965   10.6553666930    8.1066796311
  -1.7182976306   16.6637397767    6.9852665168
  15.7432489354    9.5614675755    4.8907187792
   3.3415630633    6.7486230378    7.0188785333
   9.3047763607    8.4474906430    5.9545274530
   3.7557934205    6.4321364661    5.2508059440
  -0.3961127976   10.1785235645    7.8518744349
  -1.6732394042   14.7193136140    4.8001336350
   1.4385288597    6.1195995893    3.6743617872
  17.2897865862    9.2164826232    4.3132909707
   0.3765536505   18.3569772166    2.5026011827
   1.4646267902   18.8172234154    3.9786976212
   3.2940118826   14.6214281041    9.1930829164
   1.0129222089    5.2101993709    2.2385385886
  -1.9835692621   15.2407984439    3.2082825018
   4.3991673149   13.5055031965    8.2384756651
  11.6122849368    4.7986780909    4.2403217668
   6.5681159125    6.4441928031   16.6044493732
   4.9936287181    6.3759942897    6.5318641099
   2.1776420426    6.6308049882    2.2036833316
   8.2943366231    7.6941459571    4.4687943859
   9.5319904960   16.0221914166   18.8954777352
  10.3059140475    3.8838881528    3.2514049598
   8.3336558648    6.8667828790    6.0879458733
   0.7813458015    3.6152862486   11.8194895240
   8.8062320615   19.0355708832   12.3471120049
  12.6369697919    8.8927514350    3.6467978848
   8.1267789582   16.3096873146   18.0100079973
  13.6617341152    4.7518518890    5.8566095104
  12.8907276701    7.5801457016    2.7088332358
   9.7891846334   17.6432211002   11.9037824171
  -0.1225757924   19.5493675552    3.7800190408
  15.2777422797    9.4945929468    1.1431156861
  13.1607520767    5.2714142526    2.4510345054
   8.9229908412    5.9226066427    3.3341756456
   0.1853311947   12.9957642959    4.1332861213
  15.0477176157   10.6181350287    2.5059584681
  12.2070804285    4.2980642932    1.4215414263
   9.5977054985   15.6682954681   17.2187880586
   9.1863212755    5.0714184841    5.0200953829
   8.1595659240   17.5886440995   11.4648844201
   2.4009974939   15.6605945560    7.0833307444
   0.1032514434   13.5547183920    2.4776025133
   9.8714071570    8.8284679314   11.0955211042
  15.0896625644    5.8611779865    6.4376737775
  -0.3684098729   11.8325567712    2.8480220889
  17.1810887777    7.5814847917    2.7249117344
   3.5574456072   14.9014147265    6.0150317438
  15.3728188265    4.5791830832    5.1186261276
   8.7831858149   18.4468560340   15.1706914334
  -0.9363681396    6.0702162874    3.7366199105
  12.6278170241    7.0392623721    5.0119175943
  13.6666405065    9.9803399574    1.6982002828
   1.6625811193   14.7002635613    5.8421271233
  14.1817644861    7.8340796779    5.5403975607
  12.3216760253    5.9465781603    0.8013760885
   9.0358407075   13.1826678896   16.8853140995
  -0.9164005343    7.3608187304   13.9808345742
   9.2682443708   11.1161966307   17.9109878207
   8.7585682716   16.7725034974   15.3278188345
  10.1477347998   13.4776020830   18.2396379264
  16.2010641119    5.3545932923    2.4008471499
  10.9276688053   17.1352336160   13.4866748599
  16.7907213203    6.3609233364    1.0156050752
   7.7670991790   11.7686048224   18.5986335120
   2.0762651475    9.6823330479   16.3695451922
   0.0879134924   13.6322243109   15.8145779150
  11.0563176266   16.9828521965    4.7021088939
  12.8843455028    0.1640174895    6.9020923011
   4.6226511356   10.3617655710    7.6401602832
   6.2619593528    9.6216186453    2.8233623096
  11.0008197036   18.6774202840    8.0246318053
  17.1083234788   10.3839207641    0.1615656175
  -2.0729360027   10.8692130928   17.9427981476
  15.4345606928    4.8600910650   11.8890806500
  16.9229392115   13.9489156111    0.2590275396
  15.2970283191   12.7276849685   18.3252334022
   0.6202428089    0.0299696875   12.4701622010
   3.0395830408    1.5515342056   12.9815373845
   0.2996623204   17.9899363960   13.5094895266
  -0.4285733215    0.7088971734   10.3250784382
  11.0351384846   17.2755446361   15.3018896854
   4.6175412606   11.1710366763    6.0456832309
  16.5583992061   11.5501561882   14.3129341338
   9.5635399409   16.7803235439    1.5397644300
   2.2309514603    9.8067103567    7.4953773890
   2.0387431659    9.7406965891   14.6005956247
   9.1541893153   18.6270044421    4.8037461632
  -1.7313491303    8.5762817314   17.5339548539
   1.2056533600   13.5710720914   14.5697485058
  10.4350791384   11.0927442112    2.3696929473
   2.3433537723   10.9376909481    6.0052225774
  15.2785098291    0.2813119914   13.9857114104
   6.2458109970    8.1961360710    3.8796957072
   2.1901728478   12.9180557808   16.7681272557
   1.9395953455   18.4034689000   12.9994585985
   1.2083687670    0.2044769243    9.8693308778
  10.0192011718   15.7145771847    5.4551819775
  -1.3300125461   10.9940767130   15.7780036610
  16.6202282297    3.1387428461    0.4615036604
   3.7522845601    9.7806397952   15.3394480743
  16.0127552847   12.4395270825    0.7254867439
  11.4816539324   18.6662876020    6.3270002039
   4.8791531749    9.2533323206    3.5851357152
  10.3156111931    9.8864406576    0.9678142300
  15.6178791716    4.6194092477   18.9843559836
   6.8123981341    9.9487138279    6.8775806381
  14.6219597050    0.1330806975   15.6500018388
  -0.8394847915    8.4990313841    0.0273555621
   9.2208661628   18.1532544736    2.7662902716
  -0.7371350058    7.2325950732   18.4239082675
   2.4963043549    0.1628290492   14.0085930955
   0.6702110736    1.5197006451   13.4499059350
   1.0064426173   17.3212245129   11.9406287636
   0.5327762762    1.9132398852    9.5146940190
   0.4093395259    9.7810389370    1.1338497018
  17.0899403868    3.3016337489   18.7625603333
   1.1548008355   11.1608133342    0.0738314056
   1.1700281512   11.4045568116   16.7923784655
  12.6069450515   18.4776715466   14.9302926666
  10.8559849496   17.3051066340    2.3768983290
   1.6826064967    9.1771554031    5.9344940577
   8.0693894246   17.5624001856    5.4977978555
   6.0306708847    8.5558321500    6.2815505062
   8.8302180167   10.8204114891    1.5502264906
  -1.8340910869   12.6569598172   15.7061637793
   5.2430824244    8.8863325116    0.2365516919
   9.3911813049   13.8636160690    7.5134062467
  14.0542449861   12.9304109234   13.8469411412
   3.5585452420    1.3502731812   17.3301674198
   2.5847208090    1.3422347460    0.1008121329
  -0.7052767810    5.5449479392    6.6389139043
   5.3532605109    5.4533638784    1.3440541838
  -0.0567898854    3.2364074919    4.6013126770
  10.2545888064   10.6564495659    5.8142375790
   5.1534401128   16.8474805045    9.7205947848
  14.7791526898   19.7190355372    1.8771001494
  12.8281897850   11.8754413692   16.7606414361
   2.6222642174   15.7794078352   19.0548894448
  12.3781733020   16.2463041364   16.4984006711
   6.2146387925    0.3568988928   10.0022878536
   3.5685437441   14.9274425744    2.5672403831
   7.4616509594   13.0115446788    2.3487875452
  13.0473235227   19.3923824832    4.4744193403
   5.2026704512   12.9021082256   18.8973591950
  -1.6274838715   15.8685621126   10.4708817484
   4.4091099409   18.7131655407    4.5087784425
   5.2828385387    1.1319052332    3.0761721715
  12.9117518719   14.8890625698   19.1211722153
   5.9861400721    2.0100364920    6.1915313803
  14.5346142510   17.7426672025   11.7575143116
  12.6862511908   14.6402929368    9.7378696927
   3.2269274585   15.0946572823   13.2098152507
   5.2911679318   17.4114649492   14.0441139868
  10.0078816456    2.7485663283   15.3834493068
   9.6314396661    2.6218371440   17.7477458848
   0.0193038805   17.3385881409    7.9433953727
  10.8900614408   13.2172604298   11.0651998021
  14.9307170349   13.8140777625    5.4070873841
   1.9880462852   13.3875918108   10.4494023196
  -1.4385713652   12.1576872725    8.9473805319
  17.2235766734    9.6246026085    6.3422737359
  11.2298019564    1.2365985185   16.8711179697
   3.7855087676    4.7536146546    6.4054716586
  -0.2690033300   17.5112027246    4.3162423847
  10.1145984591    6.8941998867    4.8469716103
   8.0341616773    5.3820904551   15.4660247327
  -1.8643612248   13.1078928279    3.4191285123
   2.5377044274   13.5506034819    7.3940688132
   9.5605606129    6.8441070086   12.0401838739
  14.2777632610    6.0893376085    4.3753627246
   0.2240460543    7.1135975418    2.3536981021
   0.2282545704    5.5883473217   12.2558705108
   8.4184500960   14.3546590599   18.5241402830
  11.1494976502    5.7995782965    2.4769886619
  14.6989597961    8.6358925303    2.9271428637
   8.2500084975   17.3501642875   13.5003465930
  17.3349006571    4.3614531125   11.2231143533
  16.8418301378    6.3226292466   12.4329640400
  17.8735127177    4.6548887598    1.1872132791
   2.6111500495   11.5479769929   15.2730895787
  10.8105932421   19.0397379281   14.3418895590
   6.4684608709   10.0064261103    4.8257643232
   9.5729660018   18.0035584687    6.7650325513
  10.4119091224   11.9430690190    0.5391975582
  -0.1120244842    9.2264723235   18.4317537008
   0.3098473968   19.3069539477   11.9390473541
   1.0914035131    1.6507035079   11.4258800838
  -1.7227966397   12.2590342748   19.2565559099
   9.5036494687   16.2773734869    3.5125179827
  -0.2901553790   12.1674820519   14.3644366662
   3.7158976519    9.3663311351    6.0954779416
