B2 C140 Ca1 F48 H298 O66 
1.0
1.8703827625463717e+01 -5.4836716584838902e-17 1.7579375292737186e-16 
-7.7832483526111518e-01 2.0151563127373016e+01 4.3662352080414522e-18 
-9.1642169603943380e-01 4.8560175229218579e-02 1.9956625648852633e+01 
B C Ca F H O 
2 140 1 48 298 66 
Cartesian
  10.3457305616    2.5818970435   17.1201883065
  -0.6417661751    5.2119155766   12.5128311354
  17.0599168571   18.7411497191    0.7359583573
   9.7608034014   14.8001650653    7.2416891124
   6.0342467516    6.8742914933    0.2360338704
  16.0043529823   13.1121520936   13.1176504411
   3.7627704410    2.5272920664   16.6714925239
   2.4148957279    0.5092769609   19.4708128485
   1.3841059296    2.8443197390    3.7434399718
   3.0660549945    0.5437307148   18.0004470301
   0.2151619340    3.1796079716    5.8145793294
   4.2578412350    5.2623397162    0.2526820181
   3.2883911017   16.3512279384   18.6248716887
   1.0642025444    2.4854580276   18.8738798993
  14.3116824627   15.7717667216   15.7046000420
   6.4684586469   10.5522440708    0.0887966323
   7.5685902998   16.6531127154    8.9248903428
  15.2017177918   11.1854675711   16.2087180826
  10.8791258864   12.1662550422    7.0604499899
  11.7972498121   13.4010403825    6.8233546510
  15.2903702097   11.4556496489   14.6964015648
   5.4923030417    8.3145936056    0.3502132866
  12.9702047961   12.0217458568   16.5399906253
  12.4693873216   10.3745850140    6.3041554453
   0.6675978548    4.5561571195    6.4002758430
  -0.0401099896    6.7730946255    6.7674806167
   5.9234198733   18.3209160052    9.1601671688
   3.8641967139   17.0085008263    0.9463953950
  16.3936615014   19.9535752084    2.4919624055
   5.3489126430   19.2469644495   10.3400878698
   3.3886898254   15.8552493056    1.7258989528
  14.9595748182   16.8584440394   17.7273942270
   4.8846842820    1.1838463339   10.5910239246
   9.1677477709   12.8152742631    3.8198568300
  16.2305177036    0.0947201708    3.6537863699
   7.7673868168   13.8611300335    2.2089664941
   7.8486113517   14.4782163269    0.8111969374
   1.0370334868   15.5480535979   10.9210367747
   4.1706271476   14.5414060685    3.5350215011
  15.3444180997   15.5721938595   18.5643578775
   6.5389002819   14.2348455440   18.5223157545
   6.4830631936   17.3930327893    4.8115240553
   6.5526770153   19.2852366307    3.3116346376
   6.8811940515    0.5559040670    2.9474156625
   5.1228112888    2.1234223507    2.7982971710
  -0.8469318362   16.9961881655   11.2935183454
   5.8377676624    1.3345919354    5.9717212105
  14.5116749332   15.0735586961    9.3690932639
  16.4353217346   17.2488074650   10.8237633653
   5.4787567622   15.4725321427   12.4852431956
  15.4021930417   18.0128718869    4.6350612111
   7.0396459414    2.7699400343   18.3107806965
   8.4958333640    4.5130589792   19.4279815478
   8.2607047086    3.6129301952   18.1961732912
   5.5540360330   15.9671083717   14.8872198705
  14.8659488030   18.9767697334   11.1766250869
  12.5145963368   16.2012612562   10.2328836052
   9.7063159105    2.1574070788   13.5592296734
  14.8105180267   15.1618693229    0.4245950193
  15.1695174506   12.2975276441    6.4365920250
  11.9358875508   15.3649760988   11.4278812220
   4.9034972695    3.5163774947    6.2423465534
   2.9534584775   13.1874288651   12.4995817888
   5.1913716827   17.4189102890   15.2580061568
   2.1633974001   18.6078774695    8.8887526349
  10.7894748426    2.2278520346   14.6978372831
  11.9560669681    3.1552533635   14.3662571483
   5.1506517085    4.9059645406    5.7151498474
   6.2584293862   19.5160004026   14.9235739659
  11.1045992592   13.2793972087   10.8227288299
   0.3969969799   12.6170808999    9.0530993884
  17.8300180904   10.7241768849    8.3088158036
   0.6537240430   18.3683124539    7.0458174372
  -0.2148291627   10.3959940623    6.9044942574
   6.9866009153    6.3403690903   15.1238344312
  16.0786885188   14.3431455850    5.4917779975
   1.2674170935   19.0529187106    5.8581710743
   4.3383561847   12.6460973529   10.5636923109
  18.0242850291   10.8181778633    4.5019600936
   4.1671322888    7.0512199465    5.9687068056
  11.9343730369    1.7245766920   18.7797586420
   2.6647384149    4.0668584691   13.6426837972
  11.9296411251    0.0968009108   18.8038336560
  17.2934492391   14.7624133307    4.7515912493
   8.1327421338    6.6064810503   16.1580954132
   4.7366982718   13.3486023673    9.2867495543
   9.4469387361    7.8445702025    5.9473521797
   2.2348867095   19.0121409115    3.7268902848
   8.5321126687    8.1287328562   16.2841282993
  11.2690078560    7.3469128818   10.0075302485
   1.8028515073    6.6785082334    2.5218693844
  13.1408035539    2.4373532718   19.2576221555
   2.4800661431    4.7872006868   11.1435733634
   1.7426957664    4.2035852591   12.3872300220
  10.9793849930    5.3177098730    3.6388840279
  10.1398375030    5.8976750101    4.7361407167
  10.3221928010   16.6000474736   18.7722884425
  10.4509906102    7.8162476074   11.2181031093
  14.3730792136    8.0324410719    4.0747716382
   9.5032514132   18.1369515643   12.1133665931
   0.1139352674   14.1774366575    2.9436625720
  15.2972698588    4.5371614580    5.0946289335
   9.2586431496    8.6076302901   10.6200125142
  15.4380672224    9.0294425799    2.0721474988
  12.3813118112    6.1826469930    1.7804592462
   4.2096834181   14.6177679295    7.2764370744
  15.0328481545    7.0522780780    5.0716615462
  18.1416705480    6.6838205778    2.7452998768
   9.5208415599   18.0126588757   14.4577604497
  10.4577069154   14.2438400269   18.9957179080
  16.9243749638    7.4287987698   15.0766565028
  -0.8287728971    7.1874766473   13.9187948882
  17.6414033698    5.9737657358    1.4858479355
  15.4584711601    2.9630296588   12.1061014563
  10.9765481401   13.1663271728    0.0125179867
  16.0300172556    4.1400149147   11.4238283784
  11.0215881131   17.9018598567   14.6606965414
  15.6742443488    4.1626070000    9.9000347998
  -0.4807506442    8.4007345625   13.0337660747
  12.6538372007   18.6758935161    7.2454420938
   4.5801625395   11.4165357518   15.9202077719
  -1.0039215275   10.5122167465   19.4670258709
   2.0150184484   13.9979126657   16.5228205194
  16.9052316394   12.8144824750   19.5007275116
   5.4760749666   10.6950714590    6.3655926797
   6.4621053450    9.1928784164    3.8964889807
  11.0369388623   17.3981497906    5.2127414452
  10.4656144326   18.3515225080    6.3143891024
   2.9714020879   12.9255971518   16.8726277056
   1.2551431845   19.9549519765   13.4628832988
   0.6041960027    0.3948235119   13.1196657470
   2.8049617991   18.3414667541   12.9151506026
   1.0262895098    0.7167409113   10.7257484974
  11.5769284107   11.6429296924    1.5652408152
   3.2558118755   10.4782007045    6.8267983504
   6.7297008972    9.8610788323    6.3149529996
  12.9716012910   19.2484788915   14.3909699477
   0.4790400446    7.5100167183   19.0287774442
  17.3724765022    3.7301729441    0.8301530304
  -0.0413116805   13.1083424770   15.9178057519
   0.8617306527    9.5049828875    0.2348734958
  10.9812130486   18.4228031760    2.9930513419
   9.7765601808    5.9135890633   13.8406688149
   6.7293369139    2.2525889767   17.0096301260
   9.7909807862    4.5645626334   19.6659688451
   9.4187850037    3.4052765031   13.0919635158
   6.9816736846    1.7922967907   19.1863120023
   8.8863978152    3.8928574962    0.6250359782
   6.0820313722    3.6673471857   18.5162784001
   7.8911165621    5.6992256039   19.3287738956
   8.6225313882    1.6336398838   14.0464315351
  12.4230728312    3.0155926085   13.0835951794
  10.0830311430    1.4797150557   12.4333591921
  13.0219839123    3.1076322619   15.3127780409
   6.0643433029    7.3861673299   14.9103810776
   6.4498065552    5.1300453854   15.4179929744
  11.4590911858    4.4966383086   14.3588113893
   7.4564753662    6.1594744051   13.6592121941
   3.7370491132    3.3022128294   13.2245002316
   9.9373757427   19.9815499042   18.1277561676
   2.9982428771    5.3081340940   14.0483334102
  12.2006552720    6.4024425247   10.4406899646
   1.6897230184    5.5683398540   10.4134591203
   9.0915670636    8.5333364774   15.0343288860
   9.3819122383    8.3315343221   17.2819208308
   1.9972438650    3.4555375844   14.6674621008
  12.0520640998    8.3593513058    9.5144092495
  11.9719377153   19.7019410924    0.0697228531
  14.1353407774    1.9892078631   18.3532984378
  12.1878092960   19.7921014392   18.1446167956
   3.0145793989    3.7301942978   10.4417710939
  10.6737570145    6.7150356409    8.9880945411
   8.5483860537    9.2787937532   11.5468684783
  14.3121575777    1.9325097873    0.5613853633
  13.1207478539    3.8064466635   19.2889973986
   7.3455335131    8.8713600085   16.5392915493
   3.5011138478    5.5557862323   11.5514634371
   8.3246612201    7.8346174583   10.0029362750
  17.5565843595    8.0806266564   16.1524585885
   9.6694875470    9.5915750606    9.8078097641
  14.2907093750    2.5399956133   11.5641798581
  15.9148895564    8.1666374083   14.6772741069
  15.8473251829    2.9070108298    9.4243041967
  16.3205658077    1.9160876034   12.1759161520
  16.3762633940    5.0806194760    9.2058537220
  16.4830390993    6.2271840088   15.5106503838
   0.5824637928    8.0097803899   12.3347304265
  15.3734449477    3.2850966333   13.4390854153
  -0.1418190780    9.4548399247   13.8711353396
  14.3740814157    4.6113511165    9.6541731566
  17.1391296906    8.6411648101   12.1884018962
   0.8392417628   19.9052923716   19.5152047715
  16.1861416627   11.3348550871   16.6310584903
   1.1977595440    3.2323437443    2.6756114337
   7.0396076988    6.9527695461    0.5819563988
   6.6268456548   16.1471971017    8.4689488734
  10.8259737090   11.8399539985    8.0696903234
   5.0585408511    6.8061974188   19.1388862331
   4.4079507917    3.4050441219   16.8956514290
  17.9764086528    2.9161013397    6.3686321472
  17.6183467972   17.9758776051    1.1850790363
   2.1265214146   16.5015024568   18.6155790879
  17.6425204023   19.6406780997    0.6342898380
   9.7609798855   15.7963953608    7.6516784555
   0.2517287565    1.8350845982   18.5742445074
  15.7886246953   18.3805017325   19.6806968610
  15.0279283118   12.9871130588   12.6150030147
   2.7925126130   19.6637170450   17.9358155326
   9.0187846468   14.5785445156    6.4121741083
  15.0179007765   16.4014146241   15.1795310482
   4.9025407639   11.1432519134   19.2599558192
  16.6663710162   12.4598934782   12.5205337791
   3.5337225794    4.8188506156    0.9749555617
   2.7188924635    5.8749193320   19.4548286142
  13.0706759211   11.9633604085   15.4839065298
  13.1037839376   11.0438533790    5.6382068079
   1.8138921830    1.8570830939    3.6779858090
   0.8272714454    2.4176879288    6.2942465065
  12.3016288074   13.5152401175    7.7852494522
   2.8129793595    2.9061939907   16.7366713213
   6.5097296298   18.9856486427    8.4737921437
  14.5652342651   14.7628281607   15.8089035719
  14.2637645777   11.5665763376   14.1929578209
   3.6976826945   15.2341162065   18.5162475083
   3.7412583316   16.8435841345   17.7756224233
  13.4571633467   15.8714316883   15.0100058727
   7.9735351860   17.2731227834    8.1087574426
   1.5518807763    2.8112341675   17.9453587174
   4.2707561303   17.7859188977    1.6913118497
  17.8376513063    7.3395291570    6.8536369314
  14.9865904437   10.0588220264   16.2747179471
   2.2303370916    3.4414307782    4.2793127363
   8.2891486043   15.9408152791    9.3475515080
   9.8375877743   12.3802812628    6.8707218254
   6.5493633343   10.9734256747   19.6815270176
   9.6603668443   14.0971211543    8.1041311966
   6.1821917176   10.9929062090    1.0081343042
   4.0047692812    4.6147396855   19.6551091749
  16.2882147690   14.1526489398   13.1174524426
   4.1842826819    0.1782841426    0.1964863045
   4.0353425670    2.0230762314   15.7663761349
   0.5375458607    3.3022713648   19.4051263628
   2.3861976034    0.4330630494   17.0953440154
  17.2741633659   19.3691910585    2.8396704888
  17.4474141738    0.7211974482    2.0179584503
  12.5927194909   13.0011273012   16.9516184764
   5.1674785316    8.4711831501    1.4221538314
   3.6988752745    8.5241918791   19.6601296716
   0.7006264983    7.3269630758    6.1212012913
   1.6835264684    4.9165132995    6.0887139001
   2.9287973869   17.3990434528    0.4297618938
  12.7372213832   10.3310757123    7.3834767166
   6.0858397945   19.1451009656   11.1655413216
  12.4483584504    9.3505737141    5.8180066882
  12.2636968155   11.2157127220   16.8237102959
  12.2597139852   13.3108240601    5.8510517871
  15.8767612447   10.5784349501   14.2556876358
   5.1563650716   17.7192047159    8.5891604912
  10.0382176969   13.5112319512    4.0773072977
   0.5937003142    4.4407790755    7.4553402206
   0.2880687176    6.6481419221    7.7633699213
   7.7852959369   14.6897082209    3.0938280814
   5.4444626475    1.8046908783   11.3381718108
   2.9112835407   15.1574687687    0.9735411648
  14.6071217438   17.5598512341   18.4684537998
  15.8582840171   17.2514942763   17.2254046788
   7.2985906050   15.4482466379    0.8751759462
   1.3237793067   15.1931418130   11.9321104564
   9.3613456823   11.7440328004    3.9923335502
   4.2818978070    1.8050854072    9.9077814690
   4.2961316483   18.7402013630   10.6081692869
   5.9791773991   15.1304975277   18.4742021682
   1.4358166755   14.8106232733   10.2263589906
  15.4261285641    0.8053797841    3.3461951537
  16.8112017850    0.7270976345    4.3989030698
   7.4527910617   17.5251329943    5.2672275650
   6.5307984626    1.0586928706    5.2786910984
   6.0191518879   18.7115262343    2.5193788576
   2.6665980420   16.1641796513    2.4529315784
   7.2225291460    1.3347271443    3.6491211037
   3.9326409873    2.0891539702    2.7226548889
  -0.6919376545   16.9746427151   12.3420374995
   3.9120613747   15.1347237271    4.3608601222
   3.6181161965   13.5842792789    3.4528864088
   8.3956806715   13.1323207081    4.5180968554
  15.9777300379   14.8565272569   17.9414312846
   4.1323198799    0.6538989423   11.2181715105
  16.0697072734   15.7354008652   19.4588360235
   6.1256112448   13.5327021834   17.6550985201
  14.0670721595   15.0363597428    8.3899751807
  15.7467774315   16.5477369247   11.1490558208
   6.9349152479   13.1640247548    2.2528399738
   4.7758497264   14.8665721585   11.7404660051
   6.5405399152   16.7488576999    3.9148498806
   6.5184140730   14.8771947871   12.4355692206
  14.3104383121   14.0048105598    9.7761596381
   5.5498472522    2.7691338818    1.9211207241
   1.5859939771   16.5365309470   10.7608569978
   8.9600522354   14.7049620882    0.7383531220
   5.1695440466   14.0415364585    3.7716488501
   4.7288008223    1.1428227426    5.6644522350
   6.0337638520    0.7578047533    6.9482848934
   7.6199746878   14.4467004586   18.2602954551
   8.1094558752    4.2880727682   17.2657519034
  14.3450114233   18.0737794964   11.6054961920
   5.3201350765   15.4830934127   15.8952709627
   6.6527112521   15.7600913903   14.9338709643
  12.1260626232   15.8359111273    9.2372177072
   5.8467124583   16.3796365155   12.0720910778
   5.7272204071   17.0758123250    5.4843732455
   7.6395039888   19.3132006887    3.1820349964
  -0.2117618697   17.8304533713   10.8955069681
  16.3768307443   17.9687503464    5.2674648228
   7.5167054537    0.6724628335    2.0192848734
  15.5975017541   17.7608836447    3.5550728836
  14.8028744751   17.1585038525    5.0868027550
   5.4267954756    2.5957263882    3.7346019577
  15.5542125780   15.2064957467    9.1573601107
  16.2878905873   17.1389229848    9.6936544837
  12.2069893803   15.7086033089   12.4576290419
   2.2342855553   18.8942052109    9.9881089739
   1.8720474483   13.4891371416   12.6478382260
  15.5183931180   11.2032163173    6.6530041335
  14.5688872789   12.3075827276    5.4838395936
  14.6779763684   19.8784875550   11.7423877993
  13.8566554460   14.7290772545    0.6204680127
  15.5422446318   14.8907976101    1.3019660142
   2.8343245029   12.0426988330   12.6234200953
  14.3183307714   19.2390605050   10.1980340490
   3.6141705421   13.6342624423   13.3594416805
  14.6571995426   12.5994584123    7.3542857230
   3.8918611558    3.1284230737    5.9621277784
  12.3920162585   17.2712788430   10.4131599845
  -0.3610565226   13.3713140912    9.3227871738
  11.4007245433   12.3187287979   10.4500744717
   5.1016487065    3.7122535078    7.3222901085
  14.7900561676   16.3709494544    0.4683136081
   5.1100021492    5.1544659361    4.5654174219
   6.1711177080    5.2101109038    6.0514866228
  17.0453962658   11.4857888721    8.0358440524
   7.3291637983   19.8269848157   14.7336845368
   2.8945973899   19.0465710055    8.1679271130
   2.2554105163   17.4750141871    8.8098038075
  10.8269471069   15.3473297308   11.3951900695
   4.8829827218   17.4400455701   16.2955435701
   4.4404389871   17.7926610103   14.5212630052
   0.6382919676   12.7098296617    7.9620709398
   0.5027638061   11.1611953882    6.8550996933
  11.0745357349    1.1758301032   14.8471384290
  15.3534143868   14.1328253854    4.6572283233
   5.8948498564   19.9342679137   15.8789275938
  10.7609938030   13.8107217255    9.9724678226
  17.2126642690   11.3229270850    3.8036652143
   5.5755294602   19.6882388897   14.0189041760
   2.3033062446   19.2374448534    6.1651350995
   0.7727575059   20.0919048297    5.7024400744
  10.3866501229   13.1495574061   11.6494732738
   3.9035937575   11.6244263895   10.3390450491
   1.4017685406   12.8003746996    9.5349335768
  15.4474897382   15.0121770887    6.0285439276
   5.2808206363   12.6783945130   11.2454864512
   1.0285154624   17.3087516311    7.0665973723
  11.2744511788    1.9565465490   19.6210908672
  17.2656976092    9.9034628723    8.8523078387
  -0.4850137789   18.3700389137    7.0185280260
  -0.2934848187    9.9381294273    4.0457412732
   3.6710881000    7.6093412701    6.7110391695
   9.9056987840    8.9192686006    6.0924473920
   3.6207967933    7.2281452476    5.0351696604
   0.3563207684    9.4643845636    6.8669089628
  -0.4413606441   14.7010953851    5.3114165591
   2.1831202691    6.5807786708    3.5254901642
   0.1309410896   11.5572634275    4.3976864933
   2.7512214624   18.2419361341    3.1337016508
   3.0896737662   19.4291733359    4.3312355295
   5.0782620037   14.3324912951    9.5340973881
   1.8001454911    5.7314371580    2.0283663536
  17.3126654854   15.7398560139    4.3833180899
   5.6855351672   12.8150928381    9.0104699471
  11.8814064199    4.7739707675    4.0100252011
   7.5639048932    6.5364752580   17.2239569297
   5.2134955803    7.4282660156    5.7545632387
   2.5328756146    7.2917743398    1.9220032753
   8.6582843426    7.8310868791    5.1757130697
  10.9463967113   16.5115371609   17.9367051157
  10.3740724326    4.6511219544    3.0846822590
   9.1440453289    7.4587681095    6.9480219168
   1.4334451349    3.1077877428   12.0526443875
   9.0550256933   19.1270222517   12.2622660967
  14.6487524534    8.9686872483    4.4110766432
  10.5608125763   17.4700937709   19.3284967757
  15.4888213015    4.6239453212    6.1394678467
  13.3061017912    7.9908626090    4.0478697052
  10.6365070916   18.3045118881   12.0526801672
   1.8410763118   19.8306353776    2.9418470842
  16.4940644342    8.9471283366    2.0707870586
  13.5041405412    6.0813514101    1.8783454217
   9.1649005562    6.2518689851    4.3117192340
   0.8206363012   14.4195313861    3.8030192097
  15.2321572702    9.9838239428    2.5599770983
  12.1255060869    5.2930331431    1.2688371860
   9.2577091243   16.6608469815   18.4702415971
   9.8280925362    5.1422567265    5.5364813702
   9.2400995943   17.5838902044   11.2759655820
   5.2105544901   15.1309299523    7.5679896534
   0.1286109161   15.0133390011    2.2678004665
  11.0442961052    8.5962859323   11.6809618965
  16.2864581719    4.5323457523    4.6633015546
   0.2511348323   13.3194394483    2.2009677473
  17.2750951734    7.3770894734    3.0599752030
   4.2469962098   14.2380583575    6.2683074381
  14.7147632677    3.7834398500    4.6823949890
   9.1596724312   19.0335364565   14.2969315857
  -0.2893082476    5.9537945700    3.5281812956
  14.6155190364    7.3213873570    6.0406565242
  14.9827582088    9.0633389843    1.0723937003
   3.2496169878   15.2613098806    7.3766782672
  16.1565404275    7.0658035666    5.1271634942
  12.2673079717    7.1011328454    1.0124563251
   9.8389630056   14.2207669920   18.0077378970
   0.1944148927    6.9259890516   14.2560223546
  10.1021310490   12.2231554259   19.3982835389
   8.9634363086   17.5633618910   15.2740148308
  11.4184508881   13.9820160219   18.6206197970
  16.5922032431    5.9196357424    1.6794848052
  11.3600623759   17.0705528614   14.1494340626
  17.9258242948    6.4523145089    0.5392524671
   9.9712638084   13.2389621069    0.3977735212
   5.4970854869   11.7857925490   16.5373930099
   1.3150033623   14.3808238613   17.4138191143
  12.1435390529   17.4249528733    5.0808892891
  12.6617404713   19.4425046985    6.5077524841
   5.3796507873   11.2705428918    7.2868932447
   6.6473136530    9.7835153562    3.0653918816
  13.1717227995   19.0008721735    8.1841896935
  16.7458850564   10.0679080719   19.2564061637
  -0.6393015012   10.8597382580   18.4490824840
  15.4482340732    5.0201876106   11.8666487133
  -1.0702555384   13.6343698718   19.7101705861
  16.6626361118   12.5137990681   18.5417877020
  -0.8431928763   19.7256102076   13.2079863969
   2.8281536175    0.5396260072   13.7582757399
   2.4115877390   17.8418273969   13.8377240578
  -0.0438251386   19.8589778724   10.5620378021
  11.3989043189   17.7812941073   15.7368439513
   5.8155324537   11.4905526664    5.5506604754
  -0.6671144388   12.9495512231   15.0476261835
  11.1980224101   17.8602060389    2.0554446026
   3.5336754306   10.8776031445    7.7645136184
   4.1922349981   10.5179595249   16.4808587135
  10.5359407630   19.4164449191    5.9703534225
  -0.5564013792    7.2109698619   18.6592562869
   2.5853316856   14.8928603314   16.2625519264
  12.0996209046   11.1725615364    2.4520873921
   2.8793223346   11.3710426423    6.3199026016
  14.1050951181    0.1035349659   14.0138236144
   7.1071928490    8.2871456139    3.7606887865
   3.6689423397   13.5292935971   17.5230646225
   3.7680630284   18.8813333854   13.1912393603
   2.1466786217    0.6603686145   10.6599707961
  10.6596163466   16.3676148179    5.4879282695
   0.2057070302   12.1505924015   16.3847279648
  16.3662466156    3.5259872332    1.2374112898
   4.9597336155   11.0628879714   14.9284722329
  16.9507520173   13.1071882515    0.1486352911
  12.9912252007   17.6951807761    6.8789958227
   5.3717287955    9.0001915249    4.0180877436
  11.9662335450   11.0442412700    0.7543082863
  16.2131355112    3.9293859524   19.7209892151
   7.6171629051   10.4057071843    6.7705199100
  13.3574112522   18.9842443116   15.4271239845
   0.9023226204    7.1374537296   19.9560888492
  10.3176615884   19.2536313679    2.8166570606
   1.3478968378    7.1538101143   18.3548782572
   1.1418776694   19.2845833305   14.3070982249
   0.3962414856    1.2060822655   13.8107740376
   2.9588092614   17.6871245634   12.1232725060
   0.7115174500    1.2575605552    9.8160743425
   0.3704887851    8.8837329614    1.0402994749
  17.9947500435    2.7517839913    0.8240798613
   1.5374945656   10.0709986602    0.8623588466
   2.3283146431   12.0879138905   17.4180898541
  13.6069395528   18.5625214499   13.7654613665
  11.8585944496   18.8524179591    3.4651628634
   2.5811705357    9.5690964814    6.8821692964
   9.3726809161   18.0326626091    6.5264227293
   6.6018783544    8.8664354147    6.7744923038
  10.5398346280   11.3475602137    1.7244730956
  -0.5152216147   13.6989237714   16.6829586519
   6.5435388248    9.1785468814    0.0089254792
  11.0525520451   14.6352593984    6.6388389079
  16.0330046594   12.7368478310   14.5492782996
   4.0063329005    1.6146724891   17.8510687981
   1.9402359807    1.8275673899   19.9105089324
  -0.3699384710    5.5818534628    6.1463205078
   5.2333083614    6.0815155823    0.9711761261
   0.1095935617    3.0479658063    4.3819443132
  11.0499489278   10.9933437234    6.2652475860
   6.9727917501   17.5097105703    9.8971539676
  15.9117125969   19.1211376435    1.4673561542
  14.3770561507   11.9321384686   17.0627456409
   3.8248725570   16.8683850130   19.8665649917
  13.9187115430   16.5062954736   16.8277438067
   5.7901416587    0.3968251824    9.7959029085
   4.5041244470   15.2902815163    2.4216140927
   8.7541617925   13.0268612005    2.4972442205
  14.7079237790   19.2585092952    4.4370267085
   6.4152329326   13.6645979704   19.7683943832
  -0.4168330400   15.7101430724   10.7781398800
   6.0731783354   18.7463789479    4.5580145191
   5.5460531165    0.7141949674    2.6555069020
  14.2057537526   14.8737247540   19.0243882487
   6.0046392808    2.7673594659    5.8453198914
  16.1603480157   18.5791865636   11.2327576921
  14.0031422496   16.0893268413   10.1888520776
   4.8749637715   15.5387721114   13.7528830455
   6.4842823147   18.1277497625   14.9503470436
  10.1213324401    2.8579994568   15.7193948100
   9.4563417723    2.9069003223   18.0559379121
   0.9804861669   19.0815101346    8.2441281377
  12.3571235003   13.9335963021   11.4260115467
  16.3367475280   13.2149897852    6.2417796915
   3.3246984546   13.4995254066   11.1615502837
   0.0628746107   11.3012483365    9.2868976847
  17.5006148089   10.6673381748    5.8448023971
  11.6220597047    2.1159257575   17.4544818681
   4.1726138903    5.5948668413    6.3724044009
   1.2902657767   18.4059184017    4.6079020336
  10.5917430687    7.1044156477    5.3930208024
   9.1820916245    5.8147822516   15.8993426268
  17.5801288924   14.0161735534    3.5854347308
   3.9605176791   13.5072031653    8.1376659113
  10.0476339284    6.8567135648   12.0553264146
  14.6125121333    5.6776177746    4.6038974286
   0.5787256648    7.4226731280    2.4596214755
   0.6867578926    4.9669778544   12.9696911088
  10.3163924847   15.4616173116   19.6596362915
  11.3378857499    6.4268003543    2.8058039271
  14.7894668551    7.9013569344    2.7120323199
   9.1890767472   17.2766839972   13.2575235964
  17.4175877329    4.3648326717   11.6607329038
  17.3054440818    6.1838396875   13.0661907949
  18.2603841788    4.6710463362    1.4244937202
   3.6331361540   12.5416478947   15.7272270423
  11.5302315719   19.1192283482   14.1855084285
   7.2059597316    9.7679842581    4.9288531023
  11.2499716989   18.4580157613    7.4544539381
  11.8222764171   12.9366809411    1.2085141490
   0.5835754991    8.9005392822   19.0312053111
   1.6677789881   19.0979166273   12.4469325417
   0.4488108942    1.1765797774   11.9491820519
  -0.2919514880   11.6455055823    0.2132156920
  10.4515919352   17.4863909924    3.9336054977
   1.1554274143   13.7746426741   15.4184160412
   4.3274737657    9.9433904229    6.1317841242
