B2 C140 Ca1 F48 H298 O66 
1.0
1.8990281280917369e+01 -5.0143724782116255e-16 -1.9537110432039338e-16 
-2.6792557970416144e+00 1.9765950161000124e+01 1.7197278304134773e-17 
-6.7683244142148480e-01 -2.0074846872349239e-01 1.9310401304620985e+01 
B C Ca F H O 
2 140 1 48 298 66 
Cartesian
  10.4630493941    2.1061466417   16.6538557346
  -0.9424329876    5.3873773258   11.9037559705
  18.7292384809    0.3215871856    1.0671777487
   8.2061908379   14.4494297088    7.1913014127
   5.6998848182    6.6863746683    0.7649234051
  14.4006778669   13.0146859800   12.4603364338
   4.0589718638    1.5569281298   15.9719306575
   2.3746229584   -0.1247102003   18.7664886808
   1.2069973195    2.6729321608    4.3011476529
   3.1997500141    0.0414323939   17.4105009524
  -0.3461348895    3.1985665300    5.9473463035
   4.3036889332    4.7918249832    0.6049100264
   2.5678621599   15.7420493460   17.6470485406
   1.3553261443    2.0471741652   18.4685406690
  12.5534572810   14.9522458566   15.5599528598
   4.6584330135   10.2216600102    0.1863062743
   6.4410162657   16.2592892540    9.1066643373
  14.2406926060   11.5017332371   15.8806181707
   9.5413713736   11.4420273784    6.6771014552
  10.0244107656   12.9247303254    6.6098595621
  14.1036237590   11.4791966928   14.3327395625
   4.5912776167    7.7091378662    0.6772894100
  12.1926862809   10.6760375039   16.9283745790
  11.5073624991   10.2390623299    6.6206785408
   0.1849942569    4.3310479531    6.7718957923
  -0.0830861087    6.7486162362    6.7577723318
   4.9194963671   18.1155688490    9.3050976836
   2.6667097037   16.2606138865    0.8083662657
  17.3568947603    0.7612819795    3.0045404000
   4.0397522751   18.8024125939   10.4449897010
   2.4553357996   15.1334367707    1.7751578124
  13.9662822443   16.0599785972   17.1377410545
   6.1483839969    1.1839697765   11.0290513453
   7.7117295645   12.9027104116    3.7190150976
  15.8426284515    0.6774697395    3.4578224773
   6.2842673091   13.6700998907    2.0000204503
   6.2824488454   14.1333303268    0.5487102949
  -0.9184631554   15.0320446511   11.5007442874
   3.4645112815   13.6682250655    3.3118198767
  14.1951438638   14.8300332128   18.0691713596
   5.5857671125   13.3614989117   17.6077783446
   4.7427784024   17.4270382299    4.2677816952
   4.7456549847   19.5755606802    3.3988932148
   6.8442261631    1.1694955540    3.4419787476
   4.9603220228    2.1439257760    2.3037550943
  -1.9901044719   17.1202798234   10.9891111307
   6.4234091099    0.8688562642    7.0909517167
  13.2930730077   14.1537659358    8.5933127417
  15.5496554039   17.1239971588   10.6096771899
   4.0965395793   15.3497356534   12.0239132779
  13.7897315793   18.0794103026    4.0979010822
   7.5470288865    2.2347588287   17.9247816618
   8.7730670642    4.3391282671   18.7741950326
   8.6198405470    3.3021588569   17.6636835969
   4.1752529658   15.3513601656   14.3507907089
  13.3393075370   17.9176948659   11.3804461464
  11.6367196454   15.2833239813    9.9745231002
   9.7347560436    2.2389141774   13.0508198248
  14.2588660506   15.7525860079    0.9932874025
  14.0804645196   12.7075296292    5.4047388861
  10.9829843640   14.6276752879   11.1380201682
   4.8843842811    2.6350662481    6.5652627534
   1.5965956992   12.5892924823   11.6911881806
   4.2810869722   16.8458700629   14.7094835637
   1.1438595095   18.0633102891    7.8908222853
  10.8277301101    2.2245680519   14.1590339825
  12.1015054053    3.1660781951   13.9457390734
   4.9827379606    4.0076417796    6.0070646901
   5.5632492865   18.8578175689   14.2199487009
  10.2791217466   12.5433526067   10.1898092141
  -0.5806672667   13.1596608271    8.4676591494
  17.0096235053   11.3168587487    7.8814337182
  -0.7580809043   17.0511325459    6.6960904188
  -0.9626481721   10.4956075895    7.0417409549
   6.2488309985    6.0350093836   14.6932731211
  15.2727709946   14.4202136299    4.3336994106
  -0.7141823198   18.1492998343    5.5981137927
   2.9949564007   12.5286369755    9.6753322288
  16.8881619419    9.8721427187    4.9982353646
   4.0798167567    6.1873564169    6.3116065226
  12.0564399156    1.0040352434   18.1929147768
   2.4404044668    4.6011822560   13.1087625322
  10.0611047218   19.3154031504   18.3757723070
  16.7039830243   14.4735847268    3.7661456705
   7.3569085859    6.2638673495   15.7302253606
   3.5520194789   13.5765944256    8.6082991185
   9.0422055688    7.4112428168    5.4649424869
   0.3177720841   18.6632192948    3.6266326656
   7.8875901245    7.8403721735   15.5020392681
  10.5298005203    7.2100023371    9.8305019815
   1.2812113360    6.1742347278    2.6325779447
  13.0257846669    2.2688016879   18.4943185687
   2.1171403594    4.8057679623   10.6012009593
   1.3626389984    4.5769722798   12.0311409499
  10.8170169662    4.8972695258    3.5673639925
   9.7005311380    5.6509176731    4.2396255415
   9.2571328207   15.5101318764   18.2104286938
   9.6800709954    7.7933456750   10.9767643059
  13.6824405485    8.0934433527    3.4544198919
   8.8599318172   17.7864584818   12.2740913928
  -0.5291300589   13.0117661336    3.1226193835
  14.7349950396    5.1485697377    5.4431410807
   8.2631318414    7.9469749229   10.5408485502
  14.7522556993    9.6960126366    2.0333823020
  12.4515250781    5.2971670240    1.8086358353
   2.6725952074   14.7248428230    6.7496739566
  13.8343173307    7.2431157253    4.6387263178
  17.8913410028    6.5573528654    2.7599119800
   9.1233125369   17.4094466538   14.6743925123
   9.3859340162   13.1889367142   18.0345680336
  16.0557765108    7.4181526639   14.2683642378
  17.3755282409    7.2880317610   13.3961166989
  17.1580934972    5.6955425138    1.7016889195
  15.5754145797    2.7568906623   11.2744643872
   9.1749582627   11.8383322412   18.6678096686
  16.0913383260    4.2282175573   11.0239237664
  10.6577445583   17.6015056835   14.5346306567
  15.6193877045    4.6590937274    9.6313595040
  -1.2019800422    8.6003746868   12.5431813878
  10.8266133295   18.8181645570    7.0206388428
   2.7973776158   10.1371570652   15.2744048418
  -1.5804214777   10.6468421505   19.0085328521
   0.8222750918   12.9799526613   15.1954843429
  16.8821594695   12.9938201277    0.0355828237
   4.8287677830   10.1967671130    6.5338517129
   6.0801636459    9.2291610656    3.7023512692
  10.0703976990   16.5662380917    4.7702035119
   9.2620911501   17.7278418501    5.5059301730
   1.7949979817   12.1903713377   16.0604102020
   2.6727069565    0.4442666437   12.9561115063
   1.2681792702    0.8511771156   12.7304221577
   1.0408377426   18.1463040543   12.6136990920
   0.6010696246    1.0968685080   10.3078805992
  10.1741262194   10.9658597442    1.4123830727
   2.5347456509    9.9066181691    6.3975542433
   6.2268888478    9.5969444411    6.0853924287
  12.3503791544   19.2966249876   14.7342318808
  -1.0225304399    8.1541116897   18.4682264325
  17.3005357583    4.0299240814    0.1147147096
  -1.2979995438   11.8014493782   15.1269288566
   0.4343816890   10.3169687026    0.0727458304
   9.8109206840   17.3728814294    2.4710900943
   9.7032511300    5.7202080854   13.5993294338
   7.2100556651    1.5566041515   16.7327874783
   9.8919287150    4.9962014284   18.5839043640
   9.4327814249    3.5292465916   12.5951435908
   7.7183283680    1.2265294067   18.8811858176
   9.4197091203    3.9445043022    0.7169596294
   6.3873973865    2.9061198348   18.2755524477
   7.6964222360    5.2051381517   18.5765886558
   8.6176850498    1.5717481883   13.5582801108
  12.5025413936    2.9614046819   12.6240873540
  10.1517399455    1.6109243587   11.9399396209
  13.0853553246    2.8614376071   14.7983644804
   5.1170527746    6.8352304076   14.7773201634
   5.9863957116    4.7327935531   14.8073283808
  11.7522379523    4.4312194366   14.1953654930
   6.7378446074    6.1366487086   13.3968020462
   3.4657015517    3.7282430254   12.9141665322
   9.1480283734   18.3907719024   17.9993229535
   3.0591795680    5.8130041882   13.3858807585
  11.6998183315    6.7987164995   10.4051847529
   1.3154022939    5.0424103555    9.4991313749
   8.5207247460    8.0038819409   14.3308426877
   8.9639269628    7.9975576250   16.4083579173
   1.9566577943    4.1398718788   14.3452414405
  10.9464852321    8.1922776800    9.0141868919
  11.1658417411   19.2547922716    0.3436492857
  14.1420419860    2.0100923738   17.7946125790
  11.1260965513   19.2075646359   17.5662747408
   2.9232734645    3.7910487035   10.4849277048
  10.0271551573    6.2179941886    9.0341083518
   7.4828236806    8.2467169696   11.6311988366
  13.9833836120    2.3645931198    0.5711893990
  12.5604936692    3.4458465773   18.2457532289
   7.0530775040    8.9039546746   15.7228659198
   2.8529058755    5.9746694738   10.6790880706
   7.8094111148    6.8013855033   10.0190964035
  16.1926862133    8.5577718409   15.0387434895
   8.0630754047    8.9475633067    9.6906186341
  14.2039448775    2.5777518574   11.0363162083
  14.9188520100    7.5029584559   13.5843458434
  16.2728479950    3.8327441752    8.7951149068
  16.2297387219    1.7364068219   10.6105982841
  16.0092158460    5.8935308801    9.1858309541
  15.9959837710    6.3963060438   15.1955930381
  -0.2110531108    8.2963217743   11.7434976630
  15.8216468605    2.4876072266   12.5838256976
  -0.7326823351    9.6135369321   13.3042431376
  14.2048547757    4.5243920773    9.5139752399
  16.7607252895    8.9809566226   11.7575158617
  -1.0815644838   18.8645006288   18.5281081417
  14.9751336075   12.2289469199   16.1175063768
   1.3900964798    2.7294014756    3.2297924141
   6.5326019029    6.9989980401    1.4216870714
   6.1987387578   16.2479704850    8.0227469043
   9.4166102209   11.0774822415    7.7607076850
   5.7160560050    6.6413735664   19.2917212576
   4.5492444841    2.5869131416   15.7702691233
  17.5724520392    3.1449531727    6.0813085938
   0.4322361012    0.9607836307    1.6983952310
   2.2719699358   16.7260972851   17.2941319894
  18.3656504378    0.7416552516    0.1698374140
   8.1706854828   15.5917688374    7.2835570511
   0.7844173183    1.4553968293   17.7277210654
  -2.3124324698   19.2322390498    0.7516772691
  13.4376444448   12.8965985094   11.9566814492
   1.3710043662   19.0991986401   17.2902554953
   7.8651636212   14.2679738257    6.1779846904
  13.5207490119   14.6853129793   15.1860511707
   4.7678828095   10.5470571877   19.1716855759
  15.3275865445   12.5681241784   12.0114640527
   4.2579761331    3.8573342586    1.1765321240
   3.3652581567    5.3527357268    0.6585729377
  12.6904633847    9.8161858423   17.4641948788
  12.1966769259    9.9294827249    5.8646520408
   1.2686743778    1.6386184055    4.6221769115
   0.0676147425    2.3057823843    6.3308996036
  11.1003868189   12.8970198112    6.8098131161
   3.1814188833    1.5749288653   15.3231967277
   5.8597431523   18.7835039232    9.3672020657
  12.1309243053   14.1086797927   16.1716475354
  13.1630181400   10.9392342396   13.8113454775
   1.6347765059   15.1381171712   17.5765543101
   3.3854730573   15.2878454804   17.0370508496
  11.9778235083   15.3970097678   14.7100334755
   7.3142421320   16.8836933132    9.1721912388
   2.1660735581    2.5975536237   17.9086325612
   2.8991286394   17.2338661043    1.3120244508
  -0.7606965864    7.4732082635    6.2608338089
  14.7513026045   10.5614352291   16.1533265535
   2.0509534352    3.2664180408    4.7066751159
   6.4918202246   15.2150008187    9.4350740477
   8.6115242159   11.5718778049    6.1705227355
   4.4958372871   10.5977465684    1.2380603890
   7.4790817595   13.8956176141    7.8751361744
   3.0344524612   10.1159976042   18.8881916308
   3.9249216324    4.3071988744   18.8696022454
  14.6742879074   14.0931412198   12.3349203711
   1.0182267310   19.3337788536    0.2236517990
   4.7384131520    0.9133242252   15.6195676734
   0.7378855894    2.8864789837   19.0430767888
  -0.1334778474   19.5931276752   16.4251421994
  17.9586032466    0.3907476367    3.8318691807
  17.7463860572    1.7925728554    2.7848103273
  11.8537157164   10.2938672678   16.0481635514
   4.2609954775    7.8893215584    1.6793316044
   3.0297196217    7.2101707820   19.2915967409
   0.8576816017    6.8318690523    6.1179821342
   1.2714162589    4.5828913486    6.4968523808
   1.6765237106   16.4146891192    0.4358752629
  11.8131932599   11.0283057009    7.3478756881
   4.6645057020   18.7699820806   11.4181155464
  11.1670307707    9.3859016766    7.1920658711
  11.2753935069   11.0635075415   17.4877436439
   9.8184506537   13.3112151597    5.6322079096
  14.8061738572   10.8532094909   13.9020167087
   4.4331853296   18.0032193582    8.2880976239
   7.9552308249   14.0012955220    4.1598415874
   0.0315433972    4.0798793097    7.8298078215
   0.0369666809    7.0581750388    7.7958364129
   6.1045191662   14.6518828502    2.6133736232
   7.1038615408    1.4415527719   11.5824941211
   2.1421816163   14.2468961349    1.3050649838
  13.9260174400   16.9289428466   17.7769850946
  14.7166259908   16.1930919726   16.3454070805
   5.5095257222   14.9053128402    0.3524463542
  -1.7083177952   14.7443598966   12.3090291408
   8.6177636447   12.2085390070    3.7672810496
   5.7470862343    2.1275443076   10.5948480363
   3.1667362587   18.1962238576   10.5242360418
   4.6522118712   13.8961454376   17.2910618986
  -0.5490814016   14.0605901032   11.0851727083
  15.1434446912    0.4327454900    2.5722486893
  15.4537300630    1.5594200370    3.9188609533
   5.8448021116   17.3273606864    4.0856748804
   6.2805636029    1.1122885951    8.1808749643
   4.5173753605   19.0549562707    2.4620733543
   1.5460313227   15.5096002791    2.4612938513
   6.9054681026    1.5925394918    4.4741279163
   3.8992784828    1.9174670910    2.1724998960
  -2.0506378374   16.9900062795   12.0926241729
   2.4661103620   13.7236727378    3.9121559798
   3.3520771396   12.8337601676    2.6231527043
   6.8064839520   12.5552203560    4.2943313317
  14.0920875298   13.8004416425   17.5490580343
   5.2933744488    0.7249639791   11.5897088695
  15.2515497132   14.6613739355   18.3358796929
   5.7283088847   12.5040609833   16.9214150223
  12.4164087217   13.9893062345    7.8942307573
  15.3869782323   16.1389332688   10.3791314579
   5.3342531291   13.1157915146    2.1104696091
   3.6251544654   15.0097714239   11.0499100565
   4.1041314011   17.0440079743    3.4037058139
   5.1433751515   14.9833372122   12.0903884163
  13.7867262197   13.1951972421    8.7055102095
   5.4246967366    1.9454934990    1.3196821402
  -0.0191767694   15.4795360113   11.9274371934
   7.2160893027   14.6757592924    0.3753722173
   4.2843530403   13.6604259549    4.0121127761
   7.5516705831    0.7180501876    6.8412676384
   5.8733223743   -0.0477914340    6.8322882864
   6.3923698814   14.1446460926   17.4943213330
   8.5238848629    3.8295031547   16.6557181830
  12.9212780433   18.5362583825   12.1905609991
   3.6466396759   14.9565548723   15.3142867522
   5.1792454573   14.9338202959   14.2226139343
  11.0647138200   15.0419527621    9.1024277747
   4.1005058158   16.4056655390   11.8176144558
   4.4505098217   16.8565404448    5.1732121019
   5.8401898279   19.6906705260    3.4138370568
  -1.2496636942   17.8790664785   10.5693190831
  14.4892691600   17.8948805515    4.9214263477
   7.3171129780    1.8206739549    2.6959494159
  14.3594360305   18.2392658523    3.2414749342
  12.9327077599   17.3545211638    4.0770675915
   5.1984403785    3.2026576881    2.6490352173
  13.9283570155   14.7423056812    7.9303063350
  15.2194769553   17.6645185136    9.7781423990
  11.4267759409   14.9419538387   12.0941180769
   1.1463310872   19.0169555180    8.4135051678
   1.2113490711   13.4199498963   12.3092365113
  14.1478512438   11.9979593801    6.3507291130
  14.0849560254   12.0938353673    4.4865976075
  13.3134005884   18.4104270971   10.4028750215
  13.4821763501   15.3732303438    1.7223080994
  15.4277918444   15.6584393876    1.2173525809
   0.8034616316   11.9573353890   11.3245871621
  12.7787027787   16.9249573773   11.3369774816
   2.2207470438   11.9876055990   12.2601991744
  13.0270511898   13.2397819044    5.3778928518
   3.9755285441    1.9900860779    6.2680794301
  11.6172213693   16.4296689425    9.9922913012
  -0.9823331826   14.1004655308    8.8434849649
  10.0961666828   11.5591839863   10.5544899021
   4.8976573123    2.7088011438    7.6307050066
  14.0294938334   16.8437345444    0.8502936412
   5.0111462884    4.2243660168    4.9223470909
   5.8624415300    4.5030470801    6.4155072640
  16.4130525166   11.9912988059    7.1368673974
   6.3947320074   19.0956122219   13.5505063336
   1.4240825734   18.2691949738    6.8552651468
   1.9878783849   17.5870035549    8.3287395682
   9.9074908547   14.9888410267   11.1109331698
   4.2544032415   17.0425216909   15.8192228087
   3.3245589360   17.3761065500   14.3479467166
  -0.6052745161   13.2514134567    7.3493238214
  -0.4022125895   11.1644423232    6.3818791298
  11.1337236789    1.1451945981   14.1192818655
  14.5980584965   14.0400899468    3.5642136190
   5.8237500496   19.1572475887   15.2149482397
  10.7089821768   12.4615661003    9.2099319630
  17.0204828102   10.9689195232    4.7115730912
   4.5751828309   19.1909167520   13.9067313788
   0.1294110876   18.8500856811    5.8439967007
  -1.6521931871   18.7454249296    5.5090619717
   9.3652464460   13.2001519268   10.0640386096
   2.4051873567   11.8234854019    9.0875563516
   0.4922989996   12.9851137960    8.8617914442
  14.7947788302   15.5482073328    4.3386188333
   3.8592421101   12.0159344738   10.1563300416
  -0.1923286085   16.2191717211    6.3076943952
  11.2832642889    1.0867285608   18.9739434776
  16.2289779919   10.8071842825    8.4672763936
  -1.7940138603   16.7476567149    7.0900052530
  15.8478351154    9.7084308666    5.0193594100
   3.3871735220    6.6335723794    7.0622423322
   9.3067764395    8.3577482273    6.0345329970
   3.7852456533    6.6391426554    5.3166479725
  -0.1906453819   10.0500448195    7.7461030306
  -1.6610736933   14.8084795567    4.6455537600
   1.5139873135    6.0114257613    3.6653394158
  17.4633425007    9.2888936106    4.2627417007
   0.3027478743   18.3758958068    2.5591087272
   1.4657774125   18.7757531738    3.8358523466
   3.4180070767   14.7032927402    8.9811292023
   1.1251343909    5.1864842355    2.1370986101
  16.8321292634   15.1262416690    2.8770710573
   4.6280843269   13.3876324179    8.3079765553
  11.6017438325    4.6545567875    4.1980599650
   6.9002798825    6.2653872073   16.7575427936
   5.0848991576    6.5299578118    6.4297794489
   2.1153770844    6.6108637787    2.0681853659
   8.2561212876    7.9120102440    4.7111276839
  10.0892054317   15.7323335662   18.8692918033
  10.5234430112    3.9059751342    3.1659945974
   8.5538523634    6.6310506790    6.1462765742
   0.9962160871    3.4327489534   11.9496646929
   9.0863714654   18.8409117390   12.4096980148
  13.2085975073    9.0043766203    3.7855474033
   8.4431676315   16.2028856682   18.1996979476
  13.8762574427    4.4786702878    5.8215754070
  13.2037932542    7.4172565348    2.6763401096
   9.8374775344   17.3660557112   12.0526962963
  -0.1935721561   19.6134656722    3.7215073250
  15.4094862062    9.4765898373    1.1928922496
  13.4173916906    5.5410155995    2.2863392550
   8.9569582672    5.9199733713    3.4590746881
   0.0117646501   13.1719706414    4.0829106341
  15.1741532234   10.6275278675    2.4717701272
  12.3626286913    4.2204899106    1.5197336805
   9.6418649459   15.3422541054   17.1476409955
   9.1076005007    4.9553461677    4.9016628564
   8.0911431286   17.7326879825   11.5535035246
   2.5427941643   15.4947867285    7.4398471193
  -0.2937214730   13.7495808075    2.2991303059
  10.0515860594    8.7618600537   11.4170030147
  15.1275108269    5.8051596977    6.3576514503
  -0.3996024642   11.9788290685    2.6959303332
  17.1349646590    7.3835368834    3.0626938901
   3.7084744758   14.8006493863    6.2625297592
  15.5416079791    4.4659545240    5.1414510508
   8.7119348315   18.2873227332   15.1503312320
  17.8634275094    6.0193148685    3.7022937781
  12.7898177959    7.2265443326    5.0013808531
  13.7314007861    9.8348032092    1.6698342459
   1.8523634172   14.6025674064    5.8986154055
  14.3952847012    7.6851584306    5.4375508471
  12.5409251900    5.9754096873    0.9097433248
   9.2365192211   13.0731268622   16.9491267114
  -0.8170168118    6.8702557614   13.9826723496
   9.5430734026   11.0426364962   18.0340339920
   9.0843197636   16.4818770894   15.2542173704
  10.4584415203   13.1459240415   18.0727431152
  16.2197777412    5.2437896812    2.1436345937
  11.0102663739   16.8798442074   13.8045836606
  16.7600609218    6.2900168902    0.8971059271
   8.2011697266   11.5301325839   18.9382797295
   2.6630015672    9.8715296587   16.4223649068
   0.3437332786   13.6827525741   15.7908814212
  11.1973832611   16.7227233825    4.6968048641
  13.3315342950    0.1585340790    6.9524389174
   4.9350209259   10.3024974468    7.6213879059
   6.4857777300    9.6290313784    2.7630957673
  11.2027172118   18.5918426531    7.9952119449
  17.2581200805   10.5869385803    0.3580418546
  -1.7956721474   10.4224211490   17.9420898432
  15.5746726741    4.9697805802   11.7359360530
  17.0483013415   14.0632418555    0.1956492471
  15.6180196478   12.6764463064   18.4115151613
   0.6058594749    0.1040817904   12.7463423550
   3.4777018828    1.1586104174   12.8016059784
   0.5366009722   17.6898735089   13.4506842832
  -0.3190740832    0.8162326348   10.6809945498
  11.0347885854   17.3145893989   15.5663353205
   4.7143936233   11.1968074186    6.0969432179
  -1.9947881053   11.4545378707   14.2608803838
   9.3868003504   17.0182391698    1.5512160534
   2.4574805079   10.0800899923    7.4741088176
   2.1995096826    9.5118318263   14.5973049623
   9.3448966170   18.5899770449    4.7725576257
  17.1448730599    8.3538183211   17.7495464377
   1.4719880845   13.3971376491   14.4779867641
  10.6977465068   11.2058864394    2.4139961111
   2.3637509141   10.9178925150    5.9036711856
  15.4839534955    0.2569685300   14.0254559110
   6.6335704624    8.2859182530    3.8452714422
   2.3381146614   12.8458568225   16.7821354488
   2.0981736419   18.4280278860   12.8522301896
   1.1885435655    0.2490090004    9.8220852177
   9.9878968969   15.5837040844    5.2052767637
  -1.1407191464   10.9107688111   15.7048304790
  16.8381149909    3.1377617884    0.5273745021
   3.7924344328    9.6544464061   15.1131859650
  16.3922627638   12.5661743585    0.9488802919
  11.6207640624   18.6382415489    6.3803086530
   5.0232158481    9.0604949374    3.8064170403
  10.5038850598    9.9450905642    1.0873217323
  15.8732728791    4.4230770197   18.7679801453
   6.9931821270   10.1150819165    6.7156268455
  15.0911816727   -0.0032353945   15.7098797126
  -0.7414928793    8.1953838305    0.1410433639
   9.3906576567   18.4426751026    2.6650031216
  -0.4982515119    7.1448129080   18.0716699316
   2.9299444611   -0.0358405755   13.9226191626
   0.7713425662    1.5711135739   13.4866538329
   1.0886276007   17.3146521092   11.8938424460
   0.5498378062    1.8810348571    9.5402202572
   0.4361583767    9.8176816744    1.1163977705
  17.3696048564    3.6552625023   18.6369975694
   1.3282368724   10.9844954657    0.1123059726
   1.2196433118   11.4507079965   16.7089660782
  13.0521316232   18.5521437728   14.6700948040
  10.8826953812   17.5472051884    2.4974094863
   1.6905191050    9.2389623826    6.0633143551
   8.2008088780   17.1755878893    5.5978809655
   6.3079787538    8.5223150868    6.0770329123
   9.0022954640   10.9656526009    1.4235229366
  -1.8737645964   12.5360925390   15.6701164820
   5.2344582195    8.8765224869    0.1319917606
   9.4701190423   13.9670442455    7.5091034108
  14.3862242700   12.8450319462   13.8539380495
   3.7726291624    1.3211701948   17.3096648345
   2.7043365580    1.2663133953    0.0267676311
  -0.7163224947    5.5121447305    6.6471026160
   5.3246047798    5.4391363101    1.3038308789
  -0.0641809545    3.2226611253    4.5104132186
  10.3270533113   10.6629605638    5.8218867046
   5.3097498784   16.7495417901    9.7859464595
  14.9150967902   19.7036392859    1.8426873351
  13.1576813816   11.7650509692   16.6744393732
   2.9369352461   15.6561865901   19.1181761091
  12.6209032755   16.0184673770   16.6087323672
   6.3680409949    0.2895837249    9.9802232768
   3.5533931544   14.8728034825    2.5913363905
   7.5032185069   13.0158936583    2.3207139463
  13.0348524417   19.2944919046    4.4032974105
   5.4775629244   12.8921410830   18.9268928502
  -1.4546182918   15.8318658144   10.4567868324
   4.4582643568   18.7667633839    4.5094757675
   5.4088111008    1.0907939272    3.2656654883
  13.2791468170   14.8234196096   19.1566042498
   6.1398583843    1.9317936330    6.2992841041
  14.7002825515   17.7470686304   11.7615885117
  12.9753201241   14.7970481930    9.8465425937
   3.3417048879   14.9810298386   13.2536243984
   5.4886348314   17.4152021109   14.1633601856
  10.1890624689    2.5828171260   15.4299938806
   9.8868114742    2.6531080648   17.7285818522
  -0.0645638482   17.3927785921    7.9841413380
  11.0429220980   13.1885819770   11.1869916443
  15.1350919626   13.6740993746    5.6173226097
   2.1625244314   13.1801611882   10.5811382224
  -1.4139493024   12.0293747235    8.9641009604
  17.4298439332    9.5105711309    6.3185838778
  11.5038260785    1.0724948857   16.8318810742
   3.8736859411    4.7995876280    6.4790107581
  -0.2280546687   17.6363816538    4.4169139939
  10.1837481515    6.7840797726    4.8566053170
   8.3700647506    5.3364801887   15.4960720383
  17.0548422359   13.1462833408    3.3533202719
   2.6388330287   13.4944384008    7.4389189462
   9.6337358402    6.8815959668   11.9193485227
  14.4563352487    6.0041713599    4.3392723516
   0.1460705006    7.0085268171    2.3168642776
   0.3994161307    5.5614539076   12.2048460670
   8.6377320045   14.2218588674   18.5582014982
  11.3335469013    5.7504683921    2.5062217371
  14.9156216138    8.6239220777    2.9526403221
   8.3865024792   17.2061140539   13.4225262667
  17.5682864590    4.2573715169   11.1847567118
  17.0963217837    6.2598121011   12.4258171048
  18.1005688129    4.6904681552    1.1277759580
   2.7943145654   11.5107545459   15.2362122655
  11.0337313988   19.0280565803   14.2042900499
   6.5485624664   10.0979040180    4.7629811706
   9.6409995015   18.0301167816    6.7853766039
  10.5977036648   12.0036875301    0.5782646578
   0.1488899416    9.0668796645   18.4861821517
   0.3825574887   19.2131120591   12.0666494470
   1.2757779160    1.7077503356   11.4465300367
  -0.8343016568   12.3001482075    0.0020739123
   9.5103763934   16.2776318633    3.4303749738
  -0.1304824827   12.2777147064   14.4563033453
   3.7682839783    9.3176167082    6.1134022773
