B2 C140 Ca1 F48 H298 O66 
1.0
1.7909041997820044e+01 -2.5992400020801923e-16 6.9134036789749468e-17 
-2.5296839363934636e+00 1.9385147297548542e+01 -1.6397195267577162e-16 
-1.0247303167469057e+00 7.9851680583613527e-01 1.9452638577326237e+01 
B C Ca F H O 
2 140 1 48 298 66 
Cartesian
   9.8081275423    2.9946463005   16.8212180834
  -1.2328475343    6.0311256579   12.1504424390
   0.0083828080    0.8644963075    1.6962125119
   7.1377168048   13.7660798389    6.5406720026
   5.1211281769    6.2130660332    1.3495968727
  12.3941537195   12.6262171634   12.6039790675
   3.6217574380    2.2985153338   15.5525779483
   1.6146408293    1.8726489355   18.3824238549
   1.3798804094    2.8282945146    5.4654942055
   1.9153051178    1.3894377878   16.9822164118
  -0.5999986297    3.8961355406    5.9382736293
   3.1175405280    5.9888051912   18.9474340431
   1.8385728691   16.2090782146   18.7998596590
   0.3032521084    3.6180617284   17.7248455556
  11.8427251010   15.5966048065   15.2835997751
   4.4654260491    9.7102681588    0.5627349959
   6.4559578838   17.1999688834    9.1947314786
  12.5886332557   11.7534011256   16.2119890872
   9.7451368702   11.9674436288    6.3855447988
   9.5402883244   13.4018583142    6.2190368280
  12.9736424807   11.4297610455   14.7729629128
   4.1674713976    7.4124278665    1.2948564094
  10.8261840516   10.2757492121   16.7122263098
  12.0753179825   11.4354301715    6.7029073597
   0.0462552664    4.8309177576    6.9695266659
   0.3772443167    7.1540973580    6.7552847618
   4.6722719403   18.5734945511    9.7020395319
   2.6275341234   16.2220506032    1.6487973044
  16.2902468695    1.5062968049    3.2404510801
   3.7292208923   19.0286630320   10.7370091978
   1.9979333456   14.8477146539    2.1647416167
  13.0664913159   16.6119528027   17.0894893953
   5.2737191774    1.7992276608   10.8443022262
   7.5660702685   13.7944711177    3.0410356490
  14.9789803381    1.1906338184    3.8991523824
   6.4641370639   14.1796327343    1.0275361444
   5.4604708392   14.7425780752   18.9783223541
  -2.1761920160   15.3867139924   12.2460951773
   2.4176011909   12.5866953118    2.3543982939
  12.6566070284   15.5510251377   18.0718122322
   5.5143340286   13.0615761073   17.2465650360
   5.3688041450   17.8568008958    3.5309887278
   7.1633007646    0.5062573556    2.4121771820
   6.0262105463    1.4999898303    2.7536279948
   3.7413545996    1.6713957864    2.5136295024
  -2.5264277164   17.2369650263   10.7772490891
   6.3878802342    1.1263719004    6.1854780095
  12.1484910288   15.1770344365    8.8194087335
  13.8678634599   17.4267766383   10.6679043018
   3.5587881596   15.3987749824   12.1963276378
  13.1834885003   18.3607981443    4.0647509995
   6.6952355326    2.2887667110   18.3348666091
   7.4986138028    4.6151968156   19.2137504515
   7.6546270905    3.4835884623   18.0615983938
   3.7348333575   15.3374365413   14.5927493318
  12.0521926900   18.2076136687   11.7629829351
  10.2036536411   14.6740252429   10.0473072571
   9.0595466608    2.8419564426   13.0720227874
  12.5346984270   15.7098722720    0.4713098602
  12.6704798137   13.0755321483    3.3906225302
   9.3504665605   13.8986287565   11.1515758324
   5.1892290460    3.1521591228    6.7073431504
   1.7155760502   12.7879738717   10.8498970655
   3.7814812212   16.7608348796   15.1327618090
   0.8985221434   18.4421799934    8.1101071381
  10.0353254116    3.0536574830   14.3330026030
  11.0396796576    4.2433078224   14.1434254993
   5.3877310013    4.6226427544    6.5047381976
   4.6292730444   18.9421942016   14.6602984068
   9.0082479131   11.8133159754   10.0615661236
  -1.1482916499   13.2415645263    8.5593898905
  15.3026429890   11.4252767782    8.5201540777
  -0.1021158893   16.9181029688    6.6775216355
  -1.5183120767   10.4038660090    7.9301793031
   5.3891205038    6.7062719201   15.7313668415
  13.9789533589   14.6662556210    4.4708353295
  -1.0507233877   17.8315665853    5.8031647310
   3.0656032675   13.6195319427    9.0334598462
  15.5572033713    9.8356453130    5.7282469996
   3.9269118605    6.2833129377    5.4606775667
  11.5748094247    2.1963208025   18.4617609891
   1.8453971581    5.0270980692   13.3272069422
   9.2214347403   19.9941051579   18.4893337872
  15.3548891440   13.8948549349    4.5945861868
   6.7835390649    7.2338909189   16.0365872004
   3.0979473222   14.2594574651    7.6848624132
   7.7094518464    7.2866943191    4.1876361775
   0.1108267057   18.1917445422    3.8093535185
   6.9364843508    8.7050709866   15.8624424680
   9.7516478890    7.7490889028    9.4485904709
   0.5493533838    8.1296483043    3.1012729914
  12.7154828987    3.1720257512   18.7647866160
   1.9152494211    5.6003201669   10.6897784859
   1.1102027913    5.1256960733   11.8930383457
  10.7492506496    5.5392067919    3.2919042825
   9.3140930777    5.6940929316    3.7490529909
   8.5914965223   15.5318575542   17.3775975238
   8.8527111108    8.3287166561   10.5603118118
  12.1923655278    8.5858596054    4.1455183292
   8.7993194567   17.9993713864   11.3155229034
  -0.8293966483   13.0461182316    3.4195727806
  14.2546860528    6.5923462928    6.4868003467
   7.4110157872    8.5813736855   10.0609865374
  13.3314672025    9.5595902249    2.2312741299
  12.0132621745    5.9484143017    1.2875168981
   2.7763009066   14.1699541114    5.3579003189
  12.4680182709    7.9218551494    5.5387197858
  16.2476507287    7.1400607102    3.3368885676
   8.5203881876   17.9933663324   13.7194809206
   8.9378231897   13.2350369060   17.9850342093
  14.8348235899    7.9961263388   14.6463422415
  15.9092185566    8.0478697905   13.4720944820
  15.7901262665    6.4653409154    1.9889899437
  14.9286639223    3.0395493113   10.9868327187
   8.6495275666   12.0457110381   19.0638412684
  14.8840965424    4.5608687500   11.1676117347
   9.3430251422   18.5419729822   14.8801895733
  14.2498491043    5.1732232306   10.0008809668
  15.7949464031    9.3858936889   12.6918512071
  11.3459285397    0.6099204464    6.8290218300
   2.5610905960   10.0114554541   16.2108542284
  -0.7411296411   10.1297837721    0.0725204353
   0.6951857325   13.2395625218   15.3512727036
  15.9207413802   12.0769489799    0.4859140135
   4.8980168457   10.4517977932    7.5317100096
   5.0719558004   10.3472713205    4.5703216950
   9.1706236018   16.7945452065    5.8204330790
   7.9947862715   17.7964887291    6.1012462187
   1.2073729105   11.9789250866   16.1223709200
   2.2335555934    0.5711005702   12.9061721466
   1.0175829986    1.1536427721   12.2225400255
   0.6845775291   17.8223580630   12.3571781456
   0.7598668236    1.6126156529    9.7855491147
   9.6790168882   10.8849321886    1.8680063864
   2.5585190417   10.0696860878    7.9590336617
   6.0806824116    9.8818394061    6.7386439768
  13.3826232891    1.1148087462   14.6236077267
  -0.5049113897    8.4206790676   18.5267741071
  16.8207672751    4.6897084292    0.7129519334
  -1.5621274554   13.1933938440   15.3223123721
  -0.2195872667   10.6490850599   19.2128848565
   9.5936668470   16.8856989452    3.4211826903
   8.5163042869    6.3902232709   13.3185672482
   6.4598913179    1.5971012592   17.1962652736
   8.3370462511    5.5598863071   18.9281419890
   8.7716466924    4.0702889302   12.5031459635
   7.3841075915    1.4213311080   19.1541639320
   8.6464300848    3.2229060829    1.0431607654
   5.5369005747    2.5874910297   18.8637936314
   6.2854326321    5.1840051515   19.3205744207
   7.8795117209    2.4057603344   13.4916572251
  11.4977305817    4.0826125683   12.8669759188
   9.6230333303    1.9647563314   12.2395183738
  12.0774666421    4.2202474543   15.0038496364
   4.3786801615    7.2745982864   16.3625322338
   5.2415539706    5.4130689249   16.1753444215
  10.5844095058    5.5282339215   14.1240348258
   5.0879975765    6.8061543046   14.3764570866
   2.6855316929    3.9310578215   13.5067360511
   8.1278112515   19.3380714517   18.0725351817
   2.5100907738    6.1752562928   13.5386776899
  11.0697698169    7.7906013261    9.8588740790
   1.0816790776    5.4959713418    9.6469712764
   7.0132466685    9.0925427464   14.5941682472
   7.9076805827    9.3236060577   16.5451029299
   0.8636182087    4.9255792574   14.3998455710
   9.7514825824    8.3154563740    8.2081274411
  10.4247490037   18.9767452733    0.3809730128
  13.7296549801    3.2078848158   17.9358214875
  10.3223679678   19.5588909132   17.7865035101
   3.0847688270    4.9069187805   10.5283713767
   9.2121320560    6.4305656884    9.2629744909
   6.6491465038    9.0869112352   11.0479195382
  14.2648261137    2.0882775222    0.5411865235
  12.1999481230    4.4640240880   18.7767183172
   5.6817962665    9.2607109961   16.2787219274
   2.2975224798    6.9091698016   10.8216263137
   6.8033711294    7.4595062972    9.5142323298
  15.0552813434    8.9412652142   15.6055606578
   7.4710618895    9.4805764340    9.0699102894
  13.7068224229    2.3970394086   10.8484998347
  13.6052616202    8.2498742245   14.1246224839
  14.6984185186    4.7956850922    8.7538699175
  15.7875727415    2.6799594739    9.9462933483
  14.5500779347    6.5053975743   10.0977433642
  14.9120704574    6.7874195022   15.3008934898
  16.1760380534    9.1332748129   11.4211643798
  15.4817993809    2.3742879929   12.0859368034
  -1.3096430608   10.3807231483   13.2172159693
  12.8659164267    5.1308863719   10.0634229342
  14.5863796091    9.9574893393   12.6074986437
   0.8365156526    1.3127587841   18.8841017408
  12.9233208140   12.7243103355   16.4896512310
   1.6167261662    2.0118126046    4.6667092204
   5.4148623225    5.9218360405    2.3514507914
   6.1308703658   17.0027044399    8.1593127672
   9.6219216647   11.6807679480    7.4580338433
   6.0565250422    6.4827519259    0.9328904206
   4.7550682994    2.4581319232   15.3996285269
  16.4718932315    4.4597294836    5.4434281009
   0.4877085697    1.7703996837    1.3024271652
   0.8153764400   16.4351270655   18.4685443974
   0.2191895581    0.0889767996    0.9082451903
   6.5453821421   14.6887007076    6.8910782824
  -0.3466933046    2.6972184482   17.3341612971
   0.5671926322    0.8017383261    2.6044131899
  11.4514036177   11.9923176567   12.4578856307
  -0.6173366726   19.6296887988   17.1186561246
   7.0074953752   13.7980337763    5.3571180940
  12.7895751971   15.2955396583   14.8380680977
   5.1871353781   10.4636839082    0.3470610678
  13.2343060579   12.1469113509   12.0934451507
   3.0824121290    4.9340149643   18.4798505544
   2.0964245557    6.3635379181   18.8107108296
  10.8972005540   10.3764984946   17.8546015527
  11.9731095619   10.6835106565    7.4805206352
   1.0128199409    2.3017711381    6.3270112551
  16.7807615582    3.0302620532    6.5006304854
  10.3799982751   13.9289222382    6.5718796525
   3.0003416736    3.1568691977   15.4332338822
   5.3346583954   19.4164009293    9.3415503004
  11.6017323621   14.6168851548   15.8069234566
  12.4262666328   10.4916023677   14.4442066722
   1.8420217825   15.1045879106   18.9730235725
   2.4890714506   16.4550747791   17.9576231205
  11.2671194679   15.8688111098   14.5470091150
   7.1756063751   18.0263300748    9.0830125769
   0.7537706500    3.9834359016   16.8053867327
   3.3429271100   16.5176987174    2.5667602558
  -0.6179757541    7.4913668145    7.0875494550
  13.2060611864   11.0277964965   16.8175771187
   2.1475064223    3.5166696395    5.6979837295
   7.0247815778   16.2930179985    9.6186085358
   8.8806130116   11.4311074795    5.7663755657
   3.6922357752   10.2044437347    1.1609944561
   6.5877944338   12.9656475020    6.9812508265
   3.0127046761   10.2611259620   19.0708421335
   3.7595981536    6.5893260855   18.3425707981
  12.5067985664   13.7044011407   12.2227822583
   2.4752720468    1.3216577350   19.0195131170
   3.3769754173    1.4957282380   14.8667281560
  -0.2859738885    4.3922906645   18.2423344294
   1.3235704150    1.8619746635   16.1801673540
  17.0644930495    1.1621321419    3.9198025675
  16.4160144836    2.6333883687    3.0190560326
  11.5581775014    9.5792535757   16.2884158599
   3.5033043332    7.4204140227    2.1656754083
   3.6517665697    7.3879327021    0.3739067615
   0.7412922867    7.8601392955    5.9212878085
   0.7093180714    4.2513124731    7.6076958851
   1.7997827530   17.0267877932    1.5234005861
  12.9790580363   11.1771807700    6.1984150752
   4.1675210671   19.4428748960   11.5883235650
  12.2326054544   12.4400167655    7.2916772580
   9.8331269337   10.0410700606   16.4391351306
   9.0993869991   13.6569450273    5.2920944909
  14.0178368596   11.1993046486   14.5628289569
   4.0638018567   18.2619330924    8.8444425176
   7.0604016676   14.7330864402    3.3430044373
  -0.6120583827    5.3605645508    7.7085842763
   0.9892089224    7.4192593621    7.6311464779
   6.4937453005   15.2495855912    1.1611862594
   6.2446120888    2.3398669891   11.0038144600
   1.2737109754   14.3442947575    1.4247400433
  13.1852809410   17.6653954645   17.6146233175
  13.9906239307   16.3749968189   16.5994790174
   4.5866652690   15.3268415484   18.6676232965
  14.6022081294   15.4904971754   12.6387288404
   8.6262853065   13.8153116232    3.3422877275
   4.6171260947    2.5706330958   10.3010783281
   3.1070391779   18.1571706515   11.0322574592
   5.6842434546   12.0229358152   17.0414404362
  -1.9926426633   14.2721470777   12.4442736897
  14.1412132390    0.9890960490    3.1264255328
  14.5603455046    2.1323003706    4.5006264685
   4.9198494038   16.9236567902    3.8916725659
   6.9460701811    0.9260291760    7.0669619277
   7.0785522677    0.4487373894    1.3326091762
   1.3808986845   15.0365344537    3.0848709524
   5.8203691851    1.5792979862    3.8179159049
   2.9110196422    1.2477141151    1.8862348880
  -2.0517966623   17.8076603274   11.5773098774
   1.5083561928   12.2586834258    3.1266584856
   2.2658268971   12.3345311448    1.2150567300
   6.9930225269   12.9441946765    3.5342775425
  12.6328676684   14.6407284266   17.5426222667
   4.8788597310    1.4700567331   11.8196579761
  13.4094153315   15.4793692921   18.8838804668
   6.3584083205   13.5518898756   16.8404756769
  11.9746731831   14.3776425200    8.1069106106
  13.4810559830   16.4685870606   10.9466684104
   5.5265657057   13.8392489754    1.4835412938
   2.8542517987   15.7426586200   11.3874437909
   5.9610226346   18.4305744518    4.2474481546
   4.1344375128   14.5955720377   11.7311681857
  13.2460815791   15.1680962567    8.9561393247
   3.8353259366    2.7330190051    2.3318426947
  -1.5767016313   15.9960802791   12.8679687893
   6.3481636048   15.2449947065   18.6292265951
   3.1754855892   11.8490867768    2.7419258750
   6.9220221455    0.7838562928    5.2722120710
   5.3509093871    0.7062262666    6.1284953392
   4.6918651316   13.3703379447   16.6079795443
   7.3164361622    3.9153528311   17.0906704987
  11.6522674337   18.9270651160   12.5052849163
   3.3841412355   14.6613022655   15.4458457746
   4.7600206016   15.0589527907   14.5589353323
   9.8985470326   14.3785644804    8.9519675144
   4.2599101410   16.2709487155   12.3988469915
   6.1702840472   17.4201944233    2.7807805655
   8.1873663920    0.8113140663    2.6216743332
  -1.9921090555   17.6265314664    9.9053397104
  14.2802765233   18.2543034576    4.1030162850
   6.0270326007    2.5258632484    2.3261834012
  12.6822286576   18.1534913887    3.0412202061
  12.7981451379   17.4317478246    4.5895754672
   3.3550175030    1.6994208464    3.6231513434
  11.7609270400   16.1631748066    8.4020599554
  13.6148719823   17.4063649461    9.5315571751
   9.6194773517   14.5249830151   12.1467028560
   1.2805605795   18.3635758942    9.1164636972
   2.5951826863   12.0865605410   10.9540000850
  11.5367526726   12.8520183701    3.2468376576
  13.2104870970   12.0979034040    3.5245252979
  11.5332856851   18.1281389070   10.8353820510
  12.1745461762   16.7179310365    0.2736123336
  11.7551956999   15.1204583316    1.1426115809
   1.5951872161   13.4139119745   11.7544625668
  11.9714439005   17.1170964918   12.3016513755
   0.8947897807   12.1273122085   10.8990943624
  13.0096104726   13.6378239663    2.4177649887
   4.4008444200    2.8741084634    5.9618462389
   9.8293445903   15.7332147899   10.2648543334
  -1.5759147592   13.8007046977    7.7578307115
   9.7745745598   11.1540596007    9.8086348120
   4.8891141507    2.6760100802    7.6599381297
  13.4412200793   15.7590723954    1.0095488093
   5.8248482124    4.6708867650    5.4140734967
   6.1267991996    4.9633055409    7.2797841867
  14.9015564103   11.9977202064    7.6431972356
   4.9654946555   19.4487074757   13.8402221122
   0.5398526659   19.4884563498    7.9222541101
   1.7169274262   18.2074283746    7.3518831972
   8.3096884284   14.0510804153   11.0007019002
   4.2329577417   16.7509076061   16.0903568676
   2.7980524077   17.2457258063   15.0788616925
  -0.2051542372   12.8302039374    8.2788572806
  -0.7032148609   11.0430652853    7.5131545118
  10.7326221360    2.1301292529   14.3361562297
  14.0716252011   15.1316773828    3.4934812470
   5.3946774933   19.0094908260   15.4641091347
   8.9302829395   12.4751809834    9.1122595833
  15.0859611822   10.7912001260    5.6191177697
   3.5759486341   19.2058142137   15.0346391249
  -0.7788162966   18.8500015904    5.7791800622
  -2.0249466376   17.6885653100    6.1887825729
   8.0436552181   11.2697035688   10.3298977281
   3.7380979292   12.7047425557    9.0412422102
  -0.8657860588   14.1458382982    9.1837290681
  13.9339240870   15.3694924997    5.3260060240
   3.5087777426   14.5513654175    9.5305323097
   0.9637092356   16.7947046693    6.4154743440
  10.7726856989    2.3432442439   19.2585035886
  14.4763133304   10.8613400632    9.0736692335
  -0.6433144857   15.8862599980    6.7874221565
  14.9818491851    9.1264277843    5.2793862614
   3.3941634283    5.7752636213    4.5856896740
   7.5260689369    8.3703756141    4.3177410666
   4.8064884788    6.7094847761    5.1039911806
  -1.0382455246    9.9192720319    8.7639332584
  15.3504842393   13.1305736232    5.3788812920
   0.8319625765    7.2594491253    3.7693437533
  -1.4389716570    9.7806558012    5.0943120349
  -0.0679242967   18.2005620813    2.7352296800
   1.0963473087   17.6161888177    4.1680645034
   2.5285301504   15.3469334615    7.9119871147
   0.8960517395    7.8726934747    2.0274435383
  -1.8177511468   14.6387152509    4.9171425662
   4.1229467983   14.4849423795    7.5158865645
  11.4970514642    5.8504078059    3.9903256595
   6.7055420682    6.9164192196   17.2345632157
   3.2371309050    7.0388736859    5.9103851203
   1.2773227156    8.9315736848    3.3481192278
   7.0640821020    7.0889498107    3.3225212462
   7.8767197634   16.3977173033   17.6532467785
  10.8763829439    4.5076422631    2.9828003554
   7.3318247607    6.8556487881    5.1580693234
   0.6107871893    4.2085931095   11.5933752112
   7.6542031546   18.0703997388   11.2726397969
  11.3169122995    9.1442492701    4.0753971147
   8.5009811680   15.2793848157   16.2965580192
  13.7612625593    6.7433081063    7.4490911223
  12.0302356973    7.7433643522    3.4439943611
   9.2083297019   18.9858471836   11.1227784354
   0.2159201297   19.1630992806    4.2605954823
  13.8404446133   10.4819484668    2.0261526703
  12.9614888859    5.9182630438    1.8361611165
   8.5428445506    5.2359899407    3.1129946003
  -0.4449181300   12.3466851987    4.1511247550
  12.4014119560    9.2345085865    1.7064676505
  11.9032764340    4.9344549575    0.9944242906
   9.5459291104   15.8776011577   17.6997987224
   9.1412108417    5.1577533337    4.7723879765
   9.1374616500   17.3421068578   10.5608088929
   2.7446174033   15.3500261460    5.4575430199
  -0.4155816569   14.0537413805    3.7853159888
   9.1763356844    9.2852725962   10.8617231391
  14.9851432339    7.4031998642    6.5664199904
  -0.2650789590   12.7079013644    2.5064170922
  15.4069003385    7.5355433089    3.7451670134
   3.7193977118   13.8339998040    4.9991432200
  14.5558710597    5.4676070672    6.4194985074
   7.7895935485   18.7783355562   13.5065955644
  16.7241046250    6.2927659009    3.9626258191
  11.4346313909    7.6059518344    6.0485156461
  14.0418307113    8.9281155056    1.9060327344
   2.0554210632   13.9405001750    4.6462162608
  12.9418967533    8.6099026888    6.1701697477
  12.1152786687    6.6058876999    0.4744430488
   8.8677015633   12.7605125374   16.9985415613
  -1.0268523394    8.1578027851   13.9460561521
   9.1293881765   11.1742572219   18.7584976780
   7.8851036372   17.0933804263   14.0614814321
   9.9555615446   13.6233402451   18.0208030465
  14.9103677210    5.9527326938    2.0244330416
  10.2185777223   17.8391289777   14.9988103717
  15.8072985678    7.2621920268    1.2717709947
   7.5703393208   11.8135843693   18.9713097041
   1.7493381165    9.6533372768   17.0860506170
   0.3898952227   14.0138724587   16.0230250954
  10.1233378131   17.4479244508    5.8061459289
  10.7504676153    0.8618012736    5.9109567021
   5.1290555023   10.4248332674    8.5914233832
   4.4690972150   11.2269019514    4.8659137922
  11.3874483282    1.3440506027    7.7294168281
  -1.0912065418    9.5675403827    0.9693416489
  15.5228186313   10.7314930651   18.5600773875
  14.0802769629    4.6967244392   12.0042571993
  16.0221759255   13.1163748148    0.8186522185
  14.3316162806   12.7405902851   18.8956736388
  -2.3296899956   19.8405572095   12.3116220807
   3.0338695278    1.2626171576   13.1040241317
   0.0439176742   17.3879273641   13.1891970027
  -0.0126868904    0.7674120392    9.8257600740
   8.5670906216   18.3642594900   15.6622325298
   4.6177498974   11.4940787024    7.4088961084
  15.4199922016   12.8590720004   14.8291990392
   9.5180745191   17.9778928989    3.7070907991
   2.6588174266   10.2136441823    9.0980207146
   2.6285811292    9.0755728995   15.5513878050
   7.7265704286   18.5351309731    5.2933896161
   0.6459528774    7.4029361872    0.1391715490
   1.5404175361   13.6735927639   14.7021492834
   9.9099415105   11.1596447478    2.9407165493
   2.1841857981   10.9139699957    7.4435623840
  14.0247429472    0.6055335191   13.8516313974
   5.3758037054   10.5120604228    3.5839705951
   1.9795222850   12.4283125689   16.8323378986
   1.6870585594   17.8941175953   12.8006061137
   1.3627572231    1.3309205203    8.9361375089
   9.1982312230   16.0649491178    6.6648537944
  -1.5198656611   12.8052247992   16.3477214058
  16.0009673693    3.9495434743    0.7749357934
   3.5075321159   10.2994655964   16.6091692266
  15.3764287323   11.5160205154    1.2590171448
  12.4397451601    0.4263551976    6.6098854972
   4.5476150997    9.3882100251    4.3197661460
  10.1559811050    9.7978036786    1.9064983765
  15.7896320107    6.0745518650   19.2246777378
   7.0764318781   10.2843171658    7.1396181972
  13.1964254234    2.1721750661   14.2975686487
   0.1217318459    7.7037759774   17.9567672455
  10.6295768013   16.6082503413    3.2202183849
  -1.4652988722    8.2730280081   18.0745073473
  -0.6556792075   19.5089476817   13.8193531292
   0.7223830730    2.0483810637   12.7009806277
   0.6892522635   17.0494444643   11.5759846137
   0.1023453521    2.6082194013    9.5994774970
   1.2836631447    9.5257102724    0.6805088187
  -0.1219198208    4.2358538422    0.8262859590
   0.2892909134   11.5417428463   18.8227334085
   0.3952859080   11.4052495510   16.7373602006
  13.7290122599    1.1853415067   15.5991135870
   8.9149445860   16.6273815754    2.6146358315
   1.7848888291    9.3883465633    7.6770002702
   7.0712986227   17.2082083452    6.3964375621
   5.9859671430    8.8260591430    6.7613087039
   8.5506055651   10.6182395416    1.6808229842
  -1.5364216919   14.2870248431   15.5586858700
   5.0242342947    8.6116794260    1.3606260199
   8.4528389490   13.7962167751    7.0915864206
  12.6190937252   12.6967264797   13.9833199511
   3.4932547111    1.6894150191   16.7512153328
   1.3738245988    3.2775384633   18.5923112460
   0.7377978882    5.9063757756    6.2583355898
   4.4889918728    5.0404932236    0.7854134133
   0.2313199192    3.4868331373    4.8935509146
  11.0610107469   11.5196648940    5.7207912921
   5.4400637339   17.5320905194   10.1039526996
  16.5397900530    0.7745326593    1.9922046449
  11.1267253701   11.6412733508   16.3452683083
   3.3858576546   16.0988328142    0.4068019668
  12.0718779773   16.7526084683   16.0410301161
   5.3842147899    0.6475417402   10.1205622288
   3.0437904647   13.9206871504    2.3844906991
   7.5171192502   13.5536304787    1.6891925003
  12.6632184827   19.4555898637    4.7604707869
   5.3562529846   13.3509824442   18.6231221174
  -2.0293961535   15.8575850931   10.9161991653
   4.3048980261   18.6080547207    2.8940931713
   4.9079751369    0.9163638169    2.1676240076
  11.4172239783   15.9604047038   18.5906145492
   6.3665430424    2.5608191000    6.1816959445
  13.4439347478   18.4618697499   11.5520117438
  11.5841053903   14.6951706580   10.0856144342
   3.0074128745   15.0850132713   13.4050342488
   4.5103426237   17.6245657393   14.1649738719
   9.3168765935    3.1684199974   15.5339689218
   9.0237806021    3.1228211203   17.9654051835
  -0.0903973058   17.4619713225    8.0071870907
   9.4758057377   12.4825411334   11.3060372855
  12.7960974698   13.9031063552    4.5434616010
   1.7668757923   13.4403951609    9.5682730170
  -1.9748928978   12.3848210390    9.4298580196
  15.8970968958    9.4447885205    7.0607124394
  11.0791669889    2.5205416653   17.0975679698
   4.2064505266    5.4396747397    6.5720443164
  -0.9884711103   17.5078679097    4.4840229385
   9.0557530576    7.0461464356    4.0028209001
   7.7339453353    6.4722507930   15.3602136236
  15.6801984585   13.0849514990    3.4131911210
   2.5062117544   13.4975417808    6.6093462682
   8.9051681265    7.4541847549   11.6187305563
  13.4255921556    6.8188764249    5.3355652790
  -0.9122727743    8.3822721406    3.3016366087
   0.1338971485    6.1909862776   12.2266619170
   8.0462771946   14.3202426045   18.1185624148
  10.8959937519    6.3818403310    2.0972594424
  13.2500340748    9.3944333783    3.6512544436
   9.2590775178   17.5522641432   12.6188577224
  16.2177092448    4.9797626899   11.3762245157
  15.7076196562    6.8820463073   12.6599830765
  16.7658166037    5.3857842803    1.8387058443
   1.9322232667   11.0260020306   15.3482491892
   9.5453409126   19.9046557028   14.3999433115
   6.2380427114   10.3371318788    5.3547613237
   8.3407812256   18.6363227749    7.2882423484
  10.1373655642   11.6976310745    0.8961611454
  -0.0422458476    9.6679155393   18.2045117103
   0.2304064099   19.0675315103   11.8797253464
   1.4969263678    1.5789881614   10.9322257059
  -0.7102378089   11.5220487098    0.3789307196
   9.0289353571   16.1222578548    4.5217950229
  -0.4389975488   12.9039631255   14.5104754929
   3.7701839051    9.6494373796    7.3036861405
