B2 C140 Ca1 F48 H298 O66 
1.0
1.8987889584579165e+01 7.6067672238474795e-17 -5.1945619986029296e-17 
-2.7641367773057901e+00 1.9783964077375590e+01 -1.3892880724031338e-17 
-5.0976044673214560e-01 -1.3141481210452613e-01 1.9245722493693538e+01 
B C Ca F H O 
2 140 1 48 298 66 
Cartesian
  10.5801738176    2.0262104612   16.5960470197
  -0.9085406078    5.4388491672   11.7562639803
  18.8014627940    0.3367548345    1.0532495537
   8.2009588522   14.4883468601    7.1641389198
   5.7456187700    6.7392725255    0.7770478349
  14.5340832083   13.0558017079   12.4243599042
   4.1039966935    1.6438562955   15.8830005549
  -0.1120429585   19.6486153624   18.6277537226
   1.1991746776    2.7425532125    4.1921078222
   3.3955829866    0.0859175833   17.3217177294
  -0.3130952301    3.2224219302    5.9414268666
   4.2547456625    4.7308019139    0.5988880765
   2.6106937820   15.7978048626   17.6518643705
   1.4729196277    2.0684322259   18.3708556050
  12.7108572844   14.9932318186   15.5566016904
   4.6645217066   10.1589761590    0.2232684292
   6.3540072126   16.2809634426    8.9760104016
  14.3271246607   11.5127492347   15.7776415598
   9.3925862895   11.4996920384    6.6802690980
  10.0069319979   12.9729078400    6.6380150995
  14.1683452375   11.5519179198   14.2543253634
   4.6096954667    7.7779159483    0.6837265281
  12.2706579122   10.7887406782   16.7968215798
  11.4438385046   10.3286225693    6.6222351189
   0.2158969766    4.4473979837    6.7295189990
  -0.0667507272    6.7630748224    6.7015009812
   4.9387085915   18.1439287381    9.3610174806
   2.5756684538   16.2195546006    0.7758060896
  17.3894011149    0.7269913886    3.0263836933
   4.0726344055   18.7682468980   10.3353620989
   2.3744180977   15.0981983703    1.8085996678
  14.0373661945   16.1359551723   17.0780824762
   6.1379043870    1.1556221800   10.9797766494
   7.7186847871   12.9966179714    3.6236538986
  15.9623391264    0.6166265425    3.4231243251
   6.1716863222   13.6836755879    1.9674843936
   6.2329373488   14.1966967425    0.6147020913
  -0.8705513136   15.0581254653   11.4607877207
   3.4111864400   13.7148726465    3.3662604337
  14.3125234956   14.8968522242   17.9955230883
   5.6300869916   13.5835242112   17.5752062859
   4.6959451230   17.4961512779    4.2058808690
   4.7914448989   19.6495698085    3.3769681110
   6.8807510640    1.1780486169    3.4488924485
   5.0284560638    1.9890963560    2.3241646103
  -1.9944223466   17.0845135001   10.9125875075
   6.5301465016    0.8684896604    7.1104054906
  13.3337339946   14.2441421933    8.6238285191
  15.4680709111   17.2475240083   10.5745189880
   4.1438245465   15.3478410701   11.9647094963
  13.7401456541   18.1712925845    4.1367370372
   7.5503496347    2.3564625301   17.8615535833
   8.8420997914    4.3834389590   18.7094578751
   8.7557861010    3.3518336552   17.6414117841
   4.2056681152   15.4864207778   14.3387504469
  13.3886466224   18.0140136298   11.3629485918
  11.7022449949   15.3270540774    9.9051222045
   9.8299366697    2.2867635314   12.9852614085
  14.1849335843   15.7195956818    1.0239253162
  14.1133124126   12.7775677057    5.4281742452
  11.0132805681   14.6886634041   11.0807325338
   4.9183878371    2.6257704237    6.5699034853
   1.6494991374   12.5403143025   11.7069974194
   4.3442632769   16.9979144609   14.6651590898
   1.0891719666   18.0360685033    7.8602057781
  10.9069726168    2.2585692113   14.1461697341
  12.1930595789    3.0707985499   13.8592983003
   4.9931523825    4.0940361754    5.9993616673
   5.4949776740   18.9144506746   14.2042559993
  10.3311105731   12.6024525957   10.2983483035
  -0.6563803996   13.1895224336    8.4690852516
  17.0320694703   11.2783931202    7.8783774657
  -0.7776091155   17.1570937427    6.7327877856
  -0.9611568111   10.4499561602    7.0733643590
   6.3152946962    6.0594063928   14.6465461579
  15.2351130545   14.4310781539    4.3656953485
  -0.6773642334   18.2978361833    5.6534448015
   3.0438780780   12.5280957281    9.6163814090
  16.9076882102    9.8580678651    4.9796357050
   4.0703138670    6.2480468011    6.3173591713
  12.1462253854    1.0897246367   18.1593937658
   2.6543459377    4.6595777592   13.0972009601
  10.0797319370   19.4628670096   18.2488022559
  16.6346795983   14.4921100238    3.7398043109
   7.5285600827    6.3903014865   15.6919192793
   3.5014157649   13.5560892419    8.5826959618
   8.9749479645    7.4224754816    5.4571840910
   0.2600285982   18.7277885128    3.6074239521
   8.0209366350    7.8923133693   15.5767151768
  10.6744603973    7.2646895533    9.7834926860
   1.2066410027    6.1486020092    2.6012193978
  13.1366151418    2.1946907414   18.5068584463
   2.1539738224    4.8762516248   10.6499365497
   1.4833120564    4.6080965602   11.9502852369
  10.8882074823    4.9014181783    3.4941295977
   9.6588318310    5.6098274557    4.1836525585
   9.3368041180   15.4864825843   18.1570257710
   9.7338315578    7.8794511350   10.9265011473
  13.7807839630    8.0476760236    3.4070093388
   8.8617547019   17.8565841415   12.1943161373
  -0.6763344212   13.1109908420    3.0517454486
  14.7842038662    5.1399952844    5.4360385709
   8.2936418038    8.0458492028   10.5014560466
  14.7926462128    9.6839499482    2.0340358586
  12.4726745900    5.2862533548    1.7785669588
   2.6738417067   14.7234846696    6.8355493198
  13.8598988888    7.1837500469    4.6686188550
  17.8336577439    6.4991136930    2.7865354414
   9.0984572628   17.4595898633   14.5693915526
   9.5136010813   13.2461660974   17.9137541314
  16.2476566550    7.5079338633   14.2951315881
  17.4856323365    7.2582252847   13.3633267028
  17.1170144219    5.7167322377    1.6718437737
  15.6242532154    2.7562896603   11.2303965231
   9.2800467531   11.9403763920   18.6860261026
  16.1163615373    4.3094859964   10.9832553599
  10.6230414131   17.7263666125   14.5822137695
  15.6939516331    4.7285168666    9.5624601665
  -1.0861243393    8.5580854901   12.5489494544
  10.8474119979   18.8863389299    7.0061495177
   2.8764195089   10.1993401503   15.2089131426
  -1.4547100967   10.8133990616   18.9673442265
   0.9268745868   13.1522246687   15.1688855158
  16.8802414491   12.9216979256    0.0982853906
   4.9007207525   10.1487374936    6.4983785464
   6.1403240613    9.2376697301    3.7352478116
  10.0232977223   16.5632281130    4.6937879811
   9.2395822215   17.7053497914    5.4804274099
   1.8209416008   12.2635646279   15.9812957799
   2.7832407637    0.4821729082   12.9379904433
   1.3613948632    1.0190389007   12.6718091357
   1.1841659490   18.1548624131   12.5490948817
   0.6252509618    1.1946319146   10.3865023323
  10.2315654560   11.0157944226    1.5159590007
   2.5110757861   10.0070865824    6.3815872757
   6.1906181901    9.7410327755    6.0035333316
  12.4004439338   19.3774946279   14.6087041574
  -0.8090099538    8.1125575657   18.3813462091
  17.3398392560    4.0959716264    0.0932804821
  -1.1676021434   11.9072850909   15.0600816880
   0.4029014844   10.2982996043    0.1159941929
   9.7804011204   17.4875904927    2.4757469388
   9.7623672782    5.7644635479   13.5622858740
   7.4464557478    1.6512429623   16.7338275211
  10.0277579371    5.0445714808   18.4923721319
   9.4610498779    3.5567316776   12.6477266098
   7.8867120577    1.3367681348   18.7950883621
   9.3602903270    3.8859799555    0.7241081210
   6.4559315406    3.0072360613   18.2040466684
   7.8312479422    5.3110514221   18.4635731852
   8.7646586788    1.6523823122   13.4652253445
  12.5790417282    2.9865268713   12.6091953621
  10.2488670326    1.6321354301   11.8328142672
  13.1950140042    2.9222980648   14.7460750214
   5.2041044685    6.8803188402   14.6622042873
   6.0153458083    4.7575114233   14.7500967588
  11.9179682563    4.4866759314   14.1010994654
   6.8600003000    6.1636899096   13.3084798825
   3.5909375353    3.7592305588   12.8861847357
   9.1722300212   18.5206731152   17.9409080307
   3.1082109674    5.8907227827   13.3421229730
  11.7910175385    6.7990026954   10.3947557173
   1.3739455151    5.0366961286    9.4910555678
   8.6436894691    8.0368908147   14.2452228539
   9.0817071837    7.9995467376   16.3710201661
   2.0785460869    4.2178554418   14.2614757156
  11.0261976411    8.2615993368    8.9487081528
  11.0760133516   19.2655110423    0.2513948429
  14.2387615689    2.0384010556   17.7123962037
  11.1762520041   19.3323041698   17.3774679068
   3.0244122816    3.8070377069   10.4422473947
  10.1765525865    6.2005306582    9.0168092718
   7.5377103415    8.2888001680   11.5637066841
  13.9927166621    2.4721935598    0.5218653728
  12.6125730091    3.4951029782   18.2136799791
   7.1144327361    8.8926913338   15.6484587438
   2.9712020763    5.8953386502   10.6893550669
   7.7852287445    6.8212611074    9.9928459305
  16.3666350316    8.6206039072   15.0042316642
   8.0629039619    9.0286960102    9.5733284053
  14.3553251280    2.5755711867   10.9810022817
  14.9380907184    7.5491103147   13.5697680102
  16.2878139019    3.7892961999    8.8204356089
  16.3104260479    1.7915671052   10.6683192870
  16.0242359366    5.9932039991    9.1550151673
  16.0391783272    6.4228280994   15.0979252332
  -0.0774173550    8.2213942825   11.7176680775
  15.7934953735    2.5596028029   12.6241361224
  -0.7094501261    9.7224503111   13.2233324281
  14.3861106788    4.5809336777    9.4088075953
  16.9441614409    9.0364282155   11.6583701947
  -1.0074943074   19.0445511025   18.4998338241
  15.0250599306   12.3237460823   15.9909862164
   1.3980215810    2.9908138444    3.1010393242
   6.3785633803    7.1076183867    1.5646050123
   6.1092466647   16.2134332722    7.9231652846
   9.2778805124   10.9645030805    7.6431389843
   5.5916243936    6.4043996117   18.9162366902
   4.5188769675    2.5253994867   15.8324436124
  17.5783208053    3.1673644572    5.9564885154
   0.4877915948    1.0008058846    1.5620705185
   2.5202429410   16.8295338883   17.3576817908
  18.3639759401    0.8825032065    0.2353455140
   8.1980253351   15.5635028262    7.3896942805
   0.8125762354    1.4766377126   17.7067139364
  -2.3791680701   19.2273950700    0.7671240551
  13.6259984503   12.6966998025   11.9730266334
   1.4248989442   19.0839625200   17.2929741969
   7.8731714720   14.2332502982    6.1253604835
  13.7046303697   14.9006751691   15.1551019868
   4.9264046376   10.8013845024   19.0977940521
  15.3146296691   12.3983829875   12.0250598286
   4.0140067469    3.8173578102    1.1968026684
   3.3038015357    5.2841847917    0.4945080903
  12.8496002653    9.9410938922   17.1573992866
  12.3534055204   10.0561201261    5.9923522416
   1.3522851504    1.7164016672    4.4739428974
   0.0757790724    2.2064590200    6.2207228667
  11.1166647998   13.0561847035    6.8846081648
   3.1306060610    1.5589046521   15.3346031565
   5.6852138650   18.7991675836    9.0774191708
  12.1480139502   13.9809432366   15.8298718470
  13.0945358845   11.3685631045   13.9325722410
   1.6901649924   15.1996418966   17.4378385825
   3.4166915760   15.3200302472   17.0395947437
  12.0557892898   15.3573833498   14.7812931439
   7.3219153426   16.7849538260    9.1108882680
   2.1739917398    2.6157771962   17.9140131344
   2.9366157509   17.1771859980    1.2608207577
  -0.7848589549    7.4991985548    6.3119265081
  14.7406330868   10.4890390836   16.0224640292
   1.9878725551    3.4267564968    4.7570516052
   6.5105926981   15.2699475271    9.3390511577
   8.4319534342   11.5318331826    6.1809470774
   4.4652442514   10.4240044359    1.2424722186
   7.4363656066   13.9725521366    7.8209596595
   3.1600509279   10.2703862743   18.9820084969
   3.9665448588    4.2832414709   18.8512066673
  14.6827254508   14.1142006035   12.3920877672
   0.9701845779   19.3190926244    0.2855708719
   4.7898410096    0.8232628631   15.4062903212
   0.7595486923    2.5832303506   18.9598217162
   2.6744138753   -0.0810810976   16.4591809314
  17.9648327380    0.4203361461    3.8991726032
  17.6265456057    1.8046149082    2.9437672331
  11.6457174972   10.4916864853   15.8456317665
   4.1510388045    7.9738560957    1.7255896191
   3.8005716794    7.3868456073    0.0133433452
   0.8468595453    6.9534125263    6.0714943227
   1.1737910746    4.5762143064    6.4193144867
   1.5196926134   16.3129698018    0.3429427550
  11.7978398852   11.0959764975    7.3309007203
   4.5818408846   18.9393919358   11.2484239450
  11.2112098386    9.3995279024    7.2177767328
  11.7090753869   11.2662251785   17.5892879927
   9.8985400131   13.2499401896    5.6202456162
  14.9219622425   10.7212116304   13.9613992364
   4.4493209951   18.1513663550    8.3355873205
   7.9397777967   13.8675121070    4.2049395893
   0.2636256795    4.1783471949    7.7945344421
   0.1242519826    7.0385097768    7.7206092332
   6.2129547202   14.6842552790    2.5605784706
   7.0325754093    1.4486814395   11.5277301010
   1.9228878869   14.2409506617    1.2143809921
  13.9803719618   17.0831878699   17.6446908157
  14.8373830889   16.3233253076   16.3225410098
   5.3382546883   14.7646046456    0.6410397591
  -1.5003570259   14.8462169992   12.2642763113
   8.4926957795   12.3034628938    3.9212774244
   5.7476537657    2.1252098815   10.6609929011
   3.1212008513   18.2483638147   10.6303526717
   4.8539384099   14.2355565247   17.4522207651
  -0.5243222845   14.1556197810   10.9555256937
  15.1999392717    0.3384359887    2.6581033550
  15.5304374875    1.5566966976    4.0303925370
   5.7816951749   17.2917564353    4.2034322668
   6.3647859185    1.1705378149    8.1498975709
   4.4020431968   19.1297941555    2.4117992087
   1.5695262936   15.2751584576    2.6337749075
   7.1410143237    1.5490066123    4.4152968226
   3.9849038660    1.9059700918    2.1143585937
  -2.0169719586   17.1277594379   12.0364758461
   2.6151414912   13.8160329883    4.0926455892
   3.1395754031   12.8681191010    2.7034214603
   6.9070481102   12.5653101490    4.1169446093
  14.0839795525   14.0044291286   17.4788173138
   5.4137584785    0.8478766342   11.6836759999
  15.3614218404   14.8985341658   18.3861623502
   5.6119514399   12.7613529536   16.8540345762
  12.4535644147   14.1308363218    7.9584420609
  15.0999139848   16.1837099712   10.3160633648
   5.3496229650   13.0273749797    2.1800583466
   3.5738688387   14.9751227579   11.1162274550
   4.1870103923   17.1835725542    3.2664709819
   5.1890284270   14.9134842077   12.0502305880
  13.6971216198   13.1568420501    8.8162402957
   5.4704993843    1.8790595085    1.3159905936
  -0.0414418979   15.6034399250   11.8918634164
   7.1413768890   14.7755834805    0.4884189825
   4.3477406189   13.6590793976    3.9723233883
   7.5210104430    0.4832707891    6.9154583609
   5.7599573512   -0.0149073824    7.0000120738
   6.6076079713   14.1273746801   17.4273750456
   8.6120489288    3.8391870117   16.6339659143
  12.8910765184   18.6212432728   12.2581238679
   3.6996868049   14.7774300034   15.1410941751
   5.1761548466   15.0117454004   14.3483696686
  11.0634519176   15.0089521032    9.0369629913
   4.3687256918   16.4688808085   11.9360453867
   4.2795785237   16.9480775503    5.1216681171
   5.8715914455   19.6836970191    3.2293049333
  -1.3991996041   17.9771053680   10.6639968744
  14.5285430624   17.9691460095    4.9883600838
   7.3119528321    1.7511657516    2.5595688251
  14.3360791199   18.1464708107    3.2102597749
  13.0513784515   17.2821485320    4.0957661614
   5.1532386067    3.0711599540    2.5244592197
  14.0791561466   14.8749582872    8.0454045988
  15.4397351284   17.8947835047    9.6260621334
  11.6210957667   14.9538416795   11.9245612058
   1.0035911772   19.0247649383    8.3905867045
   1.1097979713   13.4532459712   12.1370999398
  14.1473345717   11.9833460396    6.3066323661
  14.1556835520   12.2593695766    4.4302559351
  13.2434275675   18.6446317177   10.4784673435
  13.6451840836   15.2894206065    1.8054703007
  15.3541475705   15.6063660524    1.2441521138
   0.8423881506   11.8124974247   11.3791770742
  12.8509633331   17.0943131484   11.2509828585
   2.4761144482   12.1628343463   12.3147944264
  13.1844811170   13.3016211468    5.4848297556
   4.0754926351    2.0310383684    6.1687766700
  11.6947925089   16.4499163250    9.9490256290
  -1.0494371715   14.0986834810    8.8985044896
  10.1148965958   11.5623699388   10.5744275171
   4.6553496237    2.6566849992    7.6633488442
  14.0218211326   16.8446249259    0.9554100848
   5.0187425746    4.0937956047    4.8884022101
   5.9348548428    4.3556925743    6.5414938491
  16.4616728048   11.9635141022    7.2505767600
   6.3306821698   19.1739366569   13.5327731048
   1.3260775135   18.1839529289    6.8558422393
   1.7516712964   17.2797816239    8.2690174566
   9.9927300984   15.1203884843   11.1566866004
   4.2140238865   17.0739170206   15.7402214534
   3.5081599169   17.5042836432   14.1249158846
  -0.6782828606   13.3266215547    7.3607567536
  -0.4359124525   11.1283534821    6.3730199732
  11.3667559748    1.2423588362   14.4134370100
  14.6754661893   13.9288120902    3.6292338824
   5.6291100619   19.3394656515   15.2871333249
  10.7802276092   12.4997500924    9.2887911229
  16.9910074719   10.9238244416    4.9437928949
   4.6458749020   19.5151167993   13.7227742213
   0.0773086155   19.0646406562    5.9643965509
  -1.6122200455   18.8014215087    5.4279756097
   9.2873166824   12.9230012479   10.1762440448
   2.4703339486   11.6800169318    9.1048856782
   0.4648492169   12.9880805017    8.6759444555
  14.8501751163   15.4733416915    4.7027735434
   3.9536938068   12.1339323389   10.1247202554
  -0.4078583080   16.2626559698    6.3168670181
  11.4026299560    0.9412087309   18.8574228106
  16.2991771791   10.6445002355    8.3217416420
  -1.7780207160   16.8334059521    6.9192301520
  15.8217176969    9.6169136335    4.9094601294
   3.4019270490    6.9174957491    7.0444935889
   9.5120715837    8.1008223323    6.0700648796
   3.6894424475    6.5709205025    5.3882212753
  -0.1697561095    9.9761696750    7.6982480155
  -1.5052587362   14.9645558870    4.3529763826
   1.4263608786    6.1389285035    3.6904881602
  17.3174797959    9.3595043852    4.0804565397
   0.0582801951   18.3557783393    2.4935965779
   1.3586699997   18.9653914254    3.7879120190
   3.5970559373   14.5339725789    8.8577758242
   1.2226369582    5.1911398200    2.1459173370
  16.5804918408   15.1844964635    2.8425801508
   4.5829054708   13.2921980377    8.3357370354
  11.6305673511    4.7032870333    4.4036327547
   7.1469556615    6.3109236775   16.7186675949
   5.1653516189    6.5151387406    6.5224623108
   2.0820636909    6.6993282613    2.1963757362
   8.1749493464    7.7596397589    4.8146236348
  10.2833723406   15.7710774791   18.8239400090
  10.5340016198    4.0077394698    2.9984359525
   8.5073234788    6.7789684996    6.1619238754
   1.0653736655    3.6005811315   12.0767497402
   9.1164033149   18.9952407092   12.2404778761
  13.0378316093    8.9226368990    3.7511190398
   8.6312028283   16.2834176078   18.3768853812
  13.9046350008    4.6569732562    5.6774434763
  13.1280972411    7.7358756955    2.5470683488
   9.6250571596   17.2815438207   11.7426422007
  -0.2298395916   19.7061237556    3.7164722919
  15.4384689993    9.5282078186    1.0901793962
  13.3852155310    5.5125044502    2.4100587734
   8.9895231969    5.9778307336    3.4192273218
  -0.0672610653   13.3181061911    3.9432689445
  14.9782790602   10.6981975677    2.4370645108
  12.4242502004    4.2409025545    1.5954310937
   9.6311230406   15.4569611050   17.1253812480
   9.2820257088    4.8256668926    4.8859559736
   7.9973744054   17.8175258578   11.4235951423
   2.3796734954   15.5684460556    7.5178131606
  -0.3633773710   13.8166900990    2.3219956831
  10.0939942902    8.8387655314   11.2773063516
  15.1862580526    5.7150446949    6.2528042708
  -0.3280518190   12.1449051424    2.5664112662
  17.3203655239    7.4509379466    3.0029627728
   3.7160417834   14.9502589617    6.3665562449
  15.5399984538    4.3801972418    5.1904517981
   8.5614066548   18.1744372113   15.2717039606
  -0.8933719693    5.9488929227    3.6667724955
  12.7881147655    6.9732602332    5.1105996855
  13.7281762594    9.7973513828    1.6561946170
   1.9746285122   14.7610429820    5.9258524635
  14.3785082499    7.7727271198    5.4059559608
  12.4799098967    5.9053486274    0.7874037137
   9.2071502651   13.1207741605   16.8295389622
  -0.6975781305    7.1073475677   14.1141198856
   9.5960164584   11.1758971229   17.9074628437
   8.8204618561   16.4710915058   15.0777139073
  10.5757817294   13.6419615903   17.9597163048
  16.4338797253    5.0633545838    2.0590513908
  11.1680042110   17.0249443739   13.9056621202
  16.7560352737    6.3596084701    0.8348512615
   8.2007955608   11.7846516867   18.9272979963
   2.8624070720    9.8459752365   16.2200782255
   0.5074021138   13.9508025643   15.7922130346
  11.0905150784   16.7793651500    4.6055470394
  13.3929806859    0.1934419628    6.9534466963
   4.8583442478   10.2383005646    7.6138849409
   6.2853716429    9.6470231480    2.7704216386
  11.1144507845   18.4806978927    7.9899289458
  17.1560716463   10.4075667455    0.2323079428
  -1.6843532029   10.5236688473   17.9862195170
  15.4929498077    4.8334446148   11.7250529928
  -1.7497524136   14.0132092707    0.2363401624
  15.8050721252   12.6728800728   18.3322070612
   0.6494212431    0.1772557313   12.6574770539
   3.4604818872    1.4887395721   12.9476359231
   0.6457992430   17.6763822389   13.4279131308
  -0.3679739467    0.7982826189   10.6622323979
  11.1043396607   17.5898457671   15.5363620122
   4.7409230810   11.1030471608    6.0077479773
  -1.7748272428   11.5532963915   14.2118407964
   9.2992187667   17.1704829674    1.5614103148
   2.3666804379   10.3105871758    7.4289273016
   2.0382335704    9.7892706559   14.5974228162
   9.2380886868   18.6105364634    4.8694779823
  17.2878030299    8.4509300321   17.8017292603
   1.5915787674   13.5860835143   14.3396162630
  10.5505025097   11.1442308681    2.5496466582
   2.4253354608   10.9987378523    5.8753865878
  15.4783361774    0.4230883281   13.9686711121
   6.7231497642    8.3067194610    3.7883947900
   2.3626238587   13.0377381902   16.6645576672
   2.1430295561   18.4197898505   12.8607175838
   1.1896319299    0.4667074189    9.9087782601
   9.8683869554   15.6617001619    5.3311111191
  -0.9156691203   11.0436983103   15.6308009205
  16.7938607729    3.0761382008    0.4205558627
   3.8516452637   10.0031242243   14.7952802762
  16.2473433922   12.7734457243    0.9660606397
  11.6219450548   18.6641690883    6.2652333825
   5.0170766233    9.1442912477    3.6641235725
  10.5656073671   10.0794239091    1.1855285098
  15.9607120972    4.4943947733   19.0772225445
   7.0264940282   10.1321967280    6.6000078356
  12.3591021799   19.6705558542   15.6615435379
  -0.5627811418    7.9323998798    0.1930556424
   9.2359296476   18.4168777966    2.6640243804
  -0.4625252144    7.2583029580   17.8047736386
   2.8800212480    0.1320495965   13.9489710526
   1.2172005712    1.6930299655   13.6213967968
   1.2366201818   17.3667289594   11.7063390549
   0.4832634829    1.9721076591    9.6134507156
   0.2900864553    9.9525264841    1.1115492581
  17.4789661677    3.7476398580   18.4951866819
   0.7358030254   10.9133955895   19.2367158008
   1.3392805262   11.4319899735   16.5671457712
  13.0844427047   18.4628472347   14.4977598275
  10.8485772734   17.7522710360    2.2960785440
   1.7492607897    9.2659571307    6.2333124956
   8.2369604317   17.3465611317    5.3427004677
   6.2701129803    8.6351437913    6.0678236807
   9.0600063827   11.0062759395    1.5931634736
  -1.6945719672   12.5955523451   15.6621420950
   5.1592474151    8.8737096176    0.0419266496
   9.5214940982   13.9860476598    7.4398073105
  14.4300507808   12.8382867104   13.8831361493
   3.9047698874    1.4607153169   17.2762264530
   2.7100745065    1.2711407222    0.0195385044
  -0.7203349253    5.4647656359    6.5712454237
   5.2744997255    5.4577570789    1.2804249485
  -0.1100320238    3.3012051902    4.4943400921
  10.3867791284   10.7818094336    5.8808634461
   5.3194651429   16.8846419596    9.7906238874
  14.8540355920   19.6783273648    1.8397573307
  13.1973529481   11.8115379568   16.6073982191
   3.0982056629   15.7809878574   18.9807643082
  12.7294691851   15.9551086284   16.5028337477
   6.4962427572    0.3021477772    9.9245642987
   3.5137370114   14.8865216791    2.5649133945
   7.3826070006   13.0593356727    2.2748393473
  12.8948924312   19.3511680190    4.3547122117
   5.6040506066   12.9638895338   18.8736529399
  -1.3733461189   15.9257715579   10.4205785834
   4.3792459146   18.8642473524    4.5478616944
   5.4156963763    1.1565283853    3.2903359577
  13.4400270237   14.8188983990   19.1203104078
   6.1367685522    2.0561474757    6.1998161573
  14.7916559709   17.7357913760   11.6616187367
  13.1146559080   14.9920737954    9.8299240787
   3.4115727676   15.0339037915   13.1563843347
   5.5288304953   17.5245613578   14.1956421230
  10.3023597853    2.5792401136   15.2891075028
  10.0186958202    2.7364171337   17.6743815747
  -0.2338436077   17.5220482973    7.9472502281
  11.1029065522   13.2862700482   11.2128526350
  15.1968345352   13.6360550641    5.6070793823
   2.2832076011   13.2318876057   10.5699615068
  -1.3491713380   12.0871974661    8.8705981652
  17.4070192833    9.4773300321    6.2182307994
  11.6172705882    1.1551683563   16.8479049636
   3.8433909787    4.8749602099    6.5037483235
  -0.2676918953   17.7038484767    4.4015292591
  10.1127429381    6.8005979061    4.8750371306
   8.5502015615    5.5123309395   15.4468249197
  16.9727566111   13.1867479053    3.3042627296
   2.6958195686   13.5216627039    7.4991760611
   9.6623959157    6.8957334022   11.9273893869
  14.4515808539    5.9469314739    4.3072975912
   0.1042831593    6.9635593296    2.3069248489
   0.4638657630    5.6412306504   12.1745590351
   8.7482099073   14.3366769829   18.5228800849
  11.3491618413    5.7449409285    2.5076931359
  14.9726552309    8.5920422711    2.9318946159
   8.3682999377   17.1841986145   13.4043338101
  17.5213801845    4.3034350991   11.1105323865
  17.1411567705    6.2982610079   12.3326282125
  17.9890064580    4.8039184791    1.1158830822
   2.8888994890   11.6544581339   15.1544854363
  11.0754017754   19.0772215534   14.1406863971
   6.5474042177   10.1516341141    4.6898714615
   9.5870026692   18.0572653921    6.8365351740
  10.6505268471   12.0363290784    0.5843394158
   0.2526396526    9.0982112420   18.4183271638
   0.3196253639   19.1983102053   11.9957497859
   1.3510740357    1.7564972337   11.4663688534
  -1.3798485974   12.1760750707   19.2257241696
   9.4689088283   16.4372467436    3.3722954073
  -0.0621855638   12.4412599290   14.4722848418
   3.7851952569    9.3234836886    6.1080738586
