B2 C140 Ca1 F48 H298 O66 
1.0
1.8826074465510139e+01 -3.4007974327622300e-17 8.5518212322441199e-17 
-2.7086995202934356e+00 1.9702845800321430e+01 -5.0160435851892968e-19 
-9.7608806079624333e-01 -7.1648828846842205e-02 1.9273307208042571e+01 
B C Ca F H O 
2 140 1 48 298 66 
Cartesian
  10.2490728824    2.2997177323   16.5778533414
  -1.1852597754    5.3832007315   12.0373169824
  18.5098324854    0.3116457591    1.2021899990
   7.9521848186   14.4207369108    7.1459527504
   5.6349357494    6.7328796753    0.8852681623
  14.0012084101   13.2005580726   12.3953736853
   3.9437075388    1.6689230977   16.0326783227
   2.0167843912    0.0534439223   18.7631816664
   1.1985911924    2.5561794629    4.4359828882
   2.8027777712    0.0694073387   17.3886071129
  -0.4960513073    3.2600612444    5.9564388513
   4.2930781122    4.8859052782    0.5434506403
   2.0333306304   15.7094336264   17.7122927171
   1.0565413769    2.2512442752   18.5027178320
  12.0044447894   15.1211483391   15.6094953673
   4.5614088121   10.0711870583    0.1069725187
   6.2983505332   16.4179393061    9.1809666834
  13.8903921206   11.5671166536   15.8809095221
   9.2887744814   11.5316657696    6.5870009917
   9.8692151034   12.9715630268    6.4324463830
  13.8078389890   11.6170936357   14.2786076532
   4.4506472750    7.7620144535    0.6536003611
  11.9004077569   10.7032002930   16.9307408350
  11.2558252145   10.1501551776    6.5625425496
  -0.0196203147    4.3653684452    6.8531741164
  -0.0848738358    6.8404914250    6.7965001710
   4.7252769041   18.1176858080    9.3274708242
   2.5330114574   16.2438090513    0.7283143034
  17.0858882564    0.8833814949    2.9342994584
   3.7809435178   18.6862277475   10.3959628653
   2.2690234997   15.1685983459    1.7423649245
  13.4811932869   16.1813571815   17.1309225251
   5.9357224850    1.3429154073   11.0556080507
   7.6253224464   12.8638816036    3.7247274385
  15.7779077603    0.6352274466    3.4473214693
   6.2420668059   13.6858291143    1.9387966557
   6.2880141080   14.1082380940    0.4198943229
  -1.2611783486   15.0382215611   11.5182856548
   3.3499034661   13.5980629808    3.1910083857
  13.6163497376   14.9624684610   18.0547821229
   5.2310648759   13.1290576931   17.4631713119
   4.5919515621   17.2752451526    4.2477326569
   4.6629065296   19.5773460270    3.3952015134
   6.6723250689    1.1847269157    3.4644989700
   4.8965450188    2.3038182196    2.3918156078
  -2.2024772375   17.1372387391   10.9299112731
   6.3108696123    0.8371798455    7.0372740782
  12.9753001802   14.0660562696    8.5367417355
  15.1213055088   17.1559191584   10.7360774237
   3.6934617437   15.4853832853   11.9919780567
  13.4709940445   18.0165072601    4.0632037871
   7.1419749037    2.2206301721   17.7790603956
   8.4252614718    4.4100296420   18.7033963797
   8.2879896214    3.2147368262   17.6332282988
   3.8722430940   15.3632970656   14.3742831199
  12.9711284627   17.8280679258   11.4209496378
  11.2525049908   15.1961732615    9.9419579531
   9.4592221586    2.3609032350   13.0735908597
  14.0238528321   15.8974419478    0.8841285054
  13.8360611375   12.8094182780    5.4107902799
  10.5575557159   14.5729053329   11.1228434521
   4.7882567723    2.7577483029    6.5767692134
   1.3357084186   12.6374695656   11.5995658305
   4.0543465174   16.8635313260   14.7042283589
   1.0704895335   18.2076355997    7.9214485460
  10.4940527074    2.2831600613   14.2327750146
  11.7105028423    3.1770532866   13.9425476160
   4.9703256430    4.0358545447    5.9282989219
   5.2946463269   18.7464409311   14.0999550828
   9.9140293071   12.6776733885   10.0212902536
  -0.6515987790   13.2175946510    8.5127906702
  16.6474753285   11.5711237330    7.8535559077
  -0.6908530375   16.9146896111    6.6876528456
  -1.1615663467   10.7273064067    7.1211201712
   5.9752664953    6.0845019399   14.6592497751
  14.9912517561   14.4616688542    4.1310666502
  -0.8794397306   17.9815033359    5.5978325978
   2.6536733199   12.5964932978    9.5523711001
  16.6749333980    9.8331718732    5.0304692610
   3.9370862996    6.0926133564    6.2729680486
  11.7198423976    1.1154193064   18.1468560546
   2.2199413324    4.6163642749   13.1101334545
   9.6451297288   19.3872298951   18.4010938753
  16.5697885223   14.3608178234    3.9442532298
   7.0874563564    6.4633488290   15.6468110587
   3.2181312297   13.6583381500    8.5177619839
   8.8931158498    7.5593626328    5.3324062407
   0.2664513911   18.5499146752    3.6528184667
   7.5845398497    7.9210862205   15.5370641947
  10.2700076309    7.3144998723    9.7950722805
   1.2155660318    6.2218067945    2.6376467557
  12.7385683484    2.2572467782   18.4259610518
   1.9627972159    4.9938648924   10.5684079850
   1.1779866025    4.6585582038   11.9573552216
  10.7676376563    4.9529538173    3.5215311607
   9.6092883108    5.6945677471    4.2207257436
   8.7586532701   15.5857651138   18.0595531089
   9.4177977291    7.7638127753   11.0188510369
  13.3252767759    8.1212567467    3.4704022321
   8.6460110900   17.9981319010   12.2345762956
  -0.5324401736   12.8019570595    3.2480194793
  14.5806249250    5.3341237185    5.5222995866
   7.9713717314    8.0401169886   10.5693290763
  14.5722935732    9.7547715336    2.0400196764
  12.2146791842    5.3090194100    1.7300682467
   2.4300421270   14.6897308589    6.5053304968
  13.5459817595    7.3299946529    4.7066384691
  -1.0066641092    6.6246537979    2.7938343819
   8.9358066487   17.5572825748   14.6012728209
   9.0610481852   13.2200761370   17.9311796892
  15.7745227082    7.5873175082   14.2467488240
  17.0447639023    7.3906675477   13.3273736259
  17.0192170361    5.6872019172    1.7520211444
  15.3962873359    2.7995615476   11.2025448013
   8.6684430012   11.8551828408   18.5142948642
  15.8405263552    4.1946693621   11.0091048686
  10.4689397848   17.6424240185   14.3424207498
  15.4018484253    4.6301439928    9.6118455373
  -1.4655677891    8.6675976405   12.5144572735
  10.5531554441   18.8697505326    6.9962836313
   2.5785688237   10.0362680674   15.4637039715
  -1.9269337830   10.8877451506   18.9793138264
   0.5186480215   12.9061863894   15.2097929404
  16.6059458115   12.8167019176    0.0014553368
   4.6642108921   10.2126163382    6.5405463639
   5.8124594060    9.1665903702    3.8027973585
   9.9335616867   16.5919822893    4.8113164778
   9.0449388005   17.7357926184    5.4398159314
   1.5505209838   12.1357689570   16.0885248864
   2.3980254551    0.6066488757   12.9086245270
   1.0908837730    0.8753497016   12.5494855617
   0.7907165137   18.1750706687   12.6608558347
   0.5766329351    1.0041525646   10.1982776137
   9.8573484438   10.7833498910    1.3845560116
   2.3435574596    9.8393235276    6.4030062159
   5.9303346471    9.6066001143    6.1954520585
  11.9798279079   19.3343448494   14.7324440910
  -1.2446326965    8.2900241027   18.3755325713
  17.2654061961    3.9563376684    0.1691200372
  -1.5657682223   11.8176714513   15.1014937241
   0.3321617743   10.3512320172    0.1179536787
   9.7114814179   17.0834390436    2.4929850809
   9.3584226601    5.7977609220   13.6359663122
   6.7993420411    1.6714910827   16.5997438187
   9.4885941922    5.2031706501   18.6109548531
   9.0432107573    3.5748753496   12.5598953605
   7.4285425700    1.2842501687   18.7134807485
   9.3657521529    4.0641988537    0.7168256933
   6.0901623507    2.9019238665   18.3092521083
   7.2682173585    5.2936046909   18.7673666011
   8.3226673190    1.7816025454   13.4473748362
  12.1426707497    3.2147396720   12.7156474761
   9.9573331898    1.6463935908   12.0274760248
  12.7200558312    2.8528464493   14.6861233653
   4.8719633344    6.9118241117   14.9196020445
   5.6349025348    4.8129520065   14.8240054690
  11.3173721900    4.5430198753   14.2173083563
   6.3545874043    6.3327816909   13.2962634199
   3.2389853588    3.7992169657   12.8287000583
   8.8684297939   18.4115797087   18.0495341373
   2.7569141728    5.8329386903   13.3539738117
  11.4230801841    6.7999936745   10.3599406593
   1.1247185552    5.0068224765    9.5345561724
   8.0708472488    8.1246368963   14.2155764858
   8.5819492350    8.1671557421   16.4409693324
   1.6213004401    4.2681931599   14.4022947288
  10.6207869014    8.2937024709    8.8896248148
  10.9644533403   19.2247231439    0.4564489100
  13.9053027483    2.3132972904   17.7843361781
  10.8329695262   19.1924527656   17.7046647185
   2.7193842642    3.9100380891   10.2945292892
   9.6370140741    6.4002473374    9.0903245730
   7.2148906550    8.3374852040   11.6702675297
  13.8706244891    2.2102950477    0.4891533237
  12.2357205703    3.5637750496   18.1174911546
   6.7421904572    8.9074504999   15.7082310564
   2.5753471168    6.2059073743   10.4876264154
   7.4622556677    6.8642123826    9.9144597581
  15.6540056973    8.6762326500   15.0144138735
   7.8223415617    9.0668842310    9.6525736007
  14.0651100838    2.7217206341   11.1338072202
  14.5692963478    7.5234029120   13.4398435495
  15.9501967587    3.8961638566    8.6270382795
  15.8334041798    1.8278634792   10.4249656133
  15.6962408209    5.9384947994    9.3137096206
  15.6247262404    6.5028372445   15.1212812247
  -0.4073493693    8.5376596388   11.6524496019
  15.6482063214    2.4959010484   12.6134749635
  -1.0102068742    9.6712188862   13.4099777311
  14.0758554279    4.6455622389    9.6137473216
  16.1909752990    9.1183674887   11.9100501198
  -1.6373339580   19.1679735143   18.5605249552
  14.5526389021   12.4380395615   16.1689797640
   1.4097099586    2.5131042038    3.3462789247
   6.3739387857    7.2438047280    1.5503893233
   6.3967011394   16.2662321888    8.0659831239
   9.4791614385   11.3596521676    7.6401973192
   5.0205894017    6.4502519965   19.1119507194
   4.4281215109    2.7195395381   16.2345601327
  17.2384351184    3.1985937953    5.8273438825
   0.3849577949    0.9207910302    1.7149464691
   1.8225299964   16.8178276175   17.4537229789
  18.2481467367    0.7718974342    0.1821302154
   8.0274190754   15.4314687700    7.4535865100
   0.2921644327    1.8609096770   17.8907894461
  -2.4801044417   19.0974033536    1.0498824410
  13.1150970952   12.9304196372   11.8515319240
   0.6832863436   18.8344111346   17.5547177388
   7.7606419139   14.3244839299    6.0633941688
  13.0619409087   14.7659914100   15.2789488993
   4.2323594167   10.7877241132   18.9733079923
  14.8421187621   12.6288928955   11.9739917135
   4.0595611478    3.8414662523    0.8465518220
   3.3543213928    5.4029760584    0.5387926564
  12.3432472157   10.2137412880   17.8357567773
  12.0281574270    9.6872831745    5.9104689906
   1.1435660892    1.4313716893    4.8443892031
  -0.1409911487    2.2545151102    6.3637484006
  10.9458887541   12.9944621466    6.7290305510
   3.1811045182    1.8796719073   15.2714692195
   5.6450164954   18.7281518296    9.1969091673
  11.3168658297   14.4357846905   15.9979934180
  12.8478823447   11.2977335773   14.0378180789
   1.1201227691   15.1149274743   17.4507994809
   2.9710182476   15.4279519899   17.2252385425
  11.5166114887   15.5718992832   14.7053210346
   7.0304049340   17.2521868251    9.4563953178
   1.8234098331    2.6818860672   17.8120856776
   3.0800517407   17.0317707406    1.2323573852
  -0.6531789634    7.6128547726    6.2472364029
  14.2882171679   10.5658018969   16.0993848003
   2.0001356330    3.1326924285    4.8859339719
   6.6645143925   15.5029560313    9.6537783786
   8.2221538116   11.3754083251    6.3323641537
   4.2179129129   10.5128923956    1.0969626177
   7.1322031682   13.8424133862    7.5830739372
   2.5685874980    9.8735665493   18.9097195849
   3.6238316545    4.7082048912   18.7388456881
  14.1525133637   14.2610967265   12.3179344391
   0.8977351590   19.3555369700    0.2199318349
   4.7703168143    0.9677506825   15.4936507926
   0.5464530631    2.9854128911   19.1295102439
  -0.5947056667   19.6405742174   16.6210793005
  17.7354547878    0.7958273382    3.8532215888
  16.9904120083    1.9207677129    2.6865029873
  11.9421611594    9.9099663106   16.0743756113
   3.8327320623    7.9229291256    1.5973084419
   2.8482384936    7.4044032764   19.1375299772
   0.8396772068    6.8751143928    6.2568975460
   1.0438483682    4.5511009073    6.5931186262
   1.5737913967   16.6181677834    0.2399690082
  11.6863451649   10.9489083528    7.2293616403
   4.3110251712   18.7187338998   11.3360044539
  11.0573062365    9.3542397614    7.2714187840
  10.9428140868   11.2404149099   17.0505049919
   9.7434571689   13.5347697968    5.4674548540
  14.6966997988   10.8505859003   13.9560147151
   4.1086190898   18.2086796726    8.4431605076
   7.9147312676   13.7242534684    4.2610600717
  -0.1101123385    4.0354268049    7.9157895351
  -0.0553147375    7.1522505266    7.8625646026
   6.1236037906   14.5686529608    2.5586902725
   6.8602910814    1.7313060932   11.4812018283
   1.9305712094   14.1642650642    1.1933108421
  13.5664602843   17.1264418599   17.7499907758
  14.4067699382   16.0303760812   16.4643092320
   5.5052979395   14.8962872006    0.3469269392
  -1.9714087422   14.8914911518   12.2980913680
   8.3800064040   12.1622585599    3.9272946236
   5.5547695644    2.2453284622   10.6322352850
   2.8540678653   18.1063711506   10.5999617325
   4.2269761425   13.2721250597   16.9073410205
  -0.9392422145   14.1117447109   11.0554436136
  15.0513426536    0.3092964209    2.7264945591
  15.3450363622    1.5663483698    3.9856168131
   5.5937003724   17.1104788429    3.7342279526
   5.8800208228    0.9004188445    8.0013374138
   4.3814282516   19.0831131169    2.4143373295
   1.4988579737   15.3797116201    2.4375288115
   6.6885541236    1.4879607376    4.4860802807
   3.7918294928    2.3329559882    2.2316919032
  -1.8630131266   17.2312382185   11.9672550663
   2.3677379788   13.4329904670    3.5033701569
   3.5776309786   12.7487216103    2.4236858912
   6.7007029861   12.5446530914    4.2271921476
  13.6369546968   14.0699339055   17.4416615687
   5.1851519668    1.2676271847   11.8214907141
  14.6358613515   15.0862414391   18.4392026208
   5.7482327892   12.2849492673   16.9890953290
  12.2472907334   13.6802726312    7.8285658348
  14.6148972965   16.1049815631   10.6008777767
   5.4229169510   12.9375874024    1.9639689340
   3.1327469694   14.9100518758   11.2954450598
   3.7884501844   16.8058991936    3.6875185822
   4.7621869876   15.3746126445   11.9844225349
  13.5601974629   13.1047098124    8.6673343109
   5.2572445213    2.4025633899    1.3717034416
  -0.2857954231   15.4586509450   11.8934135985
   7.3074522601   14.5879697297    0.2110892878
   4.0176649900   13.5985026822    4.0601133976
   7.3882677819    0.5769196909    7.0799568626
   3.1068831649   19.5928328958    6.6686387574
   5.7863532081   13.9941346509   17.2798533478
   8.2051328014    3.7712628589   16.6012957343
  12.4340030052   18.5864539872   11.9698341842
   3.4477937242   14.6997573073   15.0235366841
   4.9536615588   14.9817431489   14.3288655445
  10.5558737618   15.1653527466    9.0413694187
   3.5793039302   16.5543659628   11.8264899117
   4.7684037401   16.8679498475    5.2517473442
   5.7609735777   19.5568568020    3.1475663244
  -1.7210224622   17.8839235317   10.2703564461
  14.2958550628   17.7254906626    4.7275892504
   7.1488402764    1.7979915099    2.6716874669
  13.9491943447   18.1355601933    3.0195999054
  12.7481789727   17.1911163306    4.0395593648
   5.1199491580    3.2558343990    2.8317359469
  13.5055598522   14.8599102370    7.9274852833
  15.0620750275   17.6482754749    9.6864087961
  11.0179235688   14.8361114231   12.0590405394
   0.8271143051   19.0859849369    8.5037692166
   1.1895749582   13.4236987655   12.3217328745
  13.8366289967   12.4111669585    6.3543846726
  14.0561322976   12.0072180698    4.6790913968
  12.7984477107   17.9892436046   10.2692719094
  13.1904593563   15.7730854424    1.6764939369
  15.0225430619   15.7146846660    1.2196648990
   0.3087242347   12.1817759144   11.4001130691
  12.5404813717   16.8605118170   11.6443329597
   2.2319688114   11.8975320901   11.7405723932
  12.8947466134   13.1606985896    5.0878778402
   3.9507766248    2.2434715724    6.1910242144
  11.5310069636   16.2521342863   10.0459387197
  -1.1676549323   14.2355240510    8.5106454072
   9.5512962201   11.6184603275   10.2125169452
   4.6896564940    2.6329992658    7.6852553758
  13.9956802385   16.9565882555    0.5402934129
   4.9122584536    3.8923064357    4.8574108838
   5.8919219143    4.4794461778    6.2920977862
  16.0422107468   12.2271200019    7.2927658808
   6.0025871334   19.0181034068   13.3237420263
   1.3801282251   18.6328784383    6.8598325444
   1.9789334249   17.5677974645    8.2436261258
   9.5015293294   14.8666643252   11.3140469898
   4.1983773996   16.8859890894   15.7788195770
   3.1478637376   17.4227039167   14.4188378209
  -0.3601310183   13.0855883297    7.5028732059
  -0.5043538154   11.3272563110    6.4462005033
  10.9835259761    1.3070102497   14.5053688768
  14.5424465189   14.0456027787    3.1945164102
   5.7938101498   18.9216298683   15.1309296272
  10.4422083119   12.4398933591    9.0454065850
  16.8118888836   10.8714759140    4.8451929054
   4.3944019490   19.3518380977   13.9099945036
  -0.5390483454   18.9226782342    5.9614115883
  -1.9598077261   18.0445761769    5.3838570685
   9.0323304966   13.2140606023    9.7842609115
   2.2238304098   11.7374033980    8.9736155648
   0.1833630038   13.1987886419    9.0975451953
  14.7139180546   15.4305535620    4.3525014472
   3.5201290234   12.1862368053   10.1421717111
  -0.3064522193   15.9336646340    6.2441025327
  10.8590766008    1.0382948141   18.9287088425
  15.8659481596   10.7822341791    8.0977320304
  -1.6681968315   16.5219013936    7.0269577196
  15.5962766794    9.5649735998    4.9029716508
   3.3399850404    6.7676486548    6.8571850648
   9.2967323562    8.3937679788    5.8496444496
   3.6925373801    6.4969915441    5.2170414365
  -0.5583724037   10.3072582153    7.9111865245
  -1.7569580424   14.6411300588    4.8927189718
   1.4382840225    6.1327071284    3.7203441679
  17.2239005985    9.2138156691    4.3087574392
   0.3388673753   18.3361217790    2.6250648947
   1.2734214033   18.7182870531    3.9189379673
   3.1050267040   14.6543318634    8.9468913129
   1.1318630762    5.1833581822    2.1563282422
  -2.0148349673   15.2150941503    3.2665840879
   4.2105392760   13.3717470515    8.2378431184
  11.6049561738    4.8033564171    4.2854598662
   6.5272649459    6.4141116025   16.5937326714
   5.0494196290    6.3485908117    6.5226108117
   2.1971549572    6.5681392341    2.2293653571
   8.1992729913    7.8330549139    4.6317766334
   9.2504647505   16.1671872499   18.8893551311
  10.4227519452    3.9715940327    3.1455597068
   8.3277213458    7.0445627781    6.1375637447
   0.9053755490    3.6831258480   11.6719579383
   8.6088820297   19.1029315855   12.2422600439
  12.6549351990    9.0063030469    3.6713012374
   7.8288500582   16.1706772349   17.8435579038
  13.6242033982    4.8646486711    5.8242699341
  12.8127224506    7.7068680552    2.6442158529
   9.7420384540   17.5730013002   12.0554637945
  -0.2491738455   19.5805948765    3.7204020706
  15.1938184033    9.5411658298    1.1580680118
  13.1099597019    5.3343209485    2.4151965825
   8.8858398178    5.9578119832    3.4348101599
   0.0333484178   12.8954232018    4.1742156137
  14.9658415319   10.7156503889    2.5001346771
  11.9652191391    4.3083895329    1.3409749335
   9.4970867528   15.5280232143   17.2338757093
   9.1579104341    4.9475619419    4.8835448504
   8.0551822098   17.5992899499   11.4115726543
   2.2401141105   15.6508159248    7.0924878942
  -0.0832034867   13.5244955972    2.5108455480
   9.8195279908    8.7597190198   11.3288067072
  14.9885883481    5.8365411037    6.3010616212
  -0.3974795162   11.8324044291    2.8226185866
  17.1310180412    7.4077909533    2.7864151738
   3.3160269959   14.7633590975    5.9061053090
  15.2753766810    4.5536911476    5.2091491844
   8.7459810248   18.5350738588   15.1219719005
  -0.8793948684    6.2214604494    3.8647127000
  12.5863713228    7.0439891332    5.1542060596
  13.5340390160   10.0254765903    1.7300215342
   1.6683024653   14.5464925700    5.8183262935
  13.9117807686    7.9282699403    5.6232911941
  12.3670816385    5.9903176429    0.9034123585
   8.9318609364   13.1979482510   16.8308773911
  -0.9606957460    7.4217935746   14.1090801047
   8.9540876968   10.9853683709   17.7995434254
   8.5655808122   16.8030732077   15.2871494747
  10.1896898551   13.4684271057   18.1857954025
  16.2753133066    5.1715689779    2.3944272311
  10.8047608233   17.2059118599   13.3895194699
  16.6825840978    6.4338434329    0.9725735005
   7.5318784352   11.7552356721   18.5313990640
   2.1462980894    9.6188224193   16.3185201472
  -0.1229542930   13.5784391769   15.9022480769
  10.9541270656   16.9265419278    4.6134034889
  12.9495070072    0.2003459652    6.9042166379
   4.4770999151   10.2927839627    7.6338269431
   6.3128945563    9.5741580931    2.8298502051
  10.8016914498   18.6054452544    8.0390149805
  16.9421660663   10.5357391695    0.0903769754
  -2.0632159447   10.8285884257   17.8574073925
  15.1397432266    4.6553451085   11.6739656373
  16.7199995726   13.8175001459    0.3302829555
  15.2787608845   12.6779469005   18.2204572356
  -2.2803750164   19.5399153010   12.3881282630
   3.0159159982    1.5190212067   13.0338656105
   0.1073829650   17.8105993602   13.5296781117
  -0.5094525117    0.6070089209   10.3216884067
  11.0409400971   17.1504066250   15.1398516231
   4.6592388368   11.2169220720    5.9794715755
  16.4820894331   11.4735255016   14.4707037592
   9.2880214647   16.5800382075    1.5750565026
   1.9878845394    9.7420561682    7.4793404600
   2.1681689549    9.5809975000   14.5663511371
   9.2817591734   18.6147852099    4.7634171951
  -1.7739952801    8.3282231558   17.4135816682
   1.1369124550   13.6234078898   14.5377223661
  10.2755515790   10.8077623351    2.3685553714
   2.2292632208   10.8790518701    6.1895908816
  15.1684873236    0.1588849716   13.8950435539
   6.1832141364    8.0836222603    3.7713486632
   2.0543687040   12.8599361303   16.7374428964
   1.8311141761   18.3555024943   13.1203196653
   1.3105864558    0.2512192081    9.9102744707
   9.9655405810   15.7434444626    5.5205962986
  -1.4890334099   10.9041851979   15.8317631462
  16.4468930707    3.1416549770    0.4532610992
   3.6614080829    9.7265801877   15.4477029333
  15.9816826775   12.3252810221    0.7628557925
  11.4381363304   18.7357642375    6.2608015023
   4.7434350411    9.4052804731    3.6358180803
  10.1475642011    9.8067287227    0.8771660742
  15.6196715523    4.5204881335   18.8782302872
   6.7728620535    9.9712334643    6.8406306129
  14.5092229667    0.2813205544   15.6570103400
  -1.9711669548    8.4421176750   19.2060083036
   9.2249337236   17.9946582849    2.6243779959
  -0.8146102522    7.3071533546   18.4419691996
   2.4516458596    0.1798939220   13.9471786579
   0.5677063803    1.3863484691   13.3311066085
   0.8713547493   17.2708040792   12.0322882906
   0.6654081019    1.8209503727    9.4791549501
   0.2949345140    9.8660034767    1.0843828796
  17.1108054736    3.3934187318   18.9055015074
   1.1730000814   11.0339932669    0.0828625133
   1.1309717138   11.4111552357   16.7681886770
  12.6120205657   18.3534258373   15.0269771376
  10.7745791684   17.4082562903    2.3737684532
   1.6755172892    9.1419689091    5.9253233561
   8.0311116408   17.3998214565    5.2962250279
   5.8381205201    8.4729254155    6.2435107391
   8.7766852970   10.8156647015    1.4974820330
  -1.8960103680   12.7054757279   15.7442936515
   5.2221942968    8.8683995595    0.2847177453
   9.2479954834   13.7889521314    7.4534941677
  13.8543192610   12.9599853199   13.8352338350
   3.5613541066    1.3241632217   17.3269847087
   2.5273243635    1.3037197113    0.1027430831
  -0.7906463011    5.5495165189    6.6163277354
   5.2981037398    5.4119129947    1.4000694876
  -0.0671923168    3.2367827459    4.5992673615
  10.1796074723   10.6780143960    5.8086477659
   5.0524448064   16.7945878781    9.6867888574
  14.5758383110   19.6909974233    1.8951530896
  12.7236845645   11.8475596033   16.7221419300
   2.5196046685   15.7408891862   19.0292396662
  12.2268094314   16.2746801221   16.3901898303
   6.2055209777    0.3074965257   10.0512976549
   3.3946807217   14.9195826762    2.5350855613
   7.4122098330   12.9799095630    2.3305249755
  12.9273070060   19.3447003729    4.4685673027
   5.0719491461   12.8587147115   18.8624603105
  -1.7374928815   15.8562352730   10.4550127453
   4.2812698949   18.6347225773    4.4898274870
   5.2401826813    1.0990549718    3.0391666736
  12.7199885013   14.8820687947   19.1789128184
   5.9648268019    1.9926448256    6.1489882816
  14.3814039863   17.7307214529   11.6961231904
  12.5151058025   14.5981337252    9.7377463706
   3.1018104224   15.1105068026   13.2380443917
   5.1339542327   17.3615275244   13.9869301164
  10.0045754941    2.7565328511   15.4041023968
   9.5756731237    2.5546953991   17.7136514712
  -0.0081228233   17.3318415279    7.9091856297
  10.7082211326   13.1441914869   11.0196367717
  14.7705648541   13.7853239316    5.3682354149
   1.8599866405   13.4131732745   10.4234099346
  -1.5016142266   12.1966365961    8.9586806668
  17.1138900179    9.7074078265    6.4065252750
  11.2561870709    1.2345871663   16.8815287974
   3.7364189440    4.7442906528    6.3621572304
  -0.3953305398   17.4901870471    4.3340781444
  10.0788857953    6.9050821253    4.8143959788
   7.9635903058    5.4130794665   15.4455269801
  -1.8829975643   13.1124333446    3.4449252255
   2.4302567648   13.5953794034    7.3685992228
   9.5394986322    6.8808671345   11.9922510796
  14.1883481632    6.1358694703    4.3658669739
   0.1697049093    7.1344249256    2.3642342099
   0.1727030339    5.5713523054   12.2809740108
   8.3100863156   14.3217742479   18.5012904628
  11.0533303528    5.7679965418    2.4854240342
  14.5697821470    8.5987071461    2.9163582151
   8.1683577598   17.3471974287   13.4407122646
  17.1957080266    4.3362274242   11.2116553412
  16.7251121396    6.3406671308   12.4321754747
  17.7692675054    4.6169427253    1.2288413906
   2.5423493678   11.4255431583   15.2922894341
  10.6668232562   19.0424934577   14.3699130350
   6.3924346954    9.9481889253    4.8325691857
   9.4373351289   17.8878412069    6.7449170898
  10.2437335068   11.8768047999    0.5308802759
  -0.1631615187    9.2576233403   18.3791798459
   0.2448941303   19.2530892208   11.9256647839
   0.9867675672    1.6337515743   11.3554386034
  -1.8747853783   12.3115936350   19.2665674830
   9.3757819801   16.1982625568    3.5762531988
  -0.4393165654   12.0940187772   14.4185961652
   3.6530832907    9.3314518555    6.0758446219
