B2 C140 Ca1 F48 H298 O66 
1.0
1.8633205301331042e+01 4.3446769541953083e-16 2.5483251932122284e-16 
-2.4949425622734687e+00 1.9866974750130481e+01 1.4305601402149666e-17 
-1.1889238859748179e+00 -1.7351713889858106e-01 1.9498588619156447e+01 
B C Ca F H O 
2 140 1 48 298 66 
Cartesian
   9.9318086937    2.1056511664   16.8951823823
  -1.2356703092    5.5253672699   12.1154413646
  18.2813858890    0.0794149796    1.4118630532
   7.7868201522   14.2691826045    6.5252253143
   5.7584477264    6.6059253718    1.0591255382
  14.1548352912   13.2499198421   12.6643082470
   3.6900965967    1.4740325443   16.2528391492
   1.6587102427    0.1479318306   19.0248294109
   1.2690763928    2.5362556425    5.1195046850
   2.1827720695    0.1697213761   17.6068625968
  17.8436271847    3.2275778424    5.9626190103
   4.0903357539    5.0126489823    0.1344830222
   1.5001062713   15.4674706194   18.1317259172
   0.5470306730    2.2033451140   18.6366647699
  11.8281027687   15.1576724771   15.7124701957
   4.2256636100   10.0050531176    0.3438785116
   6.3074059585   16.6831448165    9.4374334018
  13.3772879003   11.7262820543   15.9761138547
   9.3405057763   11.5842151392    6.3675450435
   9.8798272629   12.9756441172    6.1728079999
  13.3981008138   11.8626063655   14.4478480926
   4.8640668023    7.8756205688    1.0776967553
  11.6942181940   10.7424042487   17.2449864700
  11.5115952771   10.4696488258    6.8785640646
  -0.2116173815    4.2433806524    6.9087206723
   0.0596398694    6.6463883222    6.7574666671
   4.6740433473   18.4918288658    9.4820572938
   2.4990306637   16.3135002891    0.8222545904
  16.7704988687    1.2646835079    2.9645184590
   3.7969187284   18.9868756764   10.5801519313
   2.2078772222   15.0239546451    1.6549777579
  13.3484329046   16.3050124788   17.2574022518
   5.7832464804    1.2819509561   11.4320744311
   7.6588519787   13.0947170030    3.5312774471
  15.4538874441    0.8979518256    3.5809899699
   6.6002367196   14.0293559861    1.6391301277
   6.6946918393   14.1374872037    0.1228384433
  -1.8438419218   14.9552106646   11.9827440880
   3.2378442164   13.3254868350    2.8271440984
  13.2369838289   15.3365634086   18.3870663013
   5.1281107294   12.5082772262   17.7207923568
   5.0082536951   17.4986584352    4.1359946724
   4.6481544022   19.5513244960    2.9833390659
   6.5464865017    1.0428832181    2.9267893811
   4.7281442172    2.3870602376    2.5877934530
  -2.2305359810   17.1568986040   11.1602786753
   5.9638443683    0.6086573524    6.4422286043
  12.7002182024   14.3501457615    8.4110111768
  14.8470237101   17.1544346031   10.7539681728
   3.3078074478   15.7620833926   12.2795892604
  13.3201628351   18.2277230841    3.6894930783
   6.9888604206    2.1506930613   17.9926439713
   8.1398552826    4.1252889501   19.1232017889
   8.0918094867    3.1822969333   18.0256441218
   3.8201468249   15.2141189677   14.6720121343
  12.8726827216   17.9168884533   11.9663583648
  10.9704860237   14.7929129195   10.0222437069
   9.2476293310    2.1167569161   13.3575048201
  13.7248259165   16.5361905218    0.9316151220
  13.6762544194   12.8166470378    4.7873011696
  10.2341701591   14.2059154316   11.2640090407
   4.8059719190    2.7102978112    6.6116488907
   1.3494618932   12.6768444927   11.4477872788
   4.3754912269   16.5356439091   15.1994164796
   0.9193139850   18.5347912171    8.1852030204
  10.3616639491    2.1984030624   14.4471624361
  11.4667574844    3.2650518456   14.1020284972
   4.9455250796    4.0285476490    6.0873282293
   5.2031785126   18.5373729413   14.0395327784
   9.4168733740   12.1869170238   10.0528128482
  -0.7465975802   13.6095332551    8.3887151799
  16.3653212837   11.8286662722    8.0059744050
  -0.2067910656   16.9193077369    6.8209372093
  -1.3405397735   10.8163624435    7.3801094744
   5.5886649179    6.3059730088   14.9546951637
  15.0239746111   14.6207744157    4.2439484562
  -0.8606075775   17.8530040908    5.7966002550
   2.7861194942   12.8236151612    9.5534387492
  16.4712916837   10.2245201368    5.0972788336
   3.7772311580    6.1359477699    6.0008509704
  11.5990199234    1.0770251142   18.4145780202
   1.9427668943    4.6108993972   13.1705743945
   9.6314995884   19.5003681185   18.6812789486
  -2.0238668966   14.5050981073    4.1968999679
   6.7313425455    6.4954547903   15.8952715486
   3.1439217722   13.6130172820    8.3542857463
   8.5978938892    7.6864367014    5.1241055555
   0.3930296848   18.4516455863    3.8180473651
   7.1783028729    8.0552511772   15.7665338636
  10.2077001311    7.4565154341    9.7893874513
   1.2545960924    6.8434897111    2.6362294857
  12.5699245516    2.2640549861   18.7521290999
   1.7775498416    5.0169168460   10.6054193877
   1.0482877229    4.5640665874   11.9115974636
  10.7803136283    5.2134214599    3.4438898463
   9.5051403779    5.8172740691    4.1631887692
   8.3385860364   15.2629371376   17.9195535498
   9.2464583262    7.9730303082   11.0519548217
  12.8862048312    8.2298915582    3.7851218263
   8.4096859415   18.5445742521   12.3917935092
  -0.3700165344   12.9055174471    3.9752550970
  14.4890904531    5.7275926019    5.9506365323
   7.8016870056    8.2035400753   10.6176019666
  13.9574997723    9.7650925317    2.2586762293
  12.1183048573    5.5021034345    1.6021165433
   2.3201280360   14.5306351050    6.2955529726
  13.2859954576    7.6272543179    5.1131743995
  17.3534308681    6.7825038008    3.0033187214
   8.9744800601   17.7132627924   14.5282774922
   8.7997974839   13.0126111876   18.3013477733
  15.4644424026    7.5697917332   14.4021587133
  16.7370543747    7.4925479267   13.5942836207
  16.6906094900    5.9426045699    1.9972951325
  15.0958578352    2.7519497912   11.5347056700
   8.3347416145   11.8226441986   19.0660329988
  15.3821198865    4.2646908489   11.3428104602
  10.4153807847   18.1025221438   14.7138787136
  15.2411430139    4.7612662065    9.7970048475
  -1.6030598690    8.8308771878   12.8400439507
  10.1736606264   19.3596590420    7.3526677440
   2.5498802843    9.8839423014   15.9733949520
  -2.1508268850   10.8693830744   19.0954159007
   0.7045270966   12.8280616262   15.5083373652
  16.4237838854   12.7804115265    0.2413160695
   4.7427271584   10.2819217856    6.7636396046
   5.4754531998    9.3876184166    4.2049755993
  10.0343616353   16.9560713883    5.0169291947
   8.9477002458   17.7586875205    5.7695894411
   1.4029497998   11.8999068622   16.3885253491
   2.1545534276    0.2682883874   12.8270016042
   0.7795037479    0.5887711571   12.1416058512
   0.8988372621   18.0824223870   12.6143840354
   0.8071549668    0.6009995104    9.6356731374
   9.6665399108   10.4373648706    1.2587490077
   2.3496430651    9.9352015476    6.5584297580
   6.0603292942    9.6869306268    6.4743055861
  14.4474466963   -0.0740216780   14.9535355792
  -0.9407869390    8.0353608145   18.3318004873
  16.9840410162    4.0721526809    0.6449293835
  -1.5155557898   12.0217069432   15.7327070180
  -0.7133223941   10.2063009099   19.4244649861
   9.6641585135   16.7702034321    2.6466806514
   9.0972784656    5.8504970163   13.7004673355
   6.7589341074    1.8681055462   16.7259327084
   9.1226752520    5.0690195944   18.9035821979
   8.9998109740    3.4756560034   12.9806792326
   7.2746185988    1.0313418511   18.6642242674
   9.5287133571    3.7333696278    0.8155262301
   5.7793760655    2.4141583778   18.5335395767
   6.9481203823    4.6722534952   19.1312469096
   8.1601993692    1.5830953847   13.8527519966
  11.5442918544    3.2769434464   12.7315482610
   9.5794835540    1.4736783296   12.1478092207
  12.6012793988    2.9244032799   14.7220429739
   4.5111899521    6.9632441294   15.3293979811
   5.2672375188    4.9765069307   14.9843208950
  11.0767368200    4.5252746218   14.4558553557
   5.8404305990    6.5207284878   13.6511170632
   3.0575591213    3.6867433094   13.1584486036
   8.7633609103   18.5436301413   18.1953667514
   2.5043770483    5.8497234645   13.3449271236
  11.4707153096    7.1002523081   10.1593097971
   0.8090304145    4.9668004861    9.5637486422
   7.5556000230    8.3271120506   14.4966264982
   8.1431158913    8.3956309711   16.6041308444
   1.1871872043    4.3633446277   14.2855222234
  10.1202122001    8.4488501576    8.8532848087
  10.9182993456   19.6019957413    0.5284190104
  13.7491947303    1.9256784289   18.1212790073
  10.7708671179   19.1311861075   18.0912139994
   2.7648917743    4.0938352255   10.3191776386
   9.7345285527    6.3168011534    9.2239369320
   7.0979498397    8.6855244516   11.6653475247
  13.9997106724    2.6538171574    0.5840115886
  12.1863609315    3.4369629637   18.1024836436
   6.1955511719    9.0057101431   15.9701517189
   2.3289894991    6.2142539504   10.5721315548
   7.1356325235    7.1909707825   10.1571207443
  15.3801282230    8.7074425724   15.2126966306
   7.8820285171    9.2203375888    9.7490084164
  13.8405253992    2.3469048494   11.4214648108
  14.3994684966    7.5733055233   13.5499728797
  15.7231400843    3.8498202198    8.9480962198
  15.8411123975    2.0723466299   10.5056870183
  15.7615369310    5.9853039449    9.7286683934
  15.2609141197    6.4672184893   15.2117716564
  -0.6163625932    8.5342695842   11.8402965906
  15.5473902763    2.3520403473   12.7122629580
  -1.1253362917    9.7958054099   13.5437207190
  13.9239372357    4.9614430490    9.4774735157
  15.9349556729    9.3867815289   12.1061157832
  -1.8321009382   19.3710881277   19.0766709872
  14.1893975419   12.3487741019   16.4392041410
   1.5233011351    1.8924015774    4.3014892299
   6.4740971186    6.6093972499    1.8343480225
   6.4591062413   16.6066415272    8.3374738702
   8.9354867198   11.5237145297    7.3952640905
   6.3469010797    6.5699820484    0.1957246555
   4.6065466814    2.1918695206   16.5188432817
  16.8295541379    3.4514502931    5.6296211371
   0.6255787946    0.3999792384    1.8564496118
   1.2241185275   16.1342632499   17.3013900164
  18.1360347685    0.7068578706    0.4839634094
   7.2146845840   14.3246301071    7.5373340562
  -0.1710073061    1.5671609754   18.1931049916
  16.0754557737   18.9417990962    1.0025643253
  13.6123729977   12.5595963245   11.9416145845
  -0.2857088959   18.9367443359   17.2403591835
   7.6186778249   15.2151963257    6.0728484392
  12.3962955159   14.3578770548   15.9370714209
   4.5779168065   11.0533124294    0.4084995364
  15.1635678148   13.0355510066   12.6263131572
   3.6454965439    4.1211085909    0.5510602517
   2.2355147582    5.5474527229   19.1958563376
  12.3683357724   10.5849122192   18.1340271298
  12.0141240283    9.5562938535    6.5462159661
   1.4142787298    1.9415426379    6.1101247250
  -0.6454023109    2.2132995330    6.5302428362
  10.9298040498   13.0860647351    6.6296947258
   2.8407966119    2.0338202516   15.9603896730
   5.5429039569   19.1004206293    9.2830544910
  10.8618713045   14.8796269355   16.0036775711
  12.4722957794   11.6643508902   14.0162160416
   0.6535436750   14.7936329405   18.3281613825
   2.2828250795   14.7960980300   17.6605765664
  11.8621937074   15.2767276141   14.5182014542
   7.0105857251   17.3649067073    9.8446649688
   1.1418296061    2.6449752265   17.8176760161
   2.9777633531   17.0130285930    1.5623243592
  -0.5099026213    7.6054637088    6.7811480818
  13.7601500237   10.8076487867   16.2933758551
   2.0120357777    3.3213815529    5.1944963200
   6.3965883807   15.6219543724    9.9251086351
   8.4634149296   11.5371667134    5.7456705864
   3.3475711440    9.8871898186    1.1132279388
   7.4019057826   13.3738422991    5.9897634093
   2.6200820416    9.5782357914   18.8281967062
   3.6505242101    4.5797519706   18.8378600353
  14.0338469248   14.2442910441   12.2844279003
   1.0487154497   19.7781727376    0.2038821501
   4.1788343058    0.7468805959   15.6194757375
   0.2172533816    3.0705592183   19.2535653031
   1.6238998520    0.6342911034   16.8459457633
  17.6424103151    1.5430203742    3.6684273358
  16.7416118827    2.0926757441    2.0987456750
  11.5842799422    9.8949855242   16.4944278851
   4.2222989955    7.8633625969    2.0535276709
   4.1767424352    7.6486391820    0.2510254781
   0.7914510537    6.8217836921    5.9463465712
   0.9136455983    4.2166981315    6.7624897015
   1.5311887834   16.7387827588    0.5672669529
  12.1190293720   11.4196675910    6.9346465057
   4.5066870855   19.0652670385   11.4384191605
  11.1870577675   10.2537740119    7.8867741881
  10.6942698318   10.9038060573   17.6976407215
  10.0629121328   13.3460424602    5.1451949111
  13.9426234186   11.0121595695   14.0001761456
   4.2175960986   18.3776080378    8.5859772161
   7.6602481612   14.0087961966    3.9696312511
  -0.4146496614    3.9619697682    7.9362900870
   0.6547048213    6.5084493211    7.6248188411
   6.5392634308   15.0579342131    2.0761225770
   6.8796266307    1.6257283054   11.5302688732
   1.7124507768   14.0383493366    1.1456879551
  13.4792425793   17.3783732077   17.4810704068
  14.3046279478   15.9286692649   16.7468865227
   4.8098586455   14.6102683799   19.1163258222
  15.8552848572   14.7164897293   12.3989304747
   8.5875824176   12.6472151869    3.7614905271
   5.1431398331    2.0817897751   11.3792521594
   3.1534955882   18.1410058955   10.8635970648
   4.2821547831   11.8579838279   17.3509918826
  -1.3817482840   14.0313050767   11.6641574725
  14.8118351896    0.5831657094    2.6435042454
  14.9838815511    1.7614520929    4.0197259869
   4.9802559815   17.0244176782    3.0842673861
   6.0103130420    0.3588767452    7.5382330084
   4.0781426390   18.9608325273    2.2139270273
   1.5616152642   15.4015681951    2.4438440880
   6.8633851242    1.6039589406    3.8419717877
   3.7694612331    2.2219519373    2.2476781426
  -2.2729049412   17.3722325999   12.2797521022
   2.2048184302   13.2803067360    3.2845093118
   3.1876908574   12.5472580962    2.0471227634
   6.7869982046   12.4738139976    3.8541231939
  13.1641694365   14.2791454525   18.0268407850
   5.7141265945    0.6786304121   12.3566694922
  14.2003193232   15.3238559916   18.8642248283
   6.0141230332   12.0512228647   17.2925943022
  11.8274138540   13.9260355174    7.7759535303
  14.5745842347   16.0521068046   11.0866765369
   5.5200845832   13.5331941949    1.7842304167
   2.4767109862   15.5863945939   11.5607778790
   4.3099546484   16.8641566730    4.7287129914
   4.0201584027   15.0063595622   11.8570301346
  13.6420500363   13.8828326258    8.3317397261
   5.4334060056    2.9030819176    1.9083924238
  -1.2144872175   15.2434070000   12.7891827786
   6.5347469611   14.1296829511   19.3541231251
   4.0073113073   13.1621492166    3.5516041748
   6.8974246470    0.1143066788    6.0270488856
   5.0336314233    0.2556637906    5.9299311759
   4.9985004007   13.4998344649   17.2407125936
   7.8577179799    3.7700533042   17.0837247465
  12.6044915278   18.6691655296   12.6228410452
   3.2489601597   14.6857078047   15.4077194523
   4.6940047599   14.5450443727   14.3907493583
  10.2878002370   14.5293258073    9.1861217030
   3.5611804629   16.7885858177   12.4736543064
   6.0197828682   17.4078769805    4.5915619010
   5.7758680902   19.8101187778    2.9483234306
  -1.6161017303   17.9034153746   10.6025675970
  14.0367322975   18.3813732943    2.9640544467
   7.0224636055    1.5825475066    2.0721925363
  12.3749926753   17.9072935621    3.1081238348
  13.4289123089   17.3881477307    4.5307168900
   4.5759254532    2.9982355125    3.4642673494
  12.9052350180   15.4822007010    8.0772215006
  14.7532888680   17.1755237807    9.6121191218
  10.8594159401   14.3512290077   12.1156441286
   1.3869183348   18.5084633835    9.1895988045
   1.4335315343   13.1491608203   12.4264917330
  12.8943283073   12.4869287811    5.4846351696
  14.2229470376   11.9616458330    4.5428655973
  12.0768489115   17.8488449592   11.0937179409
  13.0005313495   16.4161650936    1.7014262720
  14.7154635182   16.1869341487    1.2919748540
   0.3290635218   12.3178217058   11.2760724461
  12.8955834548   17.0007928769   12.4650192787
   2.0426309968   11.7658198785   11.5282336340
  13.1046702378   13.2318154692    3.8641347388
   3.9992893446    2.1268680806    6.1478645345
  11.1019877073   15.8758271950   10.0318435645
  -1.3455750033   14.4626597884    7.8600785179
   9.1151411684   11.1682827278   10.3019436215
   4.6630183429    2.7907643041    7.6531452626
  13.7939165529   17.6172971902    0.8126171653
   5.2572779927    3.9674606420    4.9866850449
   5.7215567034    4.5845594729    6.6508725200
  16.0329156526   12.4870517567    7.2224388716
   5.8991872043   18.6811054816   13.2055492458
   0.6472361560   19.5517743087    7.8761624079
   1.7799279772   18.2055221856    7.6716326179
   9.2479095666   14.7634218556   11.1161276495
   5.0185255808   16.4013815979   16.0608695329
   3.6407074347   17.2473224584   15.5443020912
  -0.0469494503   13.2891718386    7.6167584346
  -0.6035005089   11.3991880885    6.8223761027
  10.9449069632    1.3174602782   14.5092612068
  14.5182367833   14.5298195521    3.3072182750
   5.8289726662   18.9447295975   14.8831535634
  10.1436467524   12.3294937695    9.1638072048
  16.1374539534   11.3778281668    4.7953638920
   4.1955208730   19.0964552977   14.1512646655
  -0.5931047403   18.9441157061    5.9716631256
  -1.9622424266   17.8731730190    5.6810157039
   8.4956710135   12.8209366869    9.6321340104
   2.4447013049   11.7699229775    9.3106716199
  -0.0678589387   14.1845260721    9.1288912607
  14.8628597047   15.6006328338    4.5050205610
   3.6792310601   12.6742719138   10.2621382202
   0.8460556306   16.8661947409    6.4428553322
  10.7752149379    1.1465622376   19.1680057216
  15.4941812942   11.3271274443    8.5132028667
  -0.7105816140   15.9538505389    6.9523402724
  15.6771968802    9.6453796908    4.7097730685
   2.8809658267    6.5849361877    6.4572968669
   8.7417091657    8.7571598532    5.1347084273
   4.0121655254    6.3112934174    4.8551774238
  -0.8446454454   10.2386342013    8.1275629342
  -1.6747217694   14.7779012159    5.2045695031
   1.1440213558    6.2522144705    3.5446580098
  -1.2728923455   10.0189537435    4.5691521561
   0.7480303039   18.1514717911    2.8666150981
   1.2897180780   18.6649237556    4.4894948392
   3.3119538980   14.7242571630    8.5187035142
   1.6579372701    6.2110781885    1.7680057533
  -1.6075547736   15.1844588862    3.4927976583
   4.0981177744   13.2479929187    7.9987823572
  11.5909208237    5.3276476358    4.1940076132
   6.2828597423    6.3264595146   16.8895985380
   4.6952954492    6.4619517236    6.6062956578
   1.8365395232    7.7205674924    2.7197246064
   7.8687668393    7.5311934561    4.4357692690
   8.2802921113   16.1841112569   18.4543502487
  10.5779723723    4.2033786403    3.1287475402
   8.4411235586    7.1934896433    6.1380758127
   0.6463743628    3.6127217418   11.5701408567
   8.0930709576   19.3751328969   13.0090802462
  12.0554661522    8.8897089951    3.9938392517
   7.5435888439   14.9275931263   17.1927058598
  13.4807869942    5.3071914105    6.2820050432
  12.5353358860    7.4429135209    3.1177246159
   9.4681035447   18.8721893825   12.0768518794
  -0.2004087164   19.3964728834    3.7419891105
  14.6647761030    9.5537305568    1.3988956114
  12.9085486090    5.3310184448    2.3406889796
   8.7170006513    5.7847881650    3.3632099904
  -0.1271292314   12.8062141056    5.0437178423
  14.2696636419   10.7693395929    2.5518692451
  12.0527673067    4.5080393666    1.1341426214
   9.2179101877   15.3166357825   17.1889124461
   9.1904405614    5.1873393389    4.9964687095
   7.7023919880   18.5186505787   11.6233629711
   2.4416314357   15.4132015215    6.8900822009
   0.1877008351   13.7223540460    3.4644256050
   9.6941580299    8.8897326371   11.3695851535
  15.0465987763    6.2579270877    6.7030410950
  -0.3224656969   11.9562589608    3.3881260572
  16.7606564315    7.7107513860    3.3046180158
   3.1598481560   14.5896040384    5.5837039781
  14.9725216030    4.9224059563    5.4999028032
   8.2278785453   18.4914906509   14.9274277146
  -0.9336141231    6.3859845836    3.9578146308
  12.3877867995    7.1353299795    5.4538956474
  12.9943346702    9.8817272881    1.7855187412
   1.4427553483   14.5896606498    5.6318343054
  13.6585662319    8.2417592555    6.0192723475
  12.4835243709    6.2898563305    0.8927776035
   8.2946655269   12.7743163456   17.3448483482
  -1.0544414645    7.3768978379   14.3182165858
   8.3617083144   10.9555694008   18.3413908485
   8.8428060657   16.8167067907   15.1253208837
   9.9094354770   12.9476786233   17.9868175137
  15.6322463687    5.4958993892    2.2450250634
  11.0361953398   17.4551010893   14.0955500660
  16.3846831295    6.5818815583    1.0921712007
   7.2539119725   12.0637226081   19.3646809974
   1.8032146449    9.5228141099   16.7041792249
   0.3471194482   13.7880751028   15.9540264520
  10.9136154703   17.5546437559    4.6036442511
  12.1460115265    0.4464004080    7.5950731422
   4.4383536843   10.4050162779    7.8450963316
   6.0221721358    9.2821296827    3.2187946295
  10.5733702582   19.0796254106    8.3008115561
  16.9284171274   10.4088382647    0.0159966153
  -2.2998178486   10.9208947961   18.0151708369
  14.5696726426    4.6804347606   12.0073661846
  16.2692024113   13.6903387034    0.9017407017
  14.9264666855   12.7979969061   18.7203203465
  -2.4013444317   19.5507490354   12.1494885624
   2.7156727930    1.2700111266   12.9931229203
   0.2641821365   17.6107702125   13.3262777553
  -0.1849382571   -0.0142452891    9.5711981711
  10.6551748399   18.0049806815   15.8118447095
   4.5925092025   11.2255118228    6.2538634024
  -2.3980005586   12.0063547781   15.0485503429
   9.0698106091   16.1689721682    1.9679538243
   2.2059787733    9.9646807314    7.6331829621
   2.4751328673    9.3067044407   15.1047342502
   8.6266006966   18.5465069546    5.1373881381
  -0.4858399240    7.6899035775   17.4547194485
   1.4539048761   13.1228709870   14.6956239944
  10.4203431092    9.9327536205    1.9811907369
   2.0387994483   10.8555437857    5.9995986100
  12.7536116369   19.2745386458   14.4831352614
   4.9593632120    8.3678743848    4.4583789113
   1.9336645228   12.6202514559   17.1426101405
   1.8026220469   18.4190861639   13.1815418783
   1.7207816577   -0.0107040760    9.3584879607
  10.4906778375   16.2788926219    5.8294938884
  -1.3225414223   11.0953499560   16.4194859483
  15.9386067015    3.7091310012    1.0079376825
   3.6130723609    9.7678233000   16.2261373220
  15.7292992761   12.0217059201    0.6793705351
  11.0118607529   19.5048232373    6.7368536502
   4.6175957257   10.0246342067    4.1306041271
   9.4397008028    9.6217934222    0.4236186651
  15.7603021306    4.6227020073   19.2905227088
   6.7871036243   10.3207339731    7.0086778311
  14.6115857024    1.0085536355   14.6987181272
  -1.9419599378    8.3312358904   18.0701923923
   9.2363705770   17.7745545970    2.5980844784
  -0.9643895270    7.2845551582   19.2068819885
  -0.5554924425   19.6401672073   13.8833527954
   0.3232389379    1.3566718975   12.7732341956
   1.1821954743   17.3157986071   11.9299941489
   0.6658729013    1.4093705479    8.9042000275
   0.4599674259   10.0684156383    0.9714011792
  17.6422524778    3.3161100057    0.0645537528
  -0.0083204699   11.0411511999   19.4841091536
   0.7191383509   11.2184223569   16.8691258106
  12.0017293647   19.4154461195   16.0545025592
  10.7537105106   16.9558752971    2.2562802307
   1.7251856046    9.2072370109    6.0021566473
   8.1637564959   17.0717710801    6.0181183087
   6.0671329991    8.6029597222    6.7597621239
   8.7702381593   10.5725062423    1.7912791039
  -1.6579975733   12.8933915478   16.3831118208
   5.3556628946    9.1373622557    0.6995660784
   9.1518704366   14.0820026822    6.9015413791
  13.6459295300   13.1874374930   13.9803330187
   3.4286153648    0.7742940280   17.4970258551
   1.3237984878    1.4366226549   19.4805158606
  -0.8276449241    5.5060691537    6.5661062972
   4.7648900552    5.5472869636    1.2724791526
   0.0108702512    2.9945913810    4.8094750220
  10.4397044362   10.7420448687    5.9478268009
   5.0412723345   17.1714874229    9.8517090365
  17.1325706598    0.0886052213    2.2093983110
  12.1937040466   11.9447312128   16.6181373641
   2.1505538065   16.0291750461   19.2608986264
  12.3674542774   16.4510865051   16.2053060942
   5.6500877454    0.3996424873   10.3412285433
   3.4217183226   14.6217133683    2.3087864602
   7.7424390685   13.2202352350    2.0750023958
  13.1356627386   19.5205079961    4.4148704320
   5.1137704101   12.6307858560   19.1381410351
  -1.7211593191   15.8602859211   10.8855522869
   4.4571170920   18.8438266788    4.2451273529
   5.1713167244    1.0224452540    2.8650288726
  12.0488938341   15.5716655139   19.2777642666
   6.0649318033    2.0351041034    6.3021453857
  14.1068053955   18.2759629596   11.3603484289
  12.3327726898   14.4326141245    9.7738812938
   2.8984798355   15.1435327993   13.6153225532
   5.1215770109   17.1199627684   14.0846223242
   9.6473922044    2.5487635801   15.6361050784
   9.2837008981    2.4984274925   18.0062410191
  -0.1045072611   17.5457663403    8.1593903427
   9.9965263551   12.7714438526   11.2220155358
  14.4777147930   13.8668482381    5.2836152063
   1.8955423583   13.4970079418   10.4629216883
  -1.4857817564   12.5310032471    9.0268473209
  16.3640660590    9.9543564637    6.5205279762
  11.1362496266    1.2740042806   17.0704490041
   3.6246685580    4.7466712880    6.1995525648
  -0.3227081550   17.4582707802    4.4664221859
   9.8566290708    7.1428148548    4.4779596889
   7.7504356154    5.5806103090   15.6871131443
  -1.7497484563   13.1835134672    3.8288073353
   2.2235434179   13.5403851434    7.2574003205
   9.2105936722    7.0725795950   12.0887570618
  14.1385080233    6.4924262297    4.8462828892
  -0.0555954392    7.2976978193    2.3131246056
   0.0696706575    5.6435382819   12.2207626753
   8.5195298102   14.2677815089   18.8318938201
  10.9058958109    5.9584459336    2.1701486846
  14.0592702856    8.8404838433    3.2136854454
   8.6645126921   17.3146522025   13.1297849615
  16.6845809974    4.4919026780   11.5956442840
  16.5082641072    6.4144536978   12.7354378776
  17.6215848071    4.8439533727    1.6880700030
   2.2201730321   11.1840326585   15.5965833335
  10.6269255192   19.4681441256   14.4693198207
   6.4100332863    9.8766251704    5.1431731966
   9.2971857458   18.2832186500    7.1348024593
  10.1925577405   11.6248075631    0.7183460767
  -0.1134482841    9.2095310211   18.6039261406
   0.2314735286   19.2127859183   11.9228895532
   0.9247848278    1.3326384779   10.9282876664
  -0.9035413640   12.2299340901    0.2125810776
   9.4828595234   16.1530469717    3.9148160452
  -0.2985894793   12.2011404074   14.7683088728
   3.6634967186    9.4306924850    6.2500552341
