B2 C140 Ca1 F48 H298 O66 
1.0
1.8840655658590112e+01 7.1716299850358900e-16 -1.3691225118280505e-16 
-2.6303643704241866e+00 1.9727396727271646e+01 3.8017982668510702e-18 
-9.3463757577382756e-01 -6.4824089979519495e-02 1.9286095890485711e+01 
B C Ca F H O 
2 140 1 48 298 66 
Cartesian
  10.3197692737    2.3163265893   16.6390693146
  -1.1632661372    5.3734055530   12.0122506736
  18.5276678516    0.3205617266    1.1511072946
   8.0056400725   14.4370839977    7.1538047246
   5.7288633760    6.7494886610    0.8439672251
  14.1045023844   13.2211537161   12.3848371612
   3.9987902501    1.7058744950   15.9791678566
   2.0635033109    0.0318939673   18.7063932613
   1.2267951291    2.5898024486    4.3813276129
   2.8608923942    0.1044287601   17.4278482025
  -0.4488308802    3.2573097129    5.9287030448
   4.3134898663    4.8442224946    0.5647112434
   2.1734254880   15.7806715734   17.7531434048
   1.1348889979    2.2366981769   18.4746931268
  12.1649490967   15.1724393588   15.5756629286
   4.6288615411   10.1126987070    0.1482936813
   6.3750782533   16.4084122959    9.1328871710
  14.0216643718   11.5682753408   15.8592105696
   9.3407173825   11.5818274782    6.5875960402
   9.9227188228   13.0131424543    6.5079190146
  13.9061534420   11.6210950435   14.2893375809
   4.5170439347    7.7660080681    0.6545591205
  11.9908003182   10.7171082176   16.9314126230
  11.3080122438   10.1845427375    6.5561542294
   0.0097964357    4.3842044851    6.8253020224
  -0.1138708333    6.8785204733    6.7693740543
   4.8075257113   18.1154678430    9.3876914228
   2.6098759930   16.2387875433    0.7068198937
  17.0938098323    0.8482924672    2.9691349439
   3.8909488806   18.6859273028   10.3819010159
   2.3616657843   15.1690313174    1.7505933464
  13.5763572634   16.1518627597   17.1851955534
   5.9501706927    1.3622725505   11.0379402490
   7.6457674809   12.8620978665    3.7247688011
  15.7701572457    0.6198820924    3.4570018048
   6.2781556316   13.6948127980    1.9282796717
   6.3276663942   14.1883328018    0.4383381758
  -1.0977444444   15.0566208080   11.4823367971
   3.3942809654   13.6409661051    3.2061811075
  13.8025902929   14.9771814188   18.0361248698
   5.3083712249   13.2241216959   17.4888751830
   4.6890386178   17.3256392892    4.2641097356
   4.7357932406   19.5668326314    3.3847513257
   6.6710143530    1.2028772360    3.4732974135
   4.9040133795    2.1955396694    2.3823740122
  -2.0621637874   17.1347606503   10.9479017204
   6.3352684387    0.8567262636    7.0625511896
  13.0716285887   14.1121259353    8.5093577871
  15.2144962501   17.1733125504   10.6754809692
   3.7999044940   15.4719267405   12.0111128668
  13.5974530099   18.0618245086    4.0740861413
   7.1857336600    2.2573900204   17.7899150589
   8.4277589419    4.4124964723   18.7075808910
   8.3431852699    3.2623589362   17.6573588756
   3.9873752184   15.4209036186   14.3640273689
  13.0954257029   17.8717398534   11.3754873685
  11.3732134215   15.2706440617    9.9260946805
   9.4899366672    2.3413540648   13.1072256540
  14.0898333218   15.9010788044    0.8953615209
  13.9058583104   12.7894749053    5.4072341624
  10.6826751674   14.6081604522   11.1757371838
   4.8397716602    2.7065009446    6.5693714143
   1.4070859870   12.6267184775   11.6502122420
   4.1303751813   16.8925836764   14.6814939142
   1.2195216415   18.2288182856    7.8837444831
  10.5405474718    2.3146367006   14.2119315669
  11.7494172471    3.1615728180   13.9433835346
   4.9848566080    4.0441231603    5.9576043373
   5.4308641562   18.7829133942   14.1457588809
  10.0032382079   12.6772582906   10.0392482093
  -0.6153001465   13.2137341140    8.5048854177
  16.7234136265   11.4904938585    7.8718689034
  -0.6698919924   16.9608678715    6.7096383813
  -1.0814619900   10.7382166630    7.1296503520
   6.0379113389    6.1513550158   14.6481375393
  15.0699497477   14.4593673827    4.1605394042
  -0.8005150055   18.0344422483    5.6259134010
   2.8218458893   12.6375472139    9.5596472159
  16.7385593931    9.8658550145    5.0667437806
   3.9913556176    6.1487325515    6.2669342531
  11.7366847763    1.1371890282   18.1623000988
   2.2905709066    4.6422853490   13.1811647008
   9.7697772098   19.4228443210   18.4092925771
  16.5857045580   14.3928156714    3.9042637065
   7.1583404643    6.4480073492   15.6290828385
   3.2782138234   13.6468169799    8.5754566772
   8.9623785015    7.5315872819    5.4124710142
   0.3317507384   18.6039895112    3.6266376106
   7.6431075065    7.8950233166   15.6081711434
  10.3538455101    7.3131678714    9.7942121700
   1.2406336763    6.2032795072    2.6055671623
  12.7517161277    2.2200646059   18.4754065795
   1.9875818305    4.9981945733   10.6118772928
   1.2474939114    4.6767082555   11.9210362666
  10.7877720803    4.8715145958    3.5429561144
   9.5958564410    5.7021520047    4.2042093369
   8.8766748222   15.5871576035   18.0797368481
   9.4410861689    7.7963567482   11.0003231451
  13.4599070655    8.1781437903    3.4750609986
   8.7963187486   17.9626195708   12.2506164602
  -0.4682991540   12.8868198542    3.2055617003
  14.5741049655    5.2850509015    5.5001257890
   8.0586366417    8.0318658772   10.5942184920
  14.6446490681    9.7356816745    2.0434708482
  12.2880130728    5.3320432279    1.7578783270
   2.5359704726   14.7066971371    6.5721773713
  13.6404054886    7.3481193999    4.7227309325
  17.7803838537    6.5806027324    2.8092947018
   9.0357355582   17.5775070439   14.5769624882
   9.1679073672   13.2048025756   17.9493822227
  15.8462970916    7.5681717932   14.2815337943
  17.0809558395    7.4045138681   13.2992205809
  17.0679632950    5.6868085555    1.7739200671
  15.3834639393    2.7747348688   11.2103405209
   8.7865695850   11.8487988987   18.5673892028
  15.9064690929    4.2407714648   11.0380753154
  10.5253877649   17.6622250016   14.3699191367
  15.4124808300    4.6799731909    9.6032685202
  -1.3919341850    8.6778712720   12.5586895216
  10.6779720317   18.8606174589    6.9936301509
   2.6781504690   10.0675443887   15.4349637638
  -1.8464500288   10.9224380220   18.9983291817
   0.6192562611   12.9716744933   15.2191993893
  16.7083639463   12.8515400979    0.0128931952
   4.7335025290   10.2256208174    6.5567259673
   5.9401016402    9.1982889429    3.7557929577
   9.9885986440   16.5724153316    4.7648140909
   9.1759647142   17.7162801338    5.4105195737
   1.6170805553   12.1670881918   16.1060220793
   2.5124446011    0.5707644150   12.9671333194
   1.0905017423    0.9056950865   12.5592987482
   0.8983930239   18.1885818922   12.6718648941
   0.5723902397    1.0556930950   10.2352960291
   9.9587473383   10.8421448789    1.3574680605
   2.3875931713    9.8598539731    6.4127354871
   6.0226771835    9.6232288610    6.1487851645
  12.1262397835   19.3826753210   14.7229395550
  -1.1598348128    8.3095089021   18.4203415900
  17.2914543163    3.9467989649    0.1117186728
  -1.5306754617   11.8172932430   15.1271487596
   0.4178071310   10.2948823469    0.1199272854
   9.7537255251   17.1311502830    2.5206877291
   9.4453715982    5.8147652440   13.5952943798
   6.8434733305    1.6733816146   16.6257261990
   9.5843202968    5.2118554310   18.6331397865
   9.1364137522    3.6092933631   12.5386806050
   7.4493919172    1.3260564425   18.7699549740
   9.3818328839    4.0801516369    0.6619319680
   6.1927209426    2.9131754562   18.2817395316
   7.3749935903    5.3018122303   18.7374529686
   8.3747792557    1.7608940125   13.4868953031
  12.2106762609    3.1702393299   12.7092761374
   9.9720194913    1.6800694170   12.0220925172
  12.7945312817    2.8837013702   14.7157587674
   4.9554356063    6.9012035990   14.8953893110
   5.7245797496    4.8200134004   14.8317274602
  11.3914339814    4.5811583879   14.2218793680
   6.4400095729    6.3134207983   13.3605985473
   3.2566246169    3.8194746671   12.8382399248
   8.9719928206   18.4383571887   18.0297539256
   2.8352075705    5.8565471850   13.3560501828
  11.4645056257    6.8330824880   10.3916652311
   1.2062036013    5.0359052641    9.5311486369
   8.1594790419    8.1138053076   14.2565083925
   8.6211414506    8.1830447735   16.4075910711
   1.6766269740    4.2605908394   14.4041560066
  10.7010347399    8.2694094793    8.9241032161
  11.0721719024   19.2407594101    0.4221673857
  13.9228495763    2.2930576864   17.7882706064
  10.9276285004   19.2127712638   17.6785419987
   2.7404218552    3.8828862202   10.3511067669
   9.7023420234    6.3923604360    9.0657970627
   7.2785851899    8.3385015362   11.6774056337
  13.8799957117    2.2269617494    0.4828614784
  12.3032375960    3.6287392837   18.1380199836
   6.8463471046    8.9516461781   15.7211045709
   2.6307985282    6.1914856180   10.5318838981
   7.5894210670    6.8599985698    9.9289084306
  15.7476961192    8.6573946431   15.0027072362
   7.8962653420    9.0519505504    9.6638077489
  14.0650437330    2.7154121418   11.1131291934
  14.6413827878    7.5441181980   13.4913989376
  16.0415748294    3.9162061947    8.6508837072
  15.9013405155    1.8211768372   10.4679123906
  15.7572372989    5.9204080401    9.2666142308
  15.7048867760    6.5378477575   15.1548484691
  -0.3251732909    8.5091904396   11.6600709867
  15.6613740556    2.5482282030   12.5729371423
  -0.9026623979    9.6730917752   13.3911141875
  14.0454771118    4.6246199851    9.6034635799
  16.2954529946    9.1121347806   11.8599362174
  -1.4707956655   19.1981724830   18.5962725355
  14.6353029097   12.4019835922   16.0698405607
   1.3673942439    2.5211206130    3.2978665461
   6.2446162465    7.2436227835    1.6652583260
   6.3861427146   16.2719877756    8.0857814178
   9.4694655439   11.2716310253    7.6420386096
   5.0739397625    6.3668581373   19.1546983058
   4.3779554880    2.6161352566   16.1593994492
  17.2866177805    3.1379472376    5.9205308835
   0.3348315804    1.0378715933    1.6662142969
   2.0371148038   16.7888073889   17.4376282466
  18.3884668110    0.8239732864    0.2476752890
   8.0907632879   15.5071089070    7.4788001878
   0.2941424580    1.7777713238   17.8210264534
  -2.4257768923   19.1167097930    0.9696122312
  13.1790716478   12.8949698969   11.8682785175
   0.8643054151   18.8981691595   17.5945452398
   7.8345680605   14.3077678138    6.0647471711
  13.1074984861   14.8032557412   15.2677846407
   4.3013709058   10.8402791359   18.9030242251
  14.8702350115   12.6014333180   11.9041855133
   4.0120190039    3.8585437662    0.9113577999
   3.3240875587    5.3914863604    0.5875837979
  12.3322255434   10.1709081019   17.8181899524
  12.1678705212    9.7797754619    5.9921421616
   1.1660470154    1.6279384578    4.7724786402
  -0.0725800512    2.3383285382    6.4260358849
  11.0158892319   12.9626319338    6.6982881942
   3.1167977395    1.7463714615   15.3239895835
   5.7214301013   18.6456960747    9.1799340363
  11.4639630698   14.2984797600   15.9464245630
  12.8191923224   11.2352653910   14.1254853007
   1.3137656432   15.1324840899   17.4300952631
   3.1006019484   15.4278576443   17.2938776429
  11.5898003049   15.4421073272   14.7166966683
   7.1421615206   17.0936777834    9.4543267604
   1.8926429298    2.6645795347   17.8964573684
   3.1774553201   17.0482667929    1.2350631584
  -0.7403726991    7.6408173063    6.3325231136
  14.3710927710   10.5654226287   16.2241275399
   2.0713951348    3.0938401870    4.9622966335
   6.7504945741   15.5202636354    9.6408756792
   8.2855534700   11.3031073792    6.3303825194
   4.3018177980   10.5267127080    1.0693280066
   7.1453456625   13.9946556590    7.7312572870
   2.7411045246   10.0413032349   18.8554917503
   3.6691896280    4.7113328380   18.8236840181
  14.2606705723   14.3395713871   12.2890183473
   1.0494925270   19.3543108005    0.2169325801
   4.6833310617    1.0232781717   15.5779285933
   0.6397097801    2.8997996888   19.1684174222
  -0.5164760924   19.6128521191   16.5319968385
  17.7548821562    0.6846997633    3.8420828892
  17.2016355202    1.9651760943    2.6976741009
  11.9029677308   10.0360729641   16.0554830298
   3.9220532559    7.9061807263    1.6149305541
   2.7421166180    7.3081832038   19.2082004774
   0.9416376688    6.8686047993    6.3176802648
   1.0590112819    4.5741582057    6.7095202455
   1.6763988364   16.6069168336    0.2538576362
  11.7751723690   10.9685589793    7.1649961846
   4.4066724189   18.7024338868   11.3529335651
  11.1063415215    9.3387997679    7.2338012361
  11.0660540668   11.2130487511   17.1664023664
   9.8431086059   13.4158060609    5.5024931167
  14.7532669446   11.0131890241   13.9773634835
   4.2821597225   18.2763095832    8.3475761642
   8.0288186144   13.8795675819    4.1943191832
   0.0355239683    3.9071018532    7.8425838036
   0.0668386469    7.2014615179    7.8150170129
   6.1535271268   14.6086188672    2.7164832971
   6.9113907564    1.6257424705   11.5742239508
   2.0598126195   14.2731068666    1.1966519797
  13.7580308245   17.0465336612   17.7891343487
  14.4018214275   16.0655895281   16.4794709926
   5.5582878912   14.9316377840    0.3233166432
  -1.8649213790   14.9185930775   12.3016835305
   8.4947672915   12.1250338206    3.9685670050
   5.5643178437    2.3336550104   10.6058453889
   3.0131767034   18.1074378675   10.6585865318
   4.3879169566   13.4175273512   17.0578425370
  -0.8684684278   14.0666805713   11.0617760209
  15.0956021066    0.4802260023    2.5504135318
  15.3264303129    1.5684853811    3.9970741469
   5.6491725730   17.1433830229    3.7797423043
   5.9284077774    0.9864765289    8.1215301438
   4.3838667921   19.0654908253    2.4778151119
   1.4259376549   15.5370345925    2.4203240546
   6.8854960122    1.6705476294    4.4972053912
   3.8351117762    2.3513111930    2.2198156970
  -1.7491609490   17.2969136991   11.9984342506
   2.3641450034   13.4762116385    3.6741458037
   3.6462613772   12.8254469460    2.5071569164
   6.8003725354   12.4485177611    4.2821958301
  13.5820697699   14.0802454409   17.4038947740
   5.2479734305    1.1633847869   11.8750489006
  14.8058077372   15.2011047430   18.4534685817
   5.8185327250   12.4312826758   16.9030175909
  12.1616691554   13.7662824714    7.9341028902
  14.8400758994   16.1581804782   10.6128855305
   5.5229006875   12.9445932057    2.1231927405
   3.2157281696   14.8123781597   11.3259147142
   3.9524549578   16.8273109586    3.5818090243
   4.9209585892   15.2498386231   12.0559643264
  13.6589746444   13.1717688091    8.7891105808
   5.3671079103    2.2583627592    1.3635208120
  -0.2638580149   15.5426123368   12.0001022022
   7.3130250333   14.5366947770    0.2414016867
   4.1293389997   13.5974204734    4.0655373214
   7.3876748830    0.6096669614    7.0781214614
   3.1748324503   19.6511890810    6.7090622551
   6.0537794973   14.0907327583   17.3729292519
   8.0236219479    3.8145048466   16.7241250073
  12.4662587633   18.6627847446   11.9914940312
   3.4628811366   14.6711613529   15.1879427995
   5.0069135010   15.0108566373   14.2911653241
  10.7896613938   15.1698178036    8.9985470551
   3.7095845121   16.5973415252   11.9337881532
   4.7236738819   16.8059735768    5.3119457865
   5.8474219708   19.6663673115    3.2471313924
  -1.5843318964   17.9603250087   10.4463318441
  14.3678027813   17.7051023659    4.8541758730
   7.1731481787    1.8442805190    2.7249649485
  14.0354542235   18.1094464672    3.0796159935
  12.9893100597   17.1482471779    3.9661449742
   5.1728515381    3.1908303218    2.8791035076
  13.6880512005   14.9084588174    8.0136751438
  15.1585381433   17.6542796405    9.7141647796
  11.0435365443   14.9342115729   12.1984037108
   0.9248363157   19.1416229583    8.4625365535
   1.2446191760   13.4776936400   12.3877537084
  13.8561740827   12.2525155019    6.4809812179
  14.1960491174   12.0288535322    4.6275087836
  12.9129207336   18.1360434088   10.4044969397
  13.4799033339   15.7085246198    1.7348103572
  15.1542714062   15.6971805022    1.3592671458
   0.4069693984   12.1713260722   11.4248476520
  12.6003936447   16.9071973742   11.5442861469
   2.2012861239   11.9605787085   11.9584919441
  12.8724677900   13.2109687644    5.1524381974
   3.8827398249    2.2040465838    6.2012261572
  11.5384022120   16.3657032421   10.0994110828
  -1.0633322262   14.1861571695    8.6729912240
   9.6384348228   11.6406307938   10.3005876532
   4.6334085059    2.7029444112    7.6744521398
  14.0744370648   17.0208196452    0.6629417389
   4.9963213936    3.8813057437    4.8763791677
   5.9220737149    4.5520198986    6.3422581850
  16.2038133504   12.2657190860    7.2172293814
   6.1288115567   19.1561240691   13.3599702037
   1.4344020654   18.5432823387    6.9385881836
   1.9924714226   17.6538406858    8.2602720055
   9.5793617436   14.9141323478   11.2277801975
   4.2522518584   16.8945578323   15.7991964080
   3.1991237993   17.4270245482   14.3691934160
  -0.3960313760   13.1134681312    7.3974981119
  -0.4390155164   11.3621105023    6.5215961129
  11.1327994934    1.2908233208   14.2721630911
  14.5303764423   13.9529718528    3.3688289603
   5.8173250841   19.1153114719   15.1233427534
  10.6041636779   12.5002902049    9.1125702021
  16.9123638328   10.9235774370    4.8071920256
   4.5047495374   19.3915915062   13.9113980570
  -0.3360889410   18.9966756569    6.0577828857
  -1.8426056844   18.2903243612    5.4158530033
   9.0235007714   13.2012023408    9.7713478164
   2.3100197324   11.8703815099    8.9148274121
   0.4262948229   13.2258506700    9.0499461271
  14.8475601163   15.5999623179    4.4004865622
   3.5870936246   12.1232898784   10.1499075168
  -0.2656897505   16.1095421945    6.2620884191
  10.9337711791    1.1690067188   18.8302789344
  16.0367757147   10.6791371257    8.0633841025
  -1.6555234687   16.6333529071    6.9686948189
  15.6889375926    9.5580174182    4.8831875259
   3.3176831929    6.7866999381    7.0031543193
   9.3193450150    8.4442864318    5.9343987329
   3.7420975354    6.4320356522    5.2652102499
  -0.4293271893   10.2084841934    7.8481946045
  -1.6805689619   14.7167048810    4.8334929706
   1.4336926392    6.1359447594    3.6713213378
  17.2634704562    9.2119178954    4.2944168308
   0.3667552076   18.3434767333    2.4973172378
   1.4327065136   18.7995031789    3.9676370138
   3.2390076214   14.5869907814    9.1221592135
   1.0502033697    5.2554937517    2.2385252066
  -1.9924799253   15.2668017503    3.2279507652
   4.3884769850   13.4690880443    8.2208742623
  11.6155316370    4.8139487367    4.2732504305
   6.5488600008    6.4649177576   16.5960168097
   5.0127373225    6.3689179072    6.5397143786
   2.1606778293    6.6040092314    2.2298443780
   8.2568691243    7.7108973233    4.4893557867
   9.4748344203   16.0939638460   18.9049339615
  10.3185559156    3.9267313291    3.2316653724
   8.3239936774    6.9399235066    6.0862775047
   0.8092124291    3.6443286129   11.7717796758
   8.7442839019   19.1050408472   12.3178522881
  12.5896623011    8.9312949023    3.6327212996
   8.0538858784   16.2986350998   17.9752755880
  13.6576636855    4.8035329466    5.8444147211
  12.8490451606    7.6322076935    2.6726144632
   9.7174731116   17.6560895713   11.9425626890
  -0.1363273032   19.5506630103    3.7661629891
  15.2754145913    9.4983752161    1.1137310626
  13.1510430211    5.2849171167    2.4725165023
   8.9170624371    5.9337577931    3.3400823046
   0.1537713924   12.9759774508    4.1325840081
  15.0107176456   10.6485977981    2.4947666850
  12.1425444352    4.3162407468    1.4016571228
   9.5730531554   15.6608980217   17.2383313246
   9.1857295774    5.0346926698    5.0032776492
   8.1231357079   17.5793194829   11.4414013251
   2.3588011169   15.6806226615    7.0861866541
   0.0562703703   13.5248436997    2.5023169878
   9.8505222875    8.8161279202   11.1300281282
  15.0637046567    5.8574274418    6.4224926822
  -0.3602350590   11.8113039632    2.8325924617
  17.1776840489    7.5655779862    2.7168691488
   3.5331688836   14.8784968144    5.9613136855
  15.3471914409    4.5770492141    5.1339485534
   8.7802516892   18.4836980490   15.1749825352
  -0.9138163073    6.1241691270    3.7237832461
  12.6023975484    7.0161405193    5.0632630842
  13.6141918851   10.0115654842    1.7064411672
   1.6416724522   14.6714908333    5.8237995278
  14.0780059164    7.8403082414    5.5372646018
  12.3164821592    5.9781050030    0.7812250014
   9.0002643364   13.1974345435   16.8660367830
  -0.9327906521    7.4307587540   14.0112882886
   9.1847023834   11.0959322086   17.8778409663
   8.6902210965   16.7872756820   15.3183482275
  10.1244936099   13.5004177650   18.2232804983
  16.2665469271    5.3252513759    2.3807186679
  10.8928587841   17.1641142021   13.4562380087
  16.7690129251    6.3883121162    1.0130183673
   7.7157141402   11.7785285983   18.5567063237
   2.0950416653    9.6822896586   16.3285977524
   0.0443913019   13.6139260413   15.8257037957
  11.0188455512   16.9757397728    4.6771636449
  12.8944281966    0.1439395954    6.8957455704
   4.5783569408   10.3403693916    7.6381351567
   6.2392618131    9.6045884457    2.8611139561
  10.9444585268   18.6587116576    8.0312336184
  17.0444049943   10.4051929366    0.1345695245
  -2.0751778978   10.8920581541   17.9749903737
  15.3617069874    4.8132137414   11.8428660230
  16.8782763297   13.9339908058    0.2900382047
  15.2845788942   12.7294770390   18.2613592522
   0.5927012807    0.0147588422   12.4434053154
   3.0240369914    1.5920899506   13.0101762859
   0.2392825803   17.9493262386   13.5374771966
  -0.4459652184    0.6961275652   10.3117958514
  11.0204338461   17.2611480974   15.2376472041
   4.6214860810   11.1542704622    6.0235535461
  16.5473526204   11.5445134681   14.3556549129
   9.4923155636   16.7309668916    1.5265798720
   2.1508042813    9.7971263229    7.4962293891
   2.0542308248    9.7208861796   14.5759575756
   9.1730152520   18.6074640704    4.7904583806
  -1.7220578472    8.5446025102   17.4902711737
   1.1936264017   13.5931950890   14.5703238910
  10.3794181358   11.0289865949    2.3781098996
   2.3182866928   10.9405124829    6.0521540384
  15.2406210585    0.2426556684   13.9803681382
   6.2343611851    8.1719007754    3.8447654683
   2.1693934784   12.9418699210   16.7816134434
   1.8719754282   18.3701885659   13.0162461282
   1.2198086365    0.2494226962    9.8927037432
  10.0142191571   15.7173579266    5.4948434775
  -1.3704222378   11.0084069037   15.7700273529
  16.5377142686    3.1194019384    0.4594159222
   3.6984983722    9.7887109105   15.3678181545
  15.9976119873   12.4240879252    0.7282169754
  11.4622109169   18.6827223737    6.3149743823
   4.8282926530    9.3240552750    3.5645732330
  10.2580646119    9.8983071777    0.9604200775
  15.6032373167    4.5993125345   19.0037133909
   6.7930263427    9.9485875670    6.8563593532
  14.5667331531    0.1534275844   15.6171971844
  -0.8947822916    8.5120297626    0.0272973157
   9.2202558415   18.1149387282    2.7426595595
  -0.7660653534    7.2859653762   18.4286353671
   2.4862293434    0.2066139182   13.9682209596
   0.6641345989    1.4910181664   13.4318433691
   0.9857009394   17.2783534974   11.9401933751
   0.5594733102    1.8955252120    9.5251438524
   0.3866897012    9.8066940944    1.1098180271
  17.0777071214    3.3283216157   18.8090583140
   1.1628962795   11.1424610506    0.0745751591
   1.1632119712   11.4025894769   16.7860871399
  12.5804698194   18.4512197460   14.9528901400
  10.8331387558   17.3399647120    2.3719021411
   1.6800361698    9.1711118457    5.9495085720
   8.0589767288   17.5384445329    5.4445251799
   5.9683667482    8.5463767826    6.2689125437
   8.7608846278   10.8174092897    1.5467758651
  -1.8313757969   12.6526966873   15.7029062481
   5.2288599475    8.8804965205    0.2487979934
   9.3545010859   13.8458208587    7.5030822587
  13.9971568731   12.9441637917   13.8418573503
   3.5603847284    1.3610381571   17.3264762037
   2.5682106709    1.3363946170    0.1015295001
  -0.7218783820    5.5455270563    6.6317664255
   5.3384294414    5.4436099653    1.3533242183
  -0.0597869058    3.2390720842    4.6049541978
  10.2329286130   10.6612484373    5.8129702423
   5.1275972127   16.8466589783    9.7097440213
  14.7167371535   19.7119318394    1.8826933810
  12.7894731056   11.8816362885   16.7555044906
   2.5968638156   15.7866006368   19.0400254278
  12.3325874715   16.2614211944   16.4640597453
   6.2148232582    0.3494242497   10.0114612836
   3.5262396744   14.9303355744    2.5594254535
   7.4371722932   13.0043235590    2.3479176050
  13.0119783701   19.3938450397    4.4715464794
   5.1693829369   12.8999009987   18.8840122623
  -1.6535506497   15.8700460650   10.4674086255
   4.3726062244   18.6937498169    4.5068218639
   5.2636684387    1.1368699897    3.0544403814
  12.8604993339   14.8984200206   19.1291462647
   5.9791270983    2.0164512863    6.1740792762
  14.4999395397   17.7381731003   11.7348672461
  12.6403599636   14.6325030033    9.7308280919
   3.1939476592   15.1090478976   13.2101156992
   5.2484906089   17.4063320760   14.0252677431
  10.0095754582    2.7574848592   15.3788312069
   9.6184952755    2.6148665948   17.7369998377
   0.0166787267   17.3406690017    7.9311954660
  10.8451378721   13.2057978779   11.0487034647
  14.8810151086   13.8116855793    5.3910990717
   1.9605583675   13.4053887870   10.4378691103
  -1.4499152265   12.1732765272    8.9446410770
  17.1860167137    9.6537976785    6.3541672432
  11.2374576611    1.2433134731   16.8746648476
   3.7687417755    4.7583533261    6.3895453093
  -0.3027255735   17.5062301902    4.3136697930
  10.1074658893    6.8984102280    4.8403489869
   8.0122350656    5.3964795476   15.4566920463
  -1.8660114177   13.1109486624    3.4238054324
   2.5095357046   13.5653981536    7.3861549402
   9.5547842544    6.8533181989   12.0341683681
  14.2466560838    6.1027492721    4.3705304607
   0.2074833645    7.1188965430    2.3586710112
   0.2186504499    5.5934879877   12.2592316313
   8.3903568139   14.3650612768   18.5131244029
  11.1162356997    5.7949778408    2.4774205295
  14.6545424351    8.6259628823    2.9186549808
   8.2266583103   17.3549459886   13.4911232611
  17.2968704492    4.3678598048   11.2166141600
  16.8079019467    6.3343589681   12.4234792752
  17.8321834112    4.6443664897    1.1954107754
   2.5945355982   11.5268714712   15.2705220175
  10.7716972846   19.0497038349   14.3506170050
   6.4447694101    9.9927206910    4.8253580801
   9.5332269318   17.9760247283    6.7525854783
  10.3622387938   11.9253855568    0.5375799122
  -0.1231731053    9.2423152784   18.4103707331
   0.2925019076   19.2999983830   11.9255892312
   1.0655878838    1.6505017987   11.4025107799
  -1.7537469627   12.2853182601   19.2515702109
   9.4703206642   16.2631537210    3.5250285042
  -0.3275719383   12.1530115120   14.3694892490
   3.6999595611    9.3603808606    6.0849672237
