B2 C140 Ca1 F48 H298 O66 
1.0
1.7950280096351527e+01 -1.3532129152611351e-16 -8.9266416787722696e-17 
-2.2972826559903710e+00 1.9350990808515629e+01 -5.4465729732150395e-17 
-6.5154795319262837e-01 5.1362115346076920e-01 1.9636660779794450e+01 
B C Ca F H O 
2 140 1 48 298 66 
Cartesian
  10.2305941441    2.7767055137   16.9103398824
  -0.8864647183    5.8816119429   12.1611492068
   0.2285767589    0.6489715661    1.7293994229
   7.4851722995   13.9550173954    6.8424315597
   5.2640898092    6.2843498693    1.3062336386
  12.6141301410   12.5453384011   12.7180358326
   4.0069607420    2.1575715775   16.0124721358
   2.0119697715    1.4019487177   18.8868656823
   1.5968496932    2.5661014965    5.3347418893
   2.5075835699    0.9354607166   17.4745874500
  -0.4899280915    3.5012053126    6.1867363654
   3.6915163191    5.6784225282   19.0210365000
   2.2644312116   15.6168030550   19.0468818700
   0.5237449246    3.2588202089   18.3298481538
  12.2279975860   15.3933534055   15.4525257178
   4.4900078169    9.7073833849    0.7851440112
   6.4690753030   16.7182092124    8.9772298887
  13.3039528379   11.7178519807   16.2411087795
   9.6185214710   11.5631330139    6.3309644142
   9.7360958361   13.1597366844    6.2100303613
  13.3795656077   11.5488517479   14.7009190207
   4.4294171486    7.5214448505    1.5909185787
  11.2128699395   10.5650892752   16.8301181832
  11.8534056427   11.1735665209    7.0355807445
   0.0013832342    4.6668757064    6.9573381299
   0.2328719221    6.9628357303    6.8227019669
   5.1305844975   18.5510018551    9.6601205691
   2.5926697748   16.0229776822    1.5566988878
  16.3921151627    1.6386646817    3.1602823467
   4.0655352247   18.9062808268   10.6217462012
   2.1581469705   14.6734262475    2.1126574671
  13.5120137488   16.3294969194   17.2535527988
   5.2961131418    1.7434229024   11.0774324191
   7.8970064276   13.2658569179    2.9220194546
  15.1993276155    1.0629096983    3.9125574129
   6.5180599587   14.1325035746    1.1274389462
   5.7648973771   14.4230925313   19.2336260420
  -1.5970749318   15.2370966999   12.3817725378
   3.0627250342   12.5797036684    2.6153479383
  13.1215763255   15.3742029855   18.4930089654
   5.9375809373   12.7229806063   17.6713069376
   5.6944765917   17.7748067460    3.7648134373
   7.1403152454    0.2832676637    2.5735771048
   6.0938545278    1.2998626840    2.7731876204
   3.9331289002    1.8977290568    2.3803140759
  -2.1098027208   17.0881125695   11.0823245917
   6.0020230838    1.1206381789    6.4637165412
  12.6272561261   14.9076531769    9.0497770991
  14.3575037107   17.1627992311   10.7352846629
   3.6226706060   15.2989836772   12.4226494121
  12.9800071193   18.0783873510    4.2845229789
   7.0907802841    2.2368395548   18.4745756976
   8.0510917301    4.3685454814   19.4004081319
   8.1490991401    3.4090979549   18.2020621673
   4.3091705447   15.0905982817   14.7419703318
  12.6379653460   17.8089315323   12.0691645439
  10.5129935962   14.6153967438   10.0802640480
   9.4276756488    2.5517813258   13.2401792008
  12.6777606907   16.1447082898    0.6774708902
  13.1037291050   12.6969786378    3.5813896430
   9.9676903434   13.8263538271   11.2747315932
   5.0405153179    3.1738618405    6.6698489756
   2.1330655218   12.4468535236   10.9481282937
   4.7168635617   16.4298350578   15.3760926517
   1.4303945607   18.4623204912    8.4595343999
  10.4445659819    2.7240412458   14.4740078411
  11.4963042728    3.8695217973   14.1461265930
   5.3319884081    4.5941330937    6.5653024592
   5.2481015224   18.4966745061   14.2838073548
   9.7077593787   11.7538946349   10.1298836878
  -0.9777395306   13.2558681779    8.3441102299
  15.7098409612   11.2049463740    8.4095385324
   0.3035296601   17.0754739441    6.6971396006
  -1.1512739406   10.1875773590    7.8936593598
   5.5021641726    6.5905295357   15.7401901904
  14.4431018361   14.7046643864    4.3358364348
  -0.8599962148   17.6755843432    5.7977937483
   3.7699002700   12.9314565907    9.2768766034
  16.3029281102   10.2120932450    5.5961581968
   3.9456425793    6.2527241587    5.5125420518
  11.9038027071    1.9331425345   18.6007392524
   2.2145326045    4.8234691331   13.3961222960
   9.8833630723   19.7713343268   18.7334746780
  15.7953865714   14.1343239305    4.6500602374
   6.9050972649    7.1070984348   16.0976274164
   3.8713639990   13.6516593917    7.9792325368
   7.9819975044    7.4342639818    4.5303471007
   0.4793340987   18.0205300368    3.7910502227
   7.2353014146    8.6608886847   15.9275171767
  10.1472612217    7.4986927949    9.6479747550
   0.7384549988    7.6694024163    2.8995808514
  13.1361598469    2.8394385244   18.9858817692
   2.0923178923    5.4313004346   10.8181985805
   1.4169240690    5.0629960982   12.1341867323
  10.7139930980    5.3663705919    3.2663378416
   9.3173142560    5.7265020777    3.7719965192
   8.9460094420   15.2263010906   17.5617514323
   9.1906112860    8.1189011884   10.7806529773
  12.5487657997    8.3287842957    4.2935407300
   9.0329552365   18.4653494106   11.7635397406
  -0.5025298209   12.9822165105    3.3769475899
  14.2206776546    6.2339592541    6.5393813371
   7.7001069374    8.4648346038   10.3715569590
  13.4676659810    9.4124545767    2.3261197081
  12.3013788972    5.4834441652    1.5863937607
   2.7584108687   14.0515899506    5.7888737500
  12.7762741885    7.8521425724    5.6436822520
  16.5021607621    7.2200048146    3.3152718429
   9.0154363941   17.6387818850   13.9502787411
   9.4140508246   12.9206105519   18.3423775265
  15.2372906990    7.8239793754   14.5721507583
  16.2996303382    7.7619878015   13.5445220118
  16.1246187943    6.3827222354    2.0518505968
  15.0464505226    2.9927500147   11.2554020728
   8.8524845046   11.9521139464   19.2822086221
  15.1987204296    4.5248870109   11.3347314043
   9.9149046650   18.4019160805   14.8506262509
  14.5280568691    5.1679640109   10.1094308558
  16.4432680950    9.0802842005   12.7001701449
  11.7407074493    0.3976419452    6.9004506891
   3.0507946897    9.6869903095   16.1359990383
  -0.5902734916   10.1354661888    0.2291870048
   1.3512861160   12.9620338466   15.7513299673
  15.9596031172   12.1772984576    0.4737744062
   4.9848026587   10.1897393376    7.3487117819
   5.4918837932    9.9964001862    4.4166308548
   9.7484155641   16.4998002088    5.8104369705
   8.5577762861   17.6435203583    6.2971116010
   1.9129868195   11.8064736078   16.5308937114
   0.2774241704   19.6740555310   12.5756454231
   1.3404699974    1.0365292523   11.9827906349
   1.2504316741   17.6232801256   12.6149590086
   0.6110104657    1.4097615279    9.6968373899
   9.9348592476   10.3208773365    1.7942712233
   2.6047448222    9.9242855324    7.4890035548
   6.2581744658    9.7283430743    6.6640121591
  13.6760742439    0.9322048199   15.0333988301
   0.0979612543    8.1567800133   18.6477285022
  16.5483402173    4.5263077897    0.6135387243
  -1.0811696525   12.9840144109   15.6199210382
   0.2854340126   10.3633728633   19.4842242220
   9.6261813865   16.6175626957    3.3647373973
   8.8424939725    6.1543218008   13.5775959157
   6.7960542534    1.6465515758   17.1898261483
   8.8850896821    5.3823940443   19.2770909250
   9.0705296487    3.8642518529   12.8077454566
   7.7501426090    1.3344342707   19.1399695401
   8.8417048929    3.3557296178    1.0293003102
   5.9374104016    2.5408443331   19.0904151784
   6.8232968757    4.9243255815   19.4191285166
   8.2478927363    2.0644389009   13.7353056923
  11.9910453717    3.8090606575   12.8973745195
   9.9170877555    1.7724483619   12.2355843178
  12.5398029307    3.8548008483   15.0497293274
   4.5479229986    7.1745418101   16.4907936152
   5.4648447259    5.2844040330   16.2872735442
  10.7816212670    5.0130791098   14.2798090804
   5.2225681236    6.4018463896   14.3569092758
   2.8496450258    3.6755401847   13.1795523580
   8.7021977088   19.2256642694   18.4341915201
   2.9320839151    5.7581751255   13.9454225723
  11.4640004290    7.5599849167   10.0989657029
   1.2471276138    5.3181410820    9.7458013212
   7.5350037757    8.8430453179   14.5599532372
   8.2769455885    8.8836004653   16.6459585803
   1.3458851060    4.6722065640   14.5535006599
  10.1261309301    8.2555503830    8.5548610324
  10.8363841106   18.9629080889    0.4264165677
  14.2860626554    2.5261109513   18.2293455756
  10.8943622601   19.3547302570   17.9445537961
   3.2119882640    4.7206734011   10.6192297434
  10.0048047531    6.1103785594    9.2940174481
   7.1258952709    9.0048685870   11.5121154573
  14.1221924853    2.0232632549    0.5929439699
  12.8548413109    4.1399517851   18.8299406796
   6.2626782877    9.4904866960   16.1671579122
   2.4425974423    6.7275648561   10.6879292670
   6.8242030519    7.4643829035    9.9835691113
  15.6143976322    8.8267457060   15.3803872828
   7.5996432236    9.3667820692    9.4324789615
  13.8067220001    2.5446186668   11.0551167803
  13.9414966880    8.0837864304   14.2643004839
  15.1621573400    4.4931731606    9.0122379521
  15.8070902419    2.3578202071   10.3629548350
  14.8599036491    6.4828232505   10.0299097820
  15.3730696205    6.6947766359   15.4437481725
  -0.8651759142    8.9029508187   11.4793207846
  15.4056745448    2.4701445721   12.4959134961
  -0.8177799993   10.0199412118   13.3965706922
  13.2002689159    5.1187576084   10.1429196379
  15.1827984480    9.7196128408   12.4679002543
   1.1249635722    0.8546588647   19.0921761751
  13.6153327456   12.7330959848   16.4339518082
   1.8739264346    2.3691755503    4.3573522118
   5.9225617367    6.0084841192    2.2267120226
   5.7439738395   16.0598691388    8.4004025350
   9.2800800204   11.2921117316    7.3412079272
   6.0616791410    6.5458200508    0.5409490967
   4.5371737177    3.0569713005   16.2817050526
  16.4382405912    3.7162976480    5.7847761359
   0.4607536174    1.6976013287    1.4754260883
   1.2019219606   15.5250511861   19.2291692699
   0.3415866601    0.1247788293    0.8178019115
   6.7820410808   14.3566379502    7.6538200407
   0.0964376808    2.4397826670   17.7664243005
   0.9901687872    0.3344355732    2.4800855240
  11.7278267907   11.9398275983   12.9847458370
   0.3822184353   19.1032777386   17.4688270136
   7.3354026617   14.5184616337    5.9498565699
  12.9819506779   15.1806236179   14.7492320945
   5.0541363330   10.4499280312    0.1254323216
  13.0798650050   12.0259197075   11.8991692628
   3.6945019166    4.6283135863   18.7529589411
   2.6934831521    5.9598058859   18.6637692786
  11.5784410401   10.0239200833   17.7325437905
  11.8535032652   10.2044763211    7.6042860519
   1.6653576816    1.6239422282    5.9233289793
  17.2961081158    2.6414055560    6.9440083100
  10.7094396212   13.6098618203    6.5913541024
   3.0056817189    2.2749367727   15.4243678312
   6.0514652114   19.2671180083    9.8347797958
  12.2804726477   14.5359727937   16.0596723353
  12.4179241023   10.8967429488   14.4829172167
   2.8238628721   14.7007261123   18.9950909730
   2.3309638096   16.1840916012   18.0577909384
  11.2632117458   15.5579800922   14.9065736755
   6.8624066951   17.4586342120    8.2498612580
   0.9237887597    4.0389496955   17.5294093197
   3.1843787832   16.5884079995    2.3643779724
  -0.8156881279    6.8327191403    7.0986178287
  13.7836449744   10.9471192628   16.8255032592
   2.2858412251    3.4077332500    5.7592764844
   7.2914059297   16.0594468917    9.3143465187
   8.7998489389   11.0830822554    5.6224285044
   4.0631184595   10.2625559954    1.5969576922
   6.9872331755   12.8667066410    6.6380531457
   3.7007557022    9.2749389589    0.1485634504
   4.4786597170    6.2274738911   18.3525966541
  12.5397831360   13.5675686400   12.4366465059
   3.3004227007    0.5116587971    0.0231304892
   4.7073398869    1.4574693709   15.3904714295
  -0.2610652682    3.7434832831   19.1421696151
   1.7005832389    1.2473950356   16.7613574117
  17.3450925413    1.7575344228    3.6950043313
  16.1105444462    2.6873805444    2.7273462014
  11.2855266738    9.8606346200   15.9176929729
   4.1634367132    7.6297127974    2.6692429656
   3.4861702217    7.5458592036    0.9150889570
   0.4350178753    7.6791446153    6.0768892076
   0.7865565143    4.2894973886    7.6255747265
   1.6645543063   16.4690645026    1.2574770359
  12.8554897678   11.2077799825    6.5620943035
   4.4081808660   19.0559496966   11.7010358445
  11.6434266110   11.8766746663    7.8405630572
  10.1619665065   10.8544609707   17.0432279235
   9.3863692218   13.5798876727    5.2795775859
  14.2140222384   10.7793534993   14.5949365351
   4.6091207851   18.6842247479    8.6711807426
   7.7968620403   14.1440325021    3.4680770376
  -0.7792188947    4.9697204288    7.6402852190
   0.8473570137    7.1860552734    7.6651400425
   6.5256578722   15.1641635449    1.5147357457
   6.2121842436    2.3770128406   11.0838789201
   1.3542294757   14.0781043348    1.6395329003
  13.7166637442   17.3155345948   17.5425366075
  14.4424915492   15.9674752009   16.7906567879
   4.8514722548   14.9499588708   18.7722656580
  15.3154774216   15.3546939631   12.7361766290
   8.9170206798   12.8987875817    3.1375482498
   4.5269843160    2.3905017444   10.6686108708
   3.4131166437   18.0476605167   10.4631950648
   5.9847318335   11.5985070006   17.5933363017
  -1.5089472485   14.1466061650   12.3504538131
  14.4887651816    0.8529801862    3.0084420323
  14.7221125754    1.8370134985    4.4501670452
   5.4240874224   16.7755586012    4.0854489436
   6.0464462706    0.6811028938    7.4833944216
   7.4239658188    0.1664607289    1.5263093245
   1.5508174567   14.9719629322    2.9376378304
   5.9804395777    1.5398866085    3.8890399270
   2.8482794128    1.6366291359    2.1244358870
  -2.0257461322   17.5228991420   11.9691393311
   2.5790320413   12.4259305876    3.6231900960
   2.4556153064   12.0307489060    1.6326417468
   7.1529171575   12.3465243163    3.1381499390
  12.8180497816   14.3938649283   18.2074314278
   5.1268777929    1.3345455581   12.1118993901
  14.0065540417   15.3158971265   19.1430696426
   6.8525750025   13.1353566619   17.1707868182
  12.3667316007   14.6036259656    8.1033721010
  13.7741720903   16.1955847832   10.8377443336
   5.8127950220   13.7682245474    1.8181843534
   2.7328239011   15.2457324430   11.8375205144
   6.0182595089   18.3727933089    4.6426023118
   4.2168468331   14.4693326739   12.1112103204
  13.6918612466   14.6329415945    9.1318715947
   4.2538631729    2.7985982643    1.8218664973
  -0.8907596783   15.7103159985   13.1328201542
   6.6458708872   14.8915494128   18.7873709335
   3.9906886832   11.9152471276    2.6128324447
   6.6666260831    0.4873028968    5.9068130430
   5.0316583908    1.0863810995    5.9919030535
   5.1597675548   13.0951676345   17.0779867659
   7.9831144161    3.9458240315   17.2576716758
  12.4002879273   18.4322872829   12.9786859817
   4.0498671056   14.3885878324   15.5215747458
   5.1342751786   14.6677491137   14.0743782811
   9.9498568051   14.3905284976    9.0300260640
   4.0205797592   16.2823364964   12.3210518999
   6.5531599207   17.6617457972    3.0548811294
   7.9724690235    0.7663770870    3.0743648192
  -1.4622862600   17.6000391518   10.4130854949
  13.9917188856   17.5672896830    4.0448947216
   6.2896892804    2.1901573235    2.1373368986
  12.3559370315   18.2579079349    3.4178507773
  12.4296175303   17.2702350337    4.7470588911
   3.8692083408    2.1936915493    3.4764377283
  12.4699299122   15.9660788143    9.2982933976
  14.3278335756   17.3893563769    9.6155424047
  10.5711396475   14.1398763231   12.0539576020
   1.3740991424   18.6917589206    9.5292057204
   2.8719562891   12.3958665715   11.7144684805
  12.4613164240   11.9537494312    4.0010600954
  14.0681786439   12.3132841492    3.3300047176
  11.7920531068   18.0792396858   11.2744797616
  11.6230523434   16.6041186798    0.8041538514
  12.9364371919   15.6067002058    1.5758566669
   1.1338006907   12.7468536466   11.2205950406
  12.6076318613   16.7458211744   12.3693587276
   2.0980814093   11.4427128452   10.4680517669
  12.5218585763   13.2599109025    2.7597268333
   4.3033240032    2.8551782744    5.9595756725
  10.3303240670   15.6420457533   10.3592577823
  -1.6478741010   13.7334047246    7.6813046498
  10.4189361539   10.9243427552    9.8725588792
   4.6548488601    2.7806031870    7.5999899720
  13.4163541462   16.9756520444    0.5179685503
   5.9261710801    4.7193354356    5.5717424684
   5.9855966661    4.9465911543    7.3788643726
  15.0344458535   11.4481953821    7.5222610990
   5.6085026505   18.9597229436   13.3293533151
   1.2074653044   19.4767569117    7.9921874046
   2.4648338705   18.2164572063    8.1454318426
   8.9344179720   13.9525607627   11.5262440160
   5.4307686700   16.2938956266   16.1655752332
   3.8014314062   17.0187820587   15.7262967668
  -0.0980404536   12.8186959633    7.8911836618
  -0.1795390236   10.5769232169    7.6146895578
  10.9462144174    1.7600196961   14.5161580617
  14.4896307814   14.9843741451    3.2516929198
   6.0294689616   18.8841881987   15.0433503069
   9.6043049868   12.4295959205    9.3203945297
  15.7700807026   11.1674233573    5.6950966025
   4.2237264203   18.7557277742   14.5418388753
  -0.8909067353   18.7425797001    5.9428646465
  -1.7205308886   17.1658619332    6.1655047958
   8.6838443425   11.3270177330   10.3812398699
   3.6167037358   11.8243539855    9.1886812601
  -0.6129126667   14.1026854476    8.8778403879
  14.3950535282   15.5140451413    5.0878023794
   4.5838447226   13.1568712326    9.9719581680
   1.2478502658   17.2031568893    6.1362577338
  11.1127580697    2.1475818083   19.3289908407
  15.2951321577   10.6947165442    9.3232789376
   0.1159402194   15.9766862787    6.8581089092
  15.8685607160    9.6202850119    4.7571064502
   3.2036651310    5.9481427397    4.8186461531
   7.9241550452    8.5290769174    4.7331797197
   4.8856830917    6.2363020636    4.9646958025
  -0.7952979027    9.4928344391    8.6832096046
  15.8254569996   13.5516474139    5.6253034073
   1.2276140779    7.0862550255    3.8189255688
  -0.6742370015   10.4042296238    5.2469725596
   0.3859704762   17.8960028453    2.6978249824
   1.4782690074   17.9006280763    4.3371356584
   3.9442268150   14.7854451759    8.1486198291
   0.8520448186    6.9770747448    2.0344378288
  -1.4669914642   14.9594207004    4.8218528844
   4.6412485238   13.2242375722    7.4050826919
  11.5686567403    5.6760289785    3.9790334369
   7.0391609359    6.6830129061   17.1891171949
   3.5785563458    7.1426001017    5.9984209464
   1.4122454209    8.5524870649    2.7259550689
   7.1573029389    7.2940999734    3.8615547478
   8.4127839156   16.1076387117   17.9107338182
  10.7491848091    4.2742978877    3.1636620004
   7.7652983660    6.7246206559    5.4268975816
   0.8227496869    4.1150933837   11.9467739109
   7.9869025989   18.4081332781   11.5205911361
  11.6046522724    8.9485065193    4.2900745520
   8.6335089556   14.7313480142   16.5972066818
  13.4264988588    5.5820381826    7.1835345938
  12.2637733441    7.5313631809    3.5536925431
   9.2933324561   19.5214287845   12.1005133215
   0.2871038839   19.1177423710    3.9620066903
  14.3417528373   10.0201418666    2.0784848441
  13.0504444028    5.8082531698    2.3134856159
   8.5200942688    5.5906993658    2.9519661868
   0.0050341805   12.2763753471    4.0775237906
  12.5147524155    9.8614343416    2.2343651077
  12.3198325770    4.3956441598    1.7044881677
  10.0300939858   15.4355522930   17.6829291571
   8.9814140159    5.0867234210    4.6630047032
   9.6510239609   18.3678232736   10.7990080072
   2.1195760234   14.8933313654    5.7717835913
   0.0777797857   13.9330824169    3.5272702887
   9.7309313719    9.0662699862   10.8973113825
  14.4206148738    6.9991770102    7.2540790416
  -0.3169781319   12.5381123500    2.4053484520
  15.6637072742    7.7135050461    3.8148552989
   3.8558675632   14.1733903726    5.4803270822
  15.1033172719    5.6669053888    6.3975237062
   7.9768560613   17.9687309603   13.7448835625
  16.9055541834    6.3821235636    3.8743892309
  11.8294945007    7.6591154552    6.1446268082
  13.5060103571    8.4392741585    1.6901760519
   2.3049220218   13.2118106986    5.1755895596
  13.3726741784    8.7405325741    6.0703973953
  12.4012525136    5.7674667726    0.5184203597
   9.1554884976   12.7851279102   17.2154721265
  -0.7699258496    7.5468790426   14.2289073268
   8.7077444864   11.0461033660   18.7963940798
   8.8423765518   16.7044168877   14.3984388554
  10.5427902121   13.1801074941   18.3974135634
  15.2133209566    5.9782385985    2.3571129547
  10.8848955931   17.8959802275   14.5843062378
  16.1650887294    6.7748786277    1.0659852624
   8.5381737734   11.6807704577    0.0283382190
   2.3372563699    8.9048518464   16.5075355414
   1.0592451943   13.6958717038   16.5557182920
  10.6794473612   17.0009034549    5.7770862192
  11.2250436784    0.5789876207    5.8824496417
   5.1620485185   10.3054238404    8.4349626379
   5.1172848112   10.7877508476    3.8619379440
  11.6366203223    1.1731013542    7.6470706117
  -1.0128501563    9.3329789420    0.9301444635
  -1.7337273360   10.6356126878   18.8041371867
  14.5453145894    4.7665370583   12.1616526536
  16.0640136966   13.1048876032    0.9987029562
  15.1698946115   12.7858701379   19.0360466931
   0.4707973976    0.3662110368   11.9164987467
   3.2636818449    1.0909155646   12.6605190882
   0.7253019720   17.4621715808   13.5579413992
  -0.1287262066    0.6625709954   10.0049255560
   9.7494591694   18.1971326643   15.8863864397
   4.8045608981   11.2233299842    6.9055509052
  -1.8010974743   12.8732180502   14.8345403836
   8.8296802056   17.3547397238    3.2370545010
   2.2573218283    9.7131047206    8.5271704071
   3.6004000434    9.2175934017   15.2791817834
   8.1165501843   18.1601659755    5.4075403149
   0.8488822255    7.9309075851   19.5214935187
   2.1381083979   13.3780593684   15.0431604175
  10.6570938100   10.3722605486    2.5713235635
   2.5049305302   11.0361677173    7.0921842169
  12.0707801803   19.4483953099   15.1715032809
   5.6755223283    9.2062286978    3.7129608624
   2.7002633178   12.2338298316   17.2431992459
   2.3582853487   17.8450625938   12.8393291958
   1.0514262438    0.8793400929    8.7328496581
   9.6521745846   15.6629140302    6.5900417012
  -1.3274075604   12.2870454856   16.4989254323
  15.4522441468    4.4739794836    0.6223778459
   3.8359346191    9.8645274860   17.0361797073
  15.0481277997   11.6123545353    0.8733082050
  12.8672987958    0.2971758944    6.7872824745
   4.6876347628    9.4887884190    4.8608208172
   9.7987331923    9.2570465180    1.4152116985
  16.3126933208    5.5320912591   19.4063236501
   7.1376123276   10.1084077230    7.2130031964
  14.0329670982    1.6619024826   14.2712715946
   0.3968501877    7.6125136486   17.7996041523
  10.5620051788   17.0985076473    3.3722186940
  -0.9709704688    7.9380645138   18.8382482618
   0.1297631695   19.3239422783   13.5753108994
   1.1157989344    1.7986771369   12.7427528886
   1.1201232557   16.6187788374   12.0729066054
   0.1000715267    2.2814456764    9.3616510339
   1.4629551886    9.2226743653    0.7111462889
  16.9770653468    3.4731610991    0.6240223678
   0.7460080107   11.3777913298   19.2891389215
   1.2751898971   11.2487033472   17.1714775044
  13.5438760814    1.5096171710   15.9682701999
   9.5855772148   15.9169936263    2.4480621895
   1.8605243639    9.5756748732    6.7396544839
   7.6969180843   17.0437532615    6.6946916778
   6.2720027112    8.5743234937    6.5819253109
   9.0168836735   10.7363181862    2.1555250945
  -1.1360389050   13.9997970757   16.0804071705
   5.2278527561    8.6526709743    1.2862834232
   8.8762838129   13.8640192688    7.1873832665
  13.4113529662   12.7572088137   13.9083484364
   3.7493403291    1.6196578505   17.2109073383
   1.6593436522    2.8090304033   19.0934188655
   0.4873007170    5.7263111395    6.1354878936
   4.4734385491    5.1516102666    0.7691061019
   0.2853209151    3.1029011251    5.1229770173
  10.9651202017   10.9959115269    5.9013952395
   5.6426543660   17.2844141309   10.0154523573
  16.8211574730    0.6197984075    2.0943111665
  11.8422515007   11.7663617395   16.6958701415
   3.5507342517   15.8905575531    0.4507140182
  12.4707391714   16.5338962597   16.3298990709
   5.5776998053    0.6599075268   10.2462917795
   3.3515266342   13.9466758276    2.3936312826
   7.6800484913   13.3888386167    1.5836603588
  13.1355367509   19.3457777483    4.8975246599
   5.8075697582   13.0394552979   19.0482639211
  -1.5198293793   15.8225580935   11.0813143023
   4.5197089148   18.3932346184    3.1234061352
   4.8402725244    0.8048998632    2.2814371242
  11.9186424171   15.8312701338   19.1510630293
   6.2484525272    2.5175979773    6.3091414044
  13.9006657289   18.1861141238   11.5723040697
  11.8323946668   14.1650865884    9.9863371922
   3.2539278726   15.1863924083   13.7822095410
   5.3179919277   17.1284770452   14.2114847985
   9.7623912189    3.0929270954   15.6772057316
   9.4380991137    2.9329357180   18.0468985042
   0.4806325176   17.4825999329    8.1022837415
  10.2844841099   12.4337471170   11.2484329410
  13.3788241176   13.7778280919    4.6577628721
   2.5487881446   13.3636325750    9.8915999046
  16.1774494231   12.3989771624    9.1923742972
  16.1748329574    9.4137020470    6.8250414174
  11.4535905396    2.2856870349   17.2407291921
   4.1299299433    5.2368853789    6.5148815547
  -0.6607762570   17.4215652368    4.4186569878
   9.2841707487    7.1443259412    4.1239596302
   7.8027956091    6.5180264567   15.3024620675
  16.1253568807   13.2618393970    3.6011145532
   2.7318115612   13.4555226911    7.1733830198
   9.2641125902    7.4260236841   11.9812366368
  13.5367587888    6.6873388151    5.4048696398
  -0.5749212008    8.2260621723    3.0704868242
   0.4102665805    6.1050714644   12.3954157964
   8.6834633502   14.1549138096   18.6011227883
  10.9601577488    5.9265993960    2.0046333208
  13.6320308307    9.0356401048    3.6599146352
   9.5015471205   17.3921276807   12.5707697852
  16.6143879388    4.7795987171   11.4397989297
  16.0237833759    6.6869531134   12.6199371939
  17.0250150552    5.1357221788    1.7775825676
   2.3893254416   10.8069000694   15.5734930306
  12.3587466617    0.4918715497   14.5800217034
   6.4645725437   10.3462754116    5.3561502483
   8.9009069926   18.4979955134    7.3843357486
  10.4338582145   11.1899317301    0.7231676888
   0.2894132917    9.5217110662   18.3050201445
   0.6322455014   18.6235004668   11.7493455227
   1.6453761533    1.6397053646   10.7077992487
  -0.6801597291   11.4819679525    0.7066447738
   9.3770208905   15.9169351656    4.5647266236
   0.2016781513   12.7692692109   14.9747450664
   3.8580048210    9.3656457543    7.1041657505
