B2 C140 Ca1 F48 H298 O66 
1.0
1.7915323084483425e+01 4.3920840283392047e-16 6.7230348038350775e-18 
-2.5233581502930131e+00 1.9398876985813498e+01 -6.6089660506660823e-17 
-1.0397793002692730e+00 7.9764473334097674e-01 1.9455805300733441e+01 
B C Ca F H O 
2 140 1 48 298 66 
Cartesian
   9.7885663556    2.9946477701   16.8187766281
  -1.2458529318    6.0244576644   12.1409054706
   0.0134144947    0.8593542813    1.6955466274
   7.1549483881   13.7762930947    6.5440226818
   5.1239678748    6.2208303644    1.3432851190
  12.3950203738   12.6420512159   12.6280464910
   3.6115717796    2.3089927422   15.5627320915
   1.6124067375    1.8682320660   18.3910455994
   1.3740576608    2.8302680261    5.4691101558
   1.8879787257    1.3964882380   16.9813494123
  -0.6009651802    3.8834286515    5.9400925384
   3.1116875303    5.9645113977   18.9425488975
   1.8197731511   16.2095044187   18.8052482888
   0.2710163702    3.6126077397   17.7205899531
  11.8371635254   15.6018377778   15.2965729584
   4.4482862556    9.7224470514    0.5694227243
   6.4392702622   17.1852448261    9.1737829702
  12.6021213631   11.7738027295   16.1910406041
   9.7524958579   11.9741573972    6.3829522938
   9.5268793139   13.3954300362    6.2111862870
  12.9631606432   11.4442815292   14.7504642878
   4.1670205716    7.4065229111    1.3169480741
  10.8247024739   10.2939409589   16.7135396581
  12.0629520310   11.4355792101    6.7145414095
   0.0363116495    4.8298559787    6.9717623237
   0.3637453979    7.1647475932    6.7399488187
   4.6860273429   18.6082750599    9.7227679714
   2.6045622400   16.2514467429    1.6513778780
  16.2820887870    1.5115116802    3.2439841473
   3.7110138428   19.0386860049   10.7473082820
   2.0093680323   14.8566977666    2.1738242226
  13.0733860952   16.6220625514   17.0900735753
   5.2784981021    1.8005565292   10.8543593838
   7.5664106009   13.7966985212    3.0335115382
  14.9838439594    1.2015663765    3.9144628889
   6.4542110689   14.1989565220    1.0157703708
   5.4439969988   14.7423971728   18.9770107629
  -2.1773977367   15.4077141479   12.2568224851
   2.4187642739   12.5872779007    2.3859144898
  12.6621721987   15.5660704331   18.0713907136
   5.5027616749   13.0732659664   17.2525114355
   5.3902907163   17.8472755518    3.5353511433
   7.1584469450    0.5053236429    2.4147539333
   6.0430154135    1.5107647672    2.7568222348
   3.7492925029    1.6699878837    2.5172108713
  -2.5034159036   17.2508471567   10.7952505987
   6.3684885492    1.1053909909    6.1765203301
  12.1463300293   15.1754647842    8.8115178224
  13.8733624790   17.4535743697   10.6875322173
   3.5786754190   15.4201509555   12.1979979072
  13.1733895978   18.3655192829    4.0645516006
   6.6755752785    2.2885863983   18.3321677214
   7.4781086056    4.6012722652   19.2149658712
   7.6349026637    3.4850703417   18.0353980596
   3.7457772555   15.3271545300   14.6100553782
  12.0343875011   18.2259100913   11.7812239774
  10.1982085519   14.6989729222   10.0629296139
   9.0514020699    2.8317070534   13.0549752120
  12.5497435900   15.7265202545    0.4731163092
  12.6734412318   13.0697050600    3.3954362018
   9.3412319947   13.9262464587   11.1514630441
   5.1835405698    3.1703223472    6.7139149075
   1.7171831863   12.7835900006   10.8373514356
   3.7952928774   16.7602567111   15.1283061589
   0.8815766049   18.4624857183    8.1062347157
  10.0348934336    3.0592339600   14.3028714876
  11.0343604404    4.2374832351   14.1166980904
   5.3816145469    4.6232983032    6.5050403376
   4.6169992898   18.9412268901   14.6363965599
   9.0228279829   11.8217587190   10.0473931754
  -1.1618595727   13.2396656711    8.5398441858
  15.3035764558   11.4206339861    8.5079849621
  -0.0829752720   16.9206161464    6.6765205846
  -1.5265846278   10.4066713043    7.9269344154
   5.3634733124    6.7232211611   15.7410963830
  13.9932340963   14.6763596543    4.4661008272
  -1.0543098410   17.8427042221    5.8178273477
   3.0894211994   13.6206739672    9.0315988980
  15.5617895085    9.8548392794    5.7375791062
   3.9216167259    6.2967661749    5.4587310260
  11.5731487961    2.1893761605   18.4549735186
   1.8607243341    5.0273938242   13.3318127503
   9.2262457456   20.0136850729   18.4877504056
  15.3622531044   13.9204871800    4.5687211229
   6.7739614893    7.2186439935   16.0403781798
   3.0918127179   14.2498357467    7.6939864231
   7.7136254762    7.3146220566    4.2105222699
   0.1190941955   18.2142209001    3.8065218782
   6.9214218936    8.7281916259   15.8859538089
   9.7469529325    7.7596388690    9.4516697474
   0.5579671422    8.1285305643    3.0811196519
  12.7104594927    3.1754787503   18.7739019789
   1.9121922544    5.6099772506   10.6973605347
   1.1094575811    5.1163346159   11.8953076822
  10.7344915875    5.5275883203    3.2967146738
   9.3199254460    5.6941335852    3.7492773400
   8.5651596888   15.5476879314   17.3763390880
   8.8530134594    8.3365888020   10.5673650060
  12.2041106993    8.5702860273    4.1625337971
   8.8073813694   18.0210684972   11.3104172042
  -0.8223313195   13.0497451931    3.4141792115
  14.2453374639    6.5910978521    6.4906189398
   7.4150894956    8.6030625549   10.0548727963
  13.3350580196    9.5679112754    2.2153082837
  12.0329813094    5.9335946832    1.2840752431
   2.7703342260   14.1946654798    5.3399191073
  12.4769747927    7.9176461672    5.5376887874
  16.2418402146    7.1393556721    3.3216561513
   8.5305350655   18.0137693231   13.7278790978
   8.9301228936   13.2149763989   18.0080477086
  14.8327232228    8.0005399142   14.6505543661
  15.8989603589    8.0452083003   13.4787021060
  15.7812003317    6.4836340120    1.9809249891
  14.9173592376    3.0340586238   11.0025843627
   8.6565857447   12.0487365341   19.0624610395
  14.8983266262    4.5641049097   11.1642583358
   9.3535893030   18.5372658071   14.8906213165
  14.2332774511    5.1667981506   10.0075981740
  15.8049636755    9.3716229088   12.7097143498
  11.3535354337    0.5935945261    6.8200645725
   2.5386635850   10.0096489053   16.2222872550
  -0.7478607551   10.1475564281    0.0878342275
   0.7024350800   13.2342657157   15.3790456660
  15.9273411559   12.0894940791    0.4828725584
   4.8999869744   10.4600727192    7.5281681642
   5.0721745640   10.3275145902    4.5841260066
   9.1780092218   16.8119304710    5.7905705481
   8.0204010357   17.8134494964    6.1270176181
   1.2019772624   11.9801113088   16.1320661379
   2.2511449648    0.5605904965   12.8947677895
   1.0139702793    1.1413269863   12.1968358084
   0.6833102395   17.8416122463   12.3667818369
   0.7331250738    1.6010367961    9.7790298385
   9.6887367837   10.8645514412    1.8796900509
   2.5644137161   10.0678549183    7.9425104428
   6.0732674053    9.8953232457    6.7223194531
  13.3556101211    1.1229612560   14.6349339182
  -0.5032005635    8.4157976814   18.5222644386
  16.8367431043    4.6800781343    0.7013406948
  -1.5582383796   13.2191511248   15.3191942769
  -0.2323212000   10.6589503403   19.2099567347
   9.5857557042   16.8940192893    3.4254576288
   8.5146268360    6.3930942652   13.3076655424
   6.4375762895    1.6006059877   17.2018334999
   8.3305241062    5.5631290756   18.9431392550
   8.7620967163    4.0780082182   12.5126025250
   7.3659929171    1.4154229699   19.1505694593
   8.6521178864    3.2387552516    1.0512460427
   5.5128843590    2.5995839749   18.8705762034
   6.2910352610    5.1973546154   19.3215064399
   7.8767943433    2.3998395785   13.5003749477
  11.4918347915    4.0897485730   12.8569467307
   9.6295468395    1.9590427374   12.2431743170
  12.0777183466    4.2257623353   15.0187010442
   4.3538815582    7.2767375830   16.3746733696
   5.2215039717    5.4180303639   16.1767300749
  10.5672262381    5.5178406116   14.1277913630
   5.0770982401    6.8009027786   14.3773354328
   2.6745601129    3.9353063638   13.5078582948
   8.1268696563   19.3533048073   18.0854625470
   2.5092827183    6.1683533313   13.5486746180
  11.0583860584    7.8046803659    9.8689894480
   1.0798211034    5.4835510514    9.6594415226
   7.0090239990    9.1123022720   14.5875975483
   7.8987715005    9.3239565038   16.5439361060
   0.8474061523    4.9205572154   14.3914560858
   9.7701755648    8.3190356596    8.2157316443
  10.4343427305   19.0081894542    0.3866758497
  13.7397914496    3.1978848151   17.9370398382
  10.3175394420   19.5661000730   17.7743062576
   3.0594627923    4.9179768600   10.5245913942
   9.2050306550    6.4272597933    9.2769492712
   6.6485015050    9.0978148063   11.0691417291
  14.2572127539    2.0732966780    0.5454924479
  12.1933955395    4.4611906988   18.7840817873
   5.6809900703    9.2939810406   16.2744357292
   2.2995056431    6.9260341596   10.8134520181
   6.7952930959    7.4705069693    9.5097687300
  15.0655498077    8.9535255251   15.5987208767
   7.4665889957    9.4869287059    9.0970888857
  13.7073219678    2.3968077993   10.8429182020
  13.6057094333    8.2569420244   14.1317059864
  14.7278201039    4.7880503676    8.7608123063
  15.7657991482    2.6727615820    9.9572407129
  14.5551821095    6.5269542798   10.0908838626
  14.9191276635    6.7937920491   15.3159180340
  -1.7255657096    9.1390093746   11.4144727438
  15.4541700705    2.3844267794   12.0939890573
  -1.3143912547   10.3838917858   13.2098645211
  12.8661702338    5.1477895635   10.0763237763
  14.5907266849    9.9667611178   12.6069920080
   0.8522500734    1.3031519020   18.8473986649
  12.9240125468   12.7328520321   16.4880260170
   1.6085232363    2.0100757998    4.6520652597
   5.3997058229    5.9347099415    2.3740722925
   6.1393808779   16.9854821592    8.1473128365
   9.6083260588   11.6800480051    7.4503786379
   6.0710107182    6.5071074483    0.8952805959
   4.7171129689    2.5115771530   15.4470738927
  16.4669479764    4.4528569491    5.4406014015
   0.4952426485    1.7495575925    1.2889156627
   0.8040798086   16.4408954725   18.5152484654
  -2.2733581896   19.4265088939    0.9556367436
   6.5951678771   14.7203946619    6.9020447498
  -0.2906145450    2.6883474078   17.3968375020
   0.5478579143    0.7525214872    2.6822050327
  11.4291715495   12.0028191882   12.4312781840
  -0.6704261106   19.6764163823   17.0842699711
   7.0278273221   13.8266410817    5.3772569758
  12.7637544418   15.3382989612   14.8426648117
   5.2360376792   10.4997251982    0.3373180798
  13.1752833912   12.1274231885   12.1019935229
   3.0551878191    4.9268532518   18.4571843856
   2.0903048175    6.3523682032   18.7871798322
  10.8933909016   10.3646052609   17.8338645889
  11.9934687561   10.7182305206    7.4947635400
   1.0173321759    2.2718278124    6.3195143698
  16.7828599464    3.0679194416    6.5472093715
  10.4324371003   13.8993150250    6.5944677884
   2.9629390809    3.1360699691   15.3912661780
   5.3685758811   19.4543949200    9.3283607551
  11.6416067487   14.6226520649   15.8015707964
  12.4593502732   10.4704403033   14.4339694809
   1.9011626591   15.1159362413   18.9796750121
   2.4460750911   16.4554296419   17.9580993278
  11.2287113048   15.8544324995   14.5454984370
   7.1572252750   18.0555885237    9.1140394396
   0.7715304798    4.0035839511   16.8041136349
   3.3738568006   16.5388489937    2.5526398060
  -0.6207435439    7.5138153740    7.0633160116
  13.1899033147   11.0427595291   16.7899699454
   2.1443607411    3.5123888595    5.6804801524
   7.0679148140   16.3625794118    9.6390368006
   8.8732016696   11.3910281236    5.7278281399
   3.6970464649   10.2395909479    1.1684553588
   6.5760483689   12.9472301712    7.0073948777
   3.0277906742   10.2916574464   19.0748220795
   3.7861219432    6.6156763201   18.3761949283
  12.4708021042   13.6775661681   12.2191951863
   2.4678350828    1.3527264999   19.0506270025
   3.3554865389    1.4547577808   14.8240896643
  -0.3409153559    4.4616469247   18.2747130787
   1.3631677290    1.8530162715   16.1703875310
  17.0832890777    1.1663529170    3.9301259821
  16.4411430434    2.6145871938    3.0015858733
  11.5440823658    9.6063709847   16.2810459855
   3.5441386008    7.4368235813    2.1826122107
   3.6482922679    7.4243474767    0.3785977396
   0.6770160112    7.8656519779    5.9614625734
   0.7194369981    4.2694092349    7.6099360565
   1.8281946779   17.0083455762    1.5115129429
  12.9503647856   11.1557475709    6.2198384227
   4.1768281543   19.4930018185   11.5884945076
  12.1859652901   12.4297311807    7.2759240637
   9.8342215506   10.1134641318   16.4336846463
   9.1120752225   13.7069966414    5.2561341286
  14.0595956033   11.2037115509   14.5655111305
   4.0904796086   18.2944031427    8.8387323154
   7.1073840769   14.7125690460    3.3029505665
  -0.6141049814    5.3168685396    7.6995346625
   0.9855948950    7.4142575226    7.5541117097
   6.5282006945   15.2439770501    1.1514758161
   6.2447787740    2.3582964581   11.0165459769
   1.2756157096   14.3911640514    1.4304910178
  13.1694697613   17.6329703766   17.6662583463
  13.9590391216   16.3557307758   16.5763515444
   4.5394094357   15.3442329488   18.6118423417
  14.5929746248   15.4464585500   12.6889496613
   8.6278494883   13.8206116272    3.3405859834
   4.6073843643    2.5721386288   10.2990469609
   3.0917811586   18.1420842042   11.0791551778
   5.6450304015   12.0181647856   17.0343533266
  -1.9748414697   14.3195642004   12.4521056195
  14.1314838528    0.9542916484    3.1715883767
  14.5826318800    2.0775760828    4.5364322292
   4.9182595203   16.9350751950    3.9254068220
   6.9625493240    0.8965965596    7.0451415616
   7.0459276198    0.4647399362    1.3544370546
   1.3896219555   15.0488228015    3.0460710146
   5.7983978707    1.5571875844    3.8479565720
   2.8889905874    1.2625914842    1.8632536991
  -2.0727088392   17.7448249952   11.5670656114
   1.5539439481   12.2922200057    3.1650210443
   2.2911224058   12.3363116776    1.2226842907
   7.0334130916   12.9377566365    3.6039556323
  12.6367567380   14.6719391419   17.5253354976
   4.8841261722    1.4835689975   11.8443050349
  13.4093919645   15.5212524966   18.8830524900
   6.3595414375   13.5369322753   16.8162944034
  11.9803196777   14.4233940585    8.1223111242
  13.4817641255   16.4538327046   10.9266864877
   5.5257045859   13.8565109749    1.4863619363
   2.8481379279   15.7415787221   11.4521497106
   5.9681496405   18.4541054125    4.2574941132
   4.0645691321   14.5822055498   11.7746860897
  13.2628919742   15.2473434193    8.9423109850
   3.8261996600    2.7492503106    2.3154482695
  -1.5474311537   15.9885225846   12.8614326460
   6.3386280031   15.2436538286   18.6575583922
   3.2018774290   11.8560987896    2.7317326679
   6.9182805438    0.7589725235    5.2719717829
   5.3719961447    0.6663167024    6.1441422205
   4.7051189427   13.3766150956   16.6014788999
   7.3213341762    3.9091752472   17.1020496969
  11.6877666265   18.8850341274   12.5049861077
   3.3800784202   14.6867549095   15.4203429733
   4.8102757850   15.0537860256   14.5891918976
   9.9221134391   14.3580171334    8.9343328747
   4.2209412695   16.2772787492   12.3874323955
   6.2016519437   17.4494599624    2.7578196372
   8.1468484570    0.8249512371    2.6352418745
  -2.0253242150   17.5979670334    9.8993491281
  14.2800812857   18.2419760263    4.1358677420
   6.0560358165    2.5222085154    2.3561073805
  12.7159430523   18.1162188966    3.0820659394
  12.7600010874   17.5032409916    4.6109656721
   3.3102337478    1.6944045439    3.6094598369
  11.8188108223   16.1984538827    8.3752018573
  13.6171044182   17.4520346300    9.5219858565
   9.5989805248   14.4853732654   12.1353199684
   1.3093822141   18.3737774146    9.1029984084
   2.6279511159   12.1254799582   10.9737641404
  11.6018706873   12.8612966508    3.2603671802
  13.2766257955   12.1535825048    3.5455027427
  11.4936362069   18.1301906007   10.7953163378
  12.0857404264   16.7424541314    0.2997156981
  11.7998392654   15.1742322042    1.1919161311
   1.5558720846   13.4041854248   11.7380407256
  11.9907977426   17.1386313904   12.2910675569
   0.9025999935   12.1155475080   10.8932486838
  12.9832840237   13.6792234438    2.4408872865
   4.3684916874    2.8796982338    5.9449741959
   9.8575882682   15.7595799229   10.2597176291
  -1.5743366265   13.8080988575    7.7539113059
   9.8129793911   11.1855757684    9.8142218417
   4.8812854106    2.7268805888    7.6486602621
  13.4511301024   15.7584265154    1.0130158022
   5.8085989776    4.7183226912    5.4398730209
   6.0887519548    4.9758453392    7.2494284885
  14.8929840470   12.0095475045    7.6121864415
   4.9883461241   19.4482613820   13.7694272953
   0.5702739861   19.4542407389    7.9398112632
   1.7001331530   18.2557045914    7.3633108405
   8.2993078791   14.0643874428   10.9740835499
   4.2198620839   16.7799048634   16.0989358650
   2.8187617240   17.2848906889   15.0757762995
  -0.2201521159   12.8436813805    8.2928776359
  -0.7054546679   11.0362899782    7.5557652178
  10.7628270014    2.1547487081   14.3311084765
  14.0600863686   15.1144552447    3.4717571913
   5.4248611389   19.0650603026   15.4380505888
   8.9439252345   12.4610510707    9.1544067220
  15.0900119896   10.8007741276    5.6086578239
   3.5724076311   19.2141924714   15.0447139596
  -0.7897954103   18.8848306435    5.8151274931
  -2.0459340175   17.6780407353    6.1457886821
   8.0364434675   11.2528493704   10.3504833843
   3.7145686088   12.6836037653    9.0327667835
  -0.8854430012   14.0935981112    9.2191088598
  13.9664007129   15.3508500638    5.3603516452
   3.5126052793   14.5368752597    9.5046061349
   0.9469906389   16.8557199644    6.4083490514
  10.7836942379    2.3518539642   19.2850283966
  14.4970240856   10.8928459106    9.1043251484
  -0.6394090300   15.8778374294    6.7691546308
  14.9127663551    9.1055287021    5.2426433520
   3.3965174806    5.8423868598    4.6110615306
   7.5618292435    8.3588136238    4.3389256911
   4.8236790617    6.6964281471    5.0716878409
  -1.0212423515    9.9003778994    8.7749576247
  15.3832043044   13.1331377116    5.3852909920
   0.8392847883    7.2414463809    3.7659546932
  -1.4569758951    9.7919037024    5.1051537456
  -0.1062271411   18.2032900708    2.7091033021
   1.0933965575   17.5905016786    4.1508256272
   2.5497501594   15.3535189453    7.9214604093
   0.8751109964    7.8909425641    2.0439542271
  -1.7769561975   14.6469368885    4.8972661056
   4.1902210779   14.4257164704    7.5083620222
  11.4757799762    5.8658473285    3.9820046778
   6.7230988366    6.9663306650   17.2688041938
   3.2504559625    7.0378430179    5.8648675627
   1.2525650935    8.9304226895    3.3266007392
   7.0761367477    7.1242545007    3.3262878169
   7.9054133870   16.3671061063   17.6804891398
  10.8920987767    4.5000707553    2.9827194682
   7.3352640969    6.8388174395    5.2011796765
   0.5933726348    4.2102136874   11.6168542658
   7.6564415541   18.0971531528   11.2555401139
  11.3353382937    9.1355139703    4.0496228741
   8.5559661574   15.2603349110   16.3319418914
  13.7788973327    6.7008031510    7.4721287684
  12.0340515756    7.7282083012    3.4189199493
   9.1905465390   19.0806745216   11.1745079166
   0.2311615102   19.1969799944    4.2275195130
  13.8995040188   10.4685399911    2.0045089785
  12.9971728263    5.9548538892    1.8349339397
   8.5578772763    5.2389116662    3.0789485790
  -0.4208396095   12.3032120122    4.1354453244
  12.4305491140    9.2828411530    1.7362956405
  11.9299724071    4.9056999199    1.0173757401
   9.5047757534   15.8633458241   17.7140129916
   9.1206930816    5.1958946360    4.8022548922
   9.1733600862   17.3692398066   10.5420780823
   2.7554287768   15.3099630749    5.4795586663
  -0.3733857658   14.1085829864    3.7714539027
   9.2097683505    9.3313489072   10.8514595352
  14.9428712534    7.3531241588    6.5862384800
  -0.3133853046   12.7115297736    2.5201609226
  15.3838009585    7.5160944397    3.7422638916
   3.7426729659   13.8179171179    5.0155340129
  14.5980362825    5.4968744150    6.3850563060
   7.7528266181   18.7486127898   13.4868661645
  16.6966874026    6.3232646483    3.9936612018
  11.4739058508    7.6022533238    5.9921213846
  14.1008913790    8.9006498386    1.8929899798
   2.0595688277   13.8971173553    4.6477257705
  12.9312648138    8.6333280368    6.1671305974
  12.1329749473    6.6605030278    0.4588872984
   8.8526223614   12.8123259749   16.9859949915
  -1.0250494044    8.1765915079   13.9235361801
   9.0928517459   11.1807487112   18.7576697970
   7.8945670256   17.1535799218   14.0531192367
   9.9189483083   13.6125980274   18.0281548790
  14.8912664405    5.9603828504    2.0324317356
  10.2723348330   17.8508226241   14.9957376200
  15.8377244300    7.2556076076    1.2533364027
   7.5647935412   11.8526293189   18.9896112363
   1.7474182096    9.6812910869   17.0847676242
   0.3978621226   14.0529598840   16.0616997211
  10.0729477650   17.4243172955    5.7927459238
  10.7806776440    0.8464916198    5.9221837598
   5.1457483939   10.4653854091    8.5953180317
   4.5377535879   11.1936720743    4.8400277393
  11.3729236571    1.3217564011    7.7307116663
  -1.0990905166    9.5992004570    1.0177086559
  15.5275428237   10.7413110227   18.5472820082
  14.1267729521    4.6902834224   12.0250720959
  16.0052427957   13.0753360040    0.8082761776
  14.3689170600   12.7292799981   18.9418453868
  -2.3212410295   19.8788701034   12.2607382557
   3.0294664514    1.2676366885   13.0863309929
   0.0264593478   17.4137203338   13.1519150150
  -0.0547764890    0.7796423946    9.8053357861
   8.6102890307   18.4014604776   15.6974961399
   4.5846441207   11.4938450713    7.3808036429
  15.4439057986   12.8873734124   14.8488860732
   9.4954593855   17.9709005474    3.6955334865
   2.6552353798   10.1758188174    9.0466933317
   2.6707359777    9.0916166884   15.5443391413
   7.7652141134   18.5120773040    5.3044934640
   0.6880795243    7.4054388327    0.1719786802
   1.4957646638   13.6641197460   14.6953188468
   9.8946934319   11.1298979663    2.8610868583
   2.1618838005   10.9476815443    7.4572000398
  14.1006222832    0.6129175162   13.8496376742
   5.3960851060   10.4889738250    3.5652697286
   1.9888826330   12.4270020046   16.8536369802
   1.6599155349   17.9611062495   12.7881012991
   1.3623361001    1.3250725787    8.8876238734
   9.2088103747   16.0952875787    6.6926166257
  -1.5575031698   12.7809642516   16.3598101801
  15.9688309828    4.0401449950    0.7895876419
   3.5119019353   10.2962041720   16.6289203253
  15.3633356182   11.5267742897    1.2362498178
  12.4178358546    0.4201410451    6.6108175975
   4.4846722223    9.4343225604    4.3527720744
  10.1332417999    9.8068926102    1.8757568217
  15.7779279043    6.0784453857   19.2093949535
   7.0596034565   10.2757889334    7.1532243831
  13.1621796736    2.1764633352   14.2523612429
   0.1453962518    7.7175238558   17.9596902040
  10.6105352962   16.6403982793    3.2291217610
  -1.4832963520    8.3091958831   18.1029660677
  -0.6199700143   19.5401952668   13.8290130480
   0.6982567346    2.0512426444   12.7557145670
   0.6466517501   17.0241863273   11.5532447527
   0.1378159736    2.5875053432    9.6001205187
   1.2873178712    9.5340740135    0.7352128092
  -0.1382048892    4.2741947961    0.7520645540
   0.2452481262   11.5865526539   18.7842256885
   0.3870415103   11.4885028588   16.7039039772
  13.7457687431    1.1569243064   15.6053527434
   8.9735200471   16.6595804162    2.6109901986
   1.7534633867    9.3993910995    7.6354981711
   7.1054950056   17.1725141589    6.4061713389
   5.9758395222    8.8046184224    6.7358603624
   8.6113320509   10.6281528249    1.7067492581
  -1.6047529661   14.3170165587   15.5181254743
   5.0391516045    8.6156964188    1.3661018983
   8.4487463648   13.8138859299    7.0937059716
  12.6312974464   12.7067972908   13.9884925885
   3.4717815013    1.7061551092   16.7753688095
   1.3556820133    3.2770705980   18.6201958434
   0.7247229083    5.9012362446    6.2730654857
   4.4956061722    5.0340285771    0.7879701918
   0.2233020864    3.4915904567    4.8909406261
  11.0641296277   11.5163075263    5.7371099082
   5.4313621927   17.5370307980   10.0924159921
  16.5668885555    0.7783311168    1.9827397195
  11.1156928839   11.6624076012   16.3553188258
   3.3780949108   16.1066212830    0.4103728600
  12.0689577748   16.7677375746   16.0544048400
   5.3699055632    0.6469266849   10.1070532586
   3.0592601987   13.9136633839    2.3787651375
   7.5268125914   13.5675287183    1.6934346413
  12.6769005861   19.4828368780    4.7509955985
   5.3565441708   13.3585588815   18.6293676492
  -2.0262653470   15.8733571416   10.9069923462
   4.3111660326   18.6300785160    2.8800876724
   4.9102716666    0.9114544510    2.1630040515
  11.4070434459   15.9762446359   18.5867813291
   6.3498027307    2.5530818135    6.1916702905
  13.4492513532   18.4803705795   11.5437722321
  11.6031995394   14.6892295230   10.0850655845
   2.9905161273   15.0897338836   13.4223496503
   4.5115673562   17.6348179239   14.1668819780
   9.3064333158    3.1684562874   15.5615461753
   9.0280020520    3.1300435695   17.9640825136
  -0.0879455120   17.5021561641    8.0036880793
   9.4861765447   12.4940529813   11.2912117667
  12.8074484225   13.9113326727    4.5509372850
   1.7803702547   13.4471987137    9.5700907167
  -1.9805555337   12.3953218657    9.4267124142
  15.9094486905    9.4546139486    7.0512883888
  11.0729353823    2.5084898099   17.1108087179
   4.1984356077    5.4478908044    6.5767525974
  -0.9745034347   17.5222426443    4.4811092621
   9.0390149792    7.0632783433    4.0090809227
   7.7185805857    6.4784312856   15.3625534933
  15.6858913869   13.1005458548    3.4192893976
   2.5084832341   13.5061660058    6.6377639094
   8.9117021808    7.4423283629   11.6182300249
  13.4206871111    6.8159461421    5.3404890181
  -0.9010217244    8.3787359757    3.2940897985
   0.1192586981    6.1989279565   12.2183647796
   8.0410040800   14.3314176272   18.1325311424
  10.8999269734    6.3803286206    2.1121866701
  13.2555389040    9.4033596633    3.6801709047
   9.2674740287   17.5602358532   12.6124043460
  16.2049897476    4.9860210278   11.3846724347
  15.7075000515    6.8862879428   12.6467779208
  16.7731298682    5.3937202924    1.8500641327
   1.9288852643   11.0364099542   15.3534183718
   9.5438644432   19.9142438740   14.4181135721
   6.2396805364   10.3379328733    5.3664426301
   8.3449960182   18.6575949902    7.2790504482
  10.1483619039   11.6975927873    0.8871186883
  -0.0529535056    9.6742283849   18.1982639344
   0.2181560073   19.0794314013   11.8828415423
   1.4973143965    1.5755812686   10.9295204753
  -0.7029994307   11.5163974683    0.3880525093
   9.0315410603   16.1128038130    4.5295674839
  -0.4391616675   12.9043014781   14.5257611931
   3.7724641304    9.6519674870    7.3093569629
