B2 C140 Ca1 F48 H298 O66 
1.0
1.8706047163699022e+01 -5.9840691807374160e-17 1.4695436793048993e-17 
-7.6330514078621681e-01 2.0154587913369493e+01 -5.0098036893284815e-18 
-9.0758814035293112e-01 6.2572565688227000e-02 1.9962124051119670e+01 
B C Ca F H O 
2 140 1 48 298 66 
Cartesian
  10.3582842959    2.6057001182   17.1314599316
  -0.6296491558    5.2266131564   12.5195371280
  17.0687797918   18.7412346703    0.7309993696
   9.7841583706   14.8063999719    7.2365702835
   6.0415697169    6.8776673454    0.2371680086
  16.0140397013   13.1238321285   13.1172473824
   3.7743139309    2.5369216102   16.6704140700
   2.4204807113    0.5198950758   19.4753494273
   1.3879498838    2.8459313613    3.7291635120
   3.0752392531    0.5590730177   18.0142698871
   0.2190772534    3.1816957089    5.8192509565
   4.2646893954    5.2635417386    0.2542170158
   3.3073648915   16.3727851791   18.6389026028
   1.0742439087    2.4928924266   18.8683180702
  14.3363610240   15.7848899690   15.7036891084
   6.4826206153   10.5542694508    0.0886532354
   7.5841188554   16.6613238757    8.9331688537
  15.2117960145   11.2000651227   16.2068181369
  10.8913848410   12.1696502056    7.0606728158
  11.8084009596   13.3992962727    6.8185907794
  15.3075844682   11.4764485507   14.6933640175
   5.5020454830    8.3216413476    0.3516708844
  12.9925406461   12.0469871099   16.5419987334
  12.4816641387   10.3854437626    6.3054745877
   0.6711103701    4.5632207530    6.4082562864
  -0.0385591429    6.7835009955    6.7703873366
   5.9517943887   18.3277994421    9.1651035633
   3.8760099191   17.0111675075    0.9508506255
  16.4038629099   19.9506805945    2.4888554147
   5.3665393193   19.2570455979   10.3333637866
   3.3980863391   15.8653048935    1.7260759681
  14.9722044379   16.8651789834   17.7411479019
   4.8874061732    1.1872993397   10.5994402805
   9.1797205807   12.8155036840    3.8232126734
  16.2364127311    0.0963059513    3.6529273634
   7.7789200855   13.8577285784    2.2127772800
   7.8630438345   14.4813452116    0.7988792976
   1.0493391713   15.5592663539   10.9135841132
   4.1780849395   14.5459113683    3.5324566212
  15.3662667467   15.5878684228   18.5716363254
   6.5592380564   14.2589383641   18.5296632299
   6.4970859739   17.4011032371    4.8152814633
   6.5797108770   19.2873655307    3.3070538591
   6.8775919796    0.5587788136    2.9388364388
   5.1296814596    2.1276835842    2.7946469573
  -0.8277415434   17.0160516893   11.2879566867
   5.8424812259    1.3349955145    5.9730588650
  14.5230078903   15.0834751651    9.3682036802
  16.4553862175   17.2577073970   10.8218882050
   5.4955320875   15.4813840111   12.4875788181
  15.4224932261   18.0107054207    4.6313293101
   7.0501972786    2.7821601933   18.3088302262
   8.5189394354    4.5207863660   19.4346412151
   8.2640649100    3.6181815367   18.2049665762
   5.5773173186   15.9758243269   14.8904765764
  14.8890764144   18.9979346148   11.1724932972
  12.5166605509   16.2096585551   10.2318977481
   9.7189433905    2.1710379915   13.5585285658
  14.8243914715   15.1764792660    0.4144971174
  15.1906213410   12.2996607201    6.4443910247
  11.9499514475   15.3783984075   11.4338479293
   4.9137809996    3.5192252721    6.2415777207
   2.9702144143   13.1980891596   12.5031588781
   5.2180926978   17.4235390771   15.2639451626
   2.1867244028   18.6235077897    8.8902092465
  10.8006138399    2.2440184176   14.7002515483
  11.9707473644    3.1670850103   14.3668009524
   5.1552860794    4.9102124744    5.7148647445
   6.2777220987   19.5298020001   14.9289290668
  11.1186240034   13.3012387411   10.8257040767
   0.4216414600   12.6218521096    9.0630143039
  17.8544289192   10.7331885964    8.3126590569
   0.6662735650   18.3732740345    7.0554540372
  -0.2037028450   10.4046935799    6.8983203344
   7.0045928688    6.3474538469   15.1234220890
  16.0831338174   14.3510037830    5.4873517749
   1.2831005537   19.0548141969    5.8601258150
   4.3587473520   12.6533022143   10.5602952115
  18.0444208101   10.8207141803    4.5017827855
   4.1725751127    7.0538328839    5.9734874203
  11.9494991142    1.7356006873   18.7929175566
   2.6709009522    4.0696387534   13.6372544893
  11.9436744020    0.1106430466   18.8034922254
  17.3049155778   14.7640903918    4.7541093394
   8.1500952139    6.6197805170   16.1600510291
   4.7482875078   13.3525522907    9.2821626808
   9.4558996425    7.8557133670    5.9517539257
   2.2470170258   19.0182496755    3.7361876092
   8.5476581277    8.1401977491   16.2786197221
  11.2817640630    7.3539503730   10.0171981592
   1.8131648448    6.6781399218    2.5235061409
  13.1544045339    2.4511171144   19.2608170314
   2.4990350891    4.8012270085   11.1590682716
   1.7501286780    4.2071481773   12.3849454678
  10.9806707520    5.3202086536    3.6453045524
  10.1653237568    5.9069400193    4.7473081990
  10.3415431572   16.6234622562   18.7754100922
  10.4595297294    7.8255417205   11.2145984460
  14.3759341318    8.0379987679    4.0757779581
   9.5243793546   18.1419270057   12.1076175263
   0.1255027343   14.1789815549    2.9326920539
  15.3079846494    4.5421777156    5.0929913888
   9.2754902528    8.6188285471   10.6211719777
  15.4423739720    9.0342882015    2.0825375205
  12.3840297375    6.1961794109    1.7865125917
   4.2266184644   14.6221371728    7.2894076582
  15.0425225785    7.0577487787    5.0802843153
  18.1505375662    6.6825034834    2.7415854062
   9.5428247149   18.0207642675   14.4533768935
  10.4784770212   14.2616555662   19.0048528629
  16.9470137694    7.4318628988   15.0776675576
  -0.8225842634    7.1892809764   13.9224632300
  17.6510778697    5.9744419231    1.5007413507
  15.4672535867    2.9779655171   12.1095783419
  10.9927029994   13.1779636618    0.0103570253
  16.0290949270    4.1570882641   11.4249441890
  11.0488162101   17.9071027049   14.6735607787
  15.6819368749    4.1651979318    9.9105612485
  -0.4683069071    8.4176758384   13.0429855488
  12.6797529846   18.6809965231    7.2549199122
   4.5987777975   11.4296795488   15.9241100439
  -0.9923511540   10.5329227194   19.4650195239
   2.0359012291   14.0121105646   16.5274575517
  16.9105481529   12.8311710875   19.5033832390
   5.4851362113   10.6982875267    6.3730942044
   6.4702291372    9.1829390778    3.8947809007
  11.0413854766   17.4025215232    5.2210323956
  10.4837571659   18.3581961970    6.3190918372
   2.9916061142   12.9446392854   16.8863488143
   1.2769525262   19.9656646304   13.4662108236
   0.6125450612    0.4109392490   13.1171445836
   2.8179066009   18.3501078904   12.9224935040
   1.0227671302    0.7266141986   10.7328355423
  11.5930334845   11.6280388614    1.5596227209
   3.2610232478   10.4759729654    6.8333820106
   6.7359749676    9.8750029568    6.3161942257
  12.9968936115   19.2631078194   14.4033430210
   0.5095182005    7.5095776400   19.0401585047
  17.3801724790    3.7355191643    0.8362490594
  -0.0235353553   13.1265186833   15.9169313422
   0.8733808310    9.5126414992    0.2359050599
  10.9905233444   18.4254055721    2.9954317256
   9.7872446852    5.9227950176   13.8427574721
   6.7389826431    2.2706731346   17.0081383642
   9.8103301780    4.5773454030   19.6718729462
   9.4273274572    3.4054493415   13.0970400195
   6.9945550667    1.8007648170   19.1873469990
   8.8838620545    3.8955164505    0.6217771248
   6.0943463246    3.6756548849   18.5186267510
   7.9011745282    5.7170927706   19.3332722246
   8.6337357197    1.6303215756   14.0529459959
  12.4304764907    3.0256835811   13.0892292159
  10.0876201922    1.4863553144   12.4308079394
  13.0396251834    3.1209369640   15.3162065381
   6.0812947515    7.3955311335   14.9174619849
   6.4644244851    5.1405537864   15.4213566206
  11.4745705083    4.5088450437   14.3591960514
   7.4684045929    6.1717097776   13.6535038799
   3.7463332370    3.3115726377   13.2316620721
   9.9636726322   19.9991690364   18.1321004118
   3.0164644461    5.3089955524   14.0528294942
  12.2067952422    6.4142791746   10.4467493540
   1.6952650498    5.5732057996   10.4189176112
   9.1067783133    8.5441023923   15.0431482924
   9.3967215977    8.3515557491   17.2840534593
   2.0042887533    3.4581402222   14.6724361775
  12.0687662955    8.3626414621    9.5120402124
  11.9859014742   19.7069333333    0.0702743481
  14.1442050932    2.0018514444   18.3596846070
  12.2120523147   19.8070040004   18.1561648289
   3.0287311272    3.7398372169   10.4434077109
  10.6860131148    6.7223819972    8.9913340909
   8.5639488861    9.2936006096   11.5521172608
  14.3145632517    1.9281150699    0.5580051424
  13.1304805543    3.8209566872   19.2966782277
   7.3566916453    8.8844107741   16.5363548364
   3.5049719681    5.5639819031   11.5610546592
   8.3500101397    7.8451181908   10.0055125624
  17.5704638338    8.0862832833   16.1599766430
   9.6833077538    9.5973546323    9.8132626261
  14.2978267516    2.5456743260   11.5686776876
  15.9288366663    8.1790374889   14.6907828332
  15.8579125092    2.9068028186    9.4231588402
  16.3303082297    1.9229227199   12.1764098408
  16.3934393542    5.0834293888    9.2105254237
  16.4940057674    6.2342867605   15.5238052404
   0.5933853083    8.0247685408   12.3365337057
  15.3914380608    3.3012636887   13.4410030695
  -0.1296088296    9.4672140078   13.8707705212
  14.3830207357    4.6188637866    9.6528388057
  17.1573747557    8.6507312995   12.1922634068
   0.8598974207   19.9230589653   19.5321017174
  16.1974268753   11.3466598649   16.6557603358
   1.2084211470    3.2396135985    2.6933829134
   7.0502295561    6.9551898664    0.5810134630
   6.6532432224   16.1382974341    8.4902284970
  10.8294296455   11.8472216020    8.0754607243
   5.0801006102    6.8084096822   19.1424985893
   4.4242355971    3.4361466216   16.9066316185
  17.9529069150    2.9118609989    6.3835025488
  17.6464628883   17.9778819003    1.1730854697
   2.1319074278   16.5236731002   18.6072399356
  17.6878237997   19.6156909542    0.6473504090
   9.8073046747   15.7993145945    7.6555268198
   0.2621679538    1.8532413863   18.5987083079
  15.8166915283   18.3928767742   19.7055862617
  15.0497259625   12.9913979433   12.6266558470
   2.8043186624   19.6893457774   17.9349299528
   9.0291190131   14.5892234451    6.4619745330
  15.0441602343   16.3985356076   15.1983206828
   4.8953242024   11.1274926596   19.2842088724
  16.6872911238   12.4615133843   12.5177176669
   3.5223558790    4.8248416217    0.9555323084
   2.7344503843    5.8857705389   19.4484292621
  13.0942946494   11.9708454054   15.4836713266
  13.1107909631   11.0418166523    5.6280207708
   1.8295794740    1.8404142377    3.6837531137
   0.8485557396    2.4161600643    6.2902162974
  12.3079242413   13.5332435144    7.7696449855
   2.8271957461    2.9365633163   16.7302881842
   6.5295194893   18.9993687206    8.4772167618
  14.5935219947   14.7527394952   15.8041751171
  14.3020222770   11.5932673315   14.1750097694
   3.7398362823   15.2649244037   18.5221727764
   3.7498680185   16.8553916438   17.7674556168
  13.4781722437   15.8997505460   14.9970592375
   7.9974323350   17.3092490397    8.1253143929
   1.5672239493    2.8401877196   17.9157232266
   4.2912210530   17.7889507310    1.6881578340
  17.8229295146    7.3632752797    6.8378715239
  15.0210792094   10.0572482971   16.2876884603
   2.2314053584    3.4300715765    4.2710145773
   8.2991251721   15.9600230922    9.3608927546
   9.8414700143   12.4022745773    6.8563871629
   6.5833354181   10.9755294023   19.6648861392
   9.6863070520   14.0959856505    8.1469144611
   6.1855330067   11.0227126228    1.0186774576
   4.0330617761    4.6498285457   19.6665964031
  16.2902794171   14.1748291586   13.1145199094
   4.1819089086    0.1943586257    0.2068313353
   4.0416905565    2.0140326496   15.7736954433
   0.5705804498    3.3068828072   19.3897142497
   2.3729723881    0.4462514543   17.1063359566
  17.2992591907   19.3675166592    2.8493727263
  17.4528691397    0.7424294764    2.0213819381
  12.5988804333   12.9702377498   16.9524439126
   5.1869362860    8.4839777286    1.3997274944
   3.7025950809    8.5554816689   19.6430028540
   0.7163722138    7.3410809504    6.1269419699
   1.7116648267    4.9281580132    6.0826362182
   2.9647310426   17.4124607448    0.4597960986
  12.7443501791   10.3470370654    7.3930733038
   6.1038343389   19.1503586081   11.1569485312
  12.4625302642    9.3511902385    5.8142247769
  12.2792251524   11.2364031567   16.8410894142
  12.3063656370   13.3139259724    5.8284782415
  15.9001116168   10.5840348714   14.2668678473
   5.1321273749   17.7180523212    8.5832916808
  10.0811242861   13.5103734925    4.0738269536
   0.6146250354    4.4676067975    7.4613621292
   0.2971464923    6.6672259707    7.7857814481
   7.7979651301   14.6910662989    3.0699515972
   5.4704308298    1.8032569754   11.3340232075
   2.9358556348   15.1850517106    0.9885575913
  14.6462402685   17.5780282647   18.4784554664
  15.8804430358   17.2715150770   17.2209168473
   7.2984944760   15.4558418133    0.8787197145
   1.3598757149   15.1960247403   11.9162151823
   9.3881622410   11.7449255437    4.0007361363
   4.2856828205    1.8529301071    9.8998413063
   4.3356235930   18.7606291863   10.5955575689
   5.9910428072   15.1304767228   18.4635290967
   1.4498749471   14.8381178924   10.2673338700
  15.4258299293    0.8012404467    3.3547154413
  16.8084913530    0.7140087309    4.3990196082
   7.4502949912   17.5238245049    5.2794216284
   6.5159424814    1.0564183404    5.2697594702
   6.0214731069   18.7077365786    2.5270258356
   2.6741401636   16.1659638427    2.4552701243
   7.2523065864    1.3204855748    3.6490566163
   3.9362916421    2.1115186500    2.7200584190
  -0.6611094946   16.9870148820   12.3502071647
   3.9129131235   15.1625783642    4.3729234132
   3.6309092148   13.6049307658    3.4177723879
   8.3906510024   13.1505340928    4.5270150756
  16.0303157756   14.8425266307   17.9355507203
   4.1229437088    0.6626498181   11.2377943654
  16.0690431253   15.7390779099   19.4736070095
   6.1354496195   13.5606467127   17.6575377543
  14.0639135858   15.0551925391    8.3815078680
  15.7420063356   16.5445758756   11.1611824925
   6.9074755925   13.1701981139    2.2381969235
   4.7945714188   14.8860334601   11.7735762414
   6.5609044377   16.7718563446    3.9222043729
   6.5324389069   14.9076803620   12.4535145609
  14.3373723855   14.0047984347    9.8047927737
   5.5755789294    2.7481338394    1.9163554077
   1.6030042522   16.5673259389   10.7529275489
   8.9746103590   14.7242226924    0.7471006228
   5.1770431012   14.0482378114    3.7716140147
   4.7526603008    1.1404345825    5.6580335729
   6.0305531503    0.7794897570    6.9410138763
   7.6439538045   14.4644210321   18.2615678427
   8.1341430640    4.3007216302   17.2690080378
  14.3976541105   18.1057841173   11.6126737045
   5.3411573301   15.4799679861   15.8952850971
   6.6597911017   15.7958682584   14.9451309371
  12.1602517851   15.8452923341    9.2255277297
   5.8583344178   16.3742633252   12.0469239272
   5.7492175842   17.0729500269    5.4723233087
   7.6663808229   19.3057153257    3.1872769849
  -0.2095018465   17.8142408082   10.8797134552
  16.4039936995   17.9756883018    5.2711204800
   7.5188589449    0.6754704430    2.0178213816
  15.6032513081   17.7411859765    3.5459275941
  14.8202907034   17.1472509647    5.0598563215
   5.4353407634    2.5970227269    3.7301598462
  15.5748115029   15.2236378476    9.1631633938
  16.2984563801   17.1497856265    9.7049105018
  12.2208072912   15.7412942583   12.4298261029
   2.2461824872   18.8936634006   10.0060507585
   1.8877820751   13.5102616130   12.6466578448
  15.5153829206   11.2286105766    6.6367243822
  14.5707991260   12.3200171685    5.4786646512
  14.6951863983   19.8766738053   11.7634282336
  13.8634997482   14.7166503726    0.6387974187
  15.5458484300   14.8886292475    1.3213561448
   2.8504865053   12.0854331140   12.6207970814
  14.3613521372   19.2525230774   10.1671553361
   3.6133616601   13.6327240827   13.3545413575
  14.6518554860   12.6131277398    7.3555643488
   3.8980938446    3.1447080206    5.9645223326
  12.4155382022   17.2592813027   10.4078206436
  -0.3282461866   13.3571064993    9.3149545431
  11.3966093859   12.3200118677   10.4478504700
   5.1028328150    3.7109975356    7.3526756931
  14.7912832661   16.3750097391    0.4544418378
   5.1131193068    5.1533656139    4.5719031251
   6.1824777066    5.2053305204    6.0404616013
  17.0845167999   11.4980142061    8.0181105914
   7.3548071611   19.8453536543   14.7407152712
   2.9189974049   19.0539175244    8.1587717493
   2.2910476368   17.4846685304    8.8107711357
  10.8104858897   15.3563348792   11.4081376929
   4.8925136610   17.4640987410   16.3130086147
   4.4732341940   17.8187484696   14.5228089296
   0.6577525700   12.7165644575    7.9542618965
   0.5121266672   11.1889611471    6.8631098464
  11.0895539720    1.1907548579   14.8701990478
  15.4075538567   14.1454044340    4.6526964157
   5.9276901269   19.9734722165   15.8686462645
  10.7767473427   13.8293501497    9.9656111227
  17.2279407953   11.3244509799    3.7945289179
   5.5954482039   19.6959965316   14.0484579722
   2.3367783084   19.2416336293    6.1615196505
   0.8158607026   20.0999719975    5.7064324680
  10.4067420780   13.1659577388   11.6374768586
   3.9247568776   11.6461727618   10.3217403646
   1.4129704170   12.8145409061    9.5422023266
  15.4553814136   15.0368791686    6.0451209187
   5.2894553291   12.6743818137   11.2573732106
   1.0236333468   17.3122867355    7.0493707128
  11.2877122346    1.9747340462   19.6088174438
  17.2764317540    9.9039260166    8.8395803912
  -0.4736747230   18.3876369745    7.0232210502
  -0.3161543513    9.9425221534    4.0596368736
   3.6892095452    7.6157012360    6.7314602658
   9.9143044774    8.9189769910    6.1067151849
   3.6100743942    7.2361758410    5.0290593482
   0.3677838168    9.4863988404    6.8639861962
  -0.4448588494   14.7054945663    5.3329171671
   2.1536387580    6.5767095143    3.5377691639
   0.1352556334   11.5721771764    4.3915303415
   2.7746060831   18.2418526797    3.1313939036
   3.1596123035   19.4359649307    4.3386228374
   5.0920789589   14.3383554438    9.5460839158
   1.8193071960    5.7197606135    2.0216357370
  17.3096269413   15.7440733652    4.3701065321
   5.6631068918   12.8103801608    8.9987561448
  11.8974429357    4.7881093730    4.0106978790
   7.5933875918    6.5448870302   17.2413919852
   5.2211262592    7.4290949492    5.7421259510
   2.5207045664    7.2884573349    1.9404858378
   8.6787477542    7.8376653388    5.1600525902
  10.9429899703   16.5120380961   17.9466264013
  10.4010539475    4.6636263890    3.0751641159
   9.1625656051    7.4826462593    6.9528573611
   1.4572654425    3.1314915096   12.0394540926
   9.0618147172   19.1349217140   12.2323785756
  14.6362075090    8.9781304375    4.3962375723
  10.5966785565   17.4718727697   19.2999151209
  15.4988700900    4.6370544879    6.1597500783
  13.2959749572    8.0023934766    4.0250869066
  10.6225200174   18.3348214438   12.0554451752
   1.8528311852   19.8337967275    2.9766330499
  16.4915997412    8.9479314021    2.0572558398
  13.5008113129    6.0778121711    1.8832159010
   9.1925049370    6.2588915415    4.3304400531
   0.8291997714   14.4275746535    3.7807437080
  15.2342115992    9.9852956697    2.5461258953
  12.1316357034    5.3011011367    1.2522380732
   9.2994558153   16.6746488209   18.4468792656
   9.8258625777    5.1563699448    5.5758597842
   9.2604914982   17.5764104385   11.2650493603
   5.2554032777   15.1281360471    7.5466756937
   0.1770024596   15.0351794837    2.2872007822
  11.0813887869    8.6156761682   11.6849357816
  16.2861639306    4.5265442610    4.6682872928
   0.2910669660   13.2940802722    2.1968296333
  17.3045477389    7.3717447356    3.0360390030
   4.2548550005   14.2428841614    6.2440938380
  14.7139374236    3.7762938994    4.6756662508
   9.1986911242   19.0675471614   14.3228037156
  -0.2910008929    5.9590326462    3.5354793860
  14.6526275115    7.3326561278    6.0424026726
  15.0061890769    9.0589809211    1.0783381853
   3.2788588478   15.2566753433    7.3826316840
  16.1726129011    7.0567302722    5.1033783083
  12.2678264198    7.1157831940    1.0295503986
   9.8524733501   14.2684765456   18.0157638979
   0.2285973907    6.9321764690   14.2650564799
  10.1103066223   12.2340384330   19.3982181333
   8.9565957233   17.5699399182   15.2540031347
  11.4609504185   14.0004605885   18.6242684747
  16.6057949971    5.9065576057    1.6874024156
  11.3798419849   17.0668509822   14.1590130106
  17.9398673107    6.4560827242    0.5133757730
  10.0084099106   13.2671595329    0.3854016054
   5.5167641524   11.7835087050   16.5445188094
   1.3172381080   14.3896486644   17.3960354434
  12.1414400549   17.4514449834    5.0657508806
  12.6837418354   19.4518982589    6.5067714227
   5.3868154943   11.2671277902    7.3023108823
   6.6595630015    9.8034916904    3.0713432057
  13.1788439964   18.9919568296    8.1774606373
  16.7683332896   10.0833033320   19.2620382704
  -0.6102770498   10.8878086708   18.4666062378
  15.4413844446    5.0278247337   11.8673735228
  -1.0662711982   13.6720461044   19.7365541556
  16.6652853425   12.5436996169   18.5584341915
  -0.8273199800   19.7432658869   13.1948832731
   2.8348602760    0.5564951027   13.7686082063
   2.4404952135   17.8513785108   13.8206950772
  -0.0332777535   19.8501693450   10.5519122515
  11.4066124749   17.7802381720   15.7399442382
   5.8266529727   11.5036435702    5.5588292414
  -0.6635240141   12.9446980910   15.0580128658
  11.2164745717   17.8498170283    2.0526689028
   3.5529374840   10.8934645953    7.7620759015
   4.2194283586   10.5604561686   16.5137437872
  10.5491362308   19.4199745268    5.9833683896
  -0.5218779615    7.2504301904   18.6676694291
   2.6060149413   14.9111476399   16.2526310635
  12.1118983868   11.1470136436    2.4451130838
   2.8883896445   11.3676079826    6.3344683100
  14.1229720999    0.1283675017   14.0077243581
   7.1352738959    8.2968093163    3.7616728859
   3.6556441114   13.5526530872   17.5225841376
   3.7731717209   18.8928916425   13.1972353278
   2.1563046962    0.7001298560   10.6883657912
  10.6942664048   16.3683982552    5.5042686535
   0.2045090351   12.1381472083   16.4062309806
  16.3596856343    3.5172094607    1.2458985551
   4.9658667745   11.0770712898   14.9357920119
  16.9801987211   13.1191773360    0.1451031021
  12.9943568277   17.6591514244    6.8901201796
   5.3807208333    9.0031309868    4.0175975899
  11.9615086311   11.0286012540    0.7274424389
  16.2296583814    3.9364474893   19.7363020157
   7.6210748225   10.4202378357    6.7849026975
  13.3791005214   19.0226832936   15.4373672123
   0.9459980352    7.1366168983   19.9600243307
  10.3024143574   19.2756040989    2.8255105157
   1.3727382014    7.1735397584   18.3762684317
   1.1726441608   19.2959328468   14.3241500065
   0.3983221180    1.1977557109   13.8130727333
   2.9952642759   17.7167086653   12.1468379306
   0.7148215633    1.2761791914    9.8214232947
   0.3906948125    8.8816898148    1.0419937530
  18.0064129936    2.7409311747    0.8270066665
   1.5717078115   10.0817986953    0.8476139748
   2.3449456083   12.0817978567   17.4274814527
  13.6435734690   18.5662771574   13.7775272812
  11.8907490887   18.8753706270    3.4496104451
   2.5967653771    9.5811420342    6.8780508140
   9.3854759798   18.0093179267    6.5103804837
   6.6284907389    8.8761130063    6.7876491359
  10.5410064520   11.3337147894    1.7167559150
  -0.5016482818   13.7085794032   16.6935288364
   6.5500758588    9.1778277202    0.0062715966
  11.0643848616   14.6371443618    6.6412488129
  16.0617376702   12.7541349150   14.5531902479
   4.0307346786    1.6258242849   17.8640007895
   1.9451167621    1.8439489460   19.9206648706
  -0.3650071885    5.5829625722    6.1403165708
   5.2385777571    6.0824211622    0.9721196275
   0.1169959851    3.0517454628    4.3850444439
  11.0737418454   11.0029893296    6.2631514421
   6.9895150257   17.5250165483    9.9002010961
  15.9255765099   19.1226302330    1.4691380145
  14.3982047960   11.9443748434   17.0649352258
   3.8464339245   16.8868593449   19.8656885090
  13.9385159263   16.5283352188   16.8350747543
   5.7939485638    0.3948269945    9.8063030692
   4.5145512312   15.2955858310    2.4267444424
   8.7627223191   13.0269742349    2.4930719500
  14.7314612248   19.2624254437    4.4350707436
   6.4394518743   13.6858443335   19.7697130254
  -0.3984872851   15.7173915664   10.7807733527
   6.0918989398   18.7506675117    4.5506182020
   5.5498066807    0.7162433490    2.6538820699
  14.2219482331   14.8919328463   19.0281958243
   6.0027146450    2.7810884321    5.8456761565
  16.1868397718   18.5900903141   11.2344569274
  14.0058329989   16.1028844943   10.1909554229
   4.9027900209   15.5463554999   13.7609743199
   6.5032456358   18.1486405292   14.9531419339
  10.1332974906    2.8794898920   15.7290099400
   9.4622738656    2.9211345418   18.0607103726
   1.0040463061   19.0968898022    8.2357130120
  12.3780314754   13.9452017106   11.4314058831
  16.3425364874   13.2187487991    6.2409902805
   3.3444102169   13.5127089198   11.1680147177
   0.0811072157   11.3051913540    9.2839197197
  17.5106942390   10.6788891782    5.8457694123
  11.6356445604    2.1322626533   17.4622109728
   4.1779001519    5.5988824085    6.3795361957
   1.3053130576   18.4093043509    4.6045040683
  10.5934561294    7.1013713488    5.3900495618
   9.1950267618    5.8322123049   15.9045212918
  17.5901576743   14.0177999234    3.5883627309
   3.9733118848   13.5291813661    8.1404877209
  10.0590152190    6.8648029858   12.0637565587
  14.6279341482    5.6769626252    4.6026728474
   0.5869112232    7.4226062441    2.4592939654
   0.6903651800    4.9803790050   12.9731213627
  10.3300935686   15.4755665001   19.6532446795
  11.3454314055    6.4302356997    2.8036028205
  14.7937586500    7.9011993117    2.7146519389
   9.2025568710   17.2889492574   13.2587753986
  17.4235919517    4.3664815774   11.6631712990
  17.3220951953    6.1993362332   13.0660668359
  18.2662514335    4.6660454785    1.4303455408
   3.6564840777   12.5563330625   15.7314449285
  11.5506960542   19.1313597280   14.1970377237
   7.2163536074    9.7760186650    4.9291139907
  11.2633931217   18.4636170419    7.4610856054
  11.8380323246   12.9447987476    1.2093838326
   0.5980144164    8.9107795438   19.0408910142
   1.6824860199   19.1110562025   12.4416932656
   0.4504935491    1.1814159864   11.9545163875
  -0.2795544073   11.6463116813    0.2140667872
  10.4727940262   17.4949130898    3.9364266437
   1.1700756712   13.7937489792   15.4378071177
   4.3415003926    9.9580991324    6.1344924989
