B2 C140 Ca1 F48 H298 O66 
1.0
1.9031922261984480e+01 -7.8545656501352914e-16 -3.2368988584444859e-16 
-2.7044116959299420e+00 1.9813762139802520e+01 1.7392014306380529e-17 
-1.0505944827766787e+00 7.3663918537532513e-02 1.9213888052772173e+01 
B C Ca F H O 
2 140 1 48 298 66 
Cartesian
  10.4289194376    2.2510858492   16.7019637475
  -1.2073168090    5.6033306565   12.0244869039
  18.7136868084    0.1476651313    1.2802339331
   8.0257073044   14.4108420843    6.8249420836
   5.7629077013    6.6600419201    0.9453485714
  14.2359489536   13.3679763178   12.6305764661
   3.9628484839    1.7229627016   16.1091190987
   1.9344569150    0.3169781053   18.7594799364
   1.1737456047    2.5498930841    4.7308124277
   2.6668221650    0.2555612997   17.4310087633
  -0.7230203902    3.3791452145    5.8546447565
   4.2971331707    4.8529022276    0.4017749907
   1.7325545774   15.7888464491   17.6717177549
   0.8314871255    2.4993467754   18.5391164305
  11.9846265146   15.2894310558   15.5137970695
   4.4325491841   10.0729197006    0.1983804598
   6.4146459076   16.7799251186    9.2487267733
  13.9666086484   11.8016359107   15.7973039753
   9.5094289870   11.6062301333    6.4304940005
   9.9583948577   13.1040452326    6.2169422349
  13.8873172304   11.8764989624   14.2850216127
   4.8499772437    7.8482360306    0.7495032258
  12.1306778763   10.8840741548   16.8189716439
  11.5339294651   10.2223481855    6.7274984293
  -0.1985610808    4.4326090159    6.8192015679
   0.0830227719    6.7765997646    6.7466633327
   4.7252023758   18.3992608124    9.3257647219
   2.4950804679   16.3499780304    0.7059618876
  17.1277211461    1.1245944911    2.9343745444
   3.8440661382   18.8482060611   10.5095831230
   2.2113059878   15.1612909254    1.6402094394
  13.6400364094   16.4356351658   17.0153902609
   6.1036959670    1.3855479894   11.1284892357
   7.7088571998   13.0016642895    3.6396432354
  15.7725921911    0.8009154491    3.5443219476
   6.5298591812   13.8276922599    1.7912108310
   6.5287073885   14.1255101874    0.3246697108
  -1.6007238319   15.1195934597   11.6649295381
   3.3690909121   13.4875170261    3.0112434104
  13.5889884683   15.2897071117   18.0037313642
   5.2849575384   12.8890417296   17.3553347913
   4.7790869976   17.4315889722    4.1167334125
   4.6005015518   19.6103070416    3.1542501152
   6.7541788173    1.1919232099    3.1845679813
   4.9336857300    2.5188283140    2.4475102701
  -2.3818956961   17.2530581768   10.8925149807
   6.2665370740    0.7124362046    6.7025928137
  12.9739986826   14.2369695346    8.4811417537
  15.1762090403   17.3298341860   10.6077232637
   3.5731849721   15.9303444181   12.0846746756
  13.4563742546   18.1380695679    3.8756810623
   7.2458325311    2.3329824235   17.8240852907
   8.4330330582    4.4412463088   18.8604354378
   8.3506358410    3.3560259478   17.7424054037
   3.9785364683   15.4621637486   14.3486112294
  13.1859134187   18.0260801072   11.5465810747
  11.1935725093   15.0785122246    9.7747132485
   9.4819525082    2.3968571600   13.0597049511
  14.0201788106   16.3273870414    0.9886173085
  13.9456482342   12.8821395192    5.1131692093
  10.5904147883   14.5425954107   11.0733106609
   4.9003350952    2.7108166137    6.7204790692
   1.2964133030   12.8520962982   11.3398574682
   4.2469827623   16.8822360804   14.8773538536
   0.9552772755   18.4278271001    7.9075031527
  10.6104192158    2.4468522989   14.2115108096
  11.7368247883    3.4135082232   13.8835069940
   4.9440851723    4.0629005403    5.9085146954
   5.3609092920   18.8250099717   13.9498534372
   9.7844225410   12.6420660383    9.8098877365
  -0.6163260405   13.6207260054    8.5063282237
  16.7788019305   11.9675370795    7.8835043599
  -0.4593715790   16.9325933001    6.7244483624
  -1.3201650573   10.9956113890    7.2065318515
   5.8725065638    6.3832931962   14.6958719390
  15.3904889265   14.5636067555    4.1611192213
  -0.9291990369   17.9831262708    5.6454283188
   2.6915856961   12.8617327279    9.4266651273
  16.7800933181   10.0671417650    5.0147299465
   4.0068596052    6.2578081829    6.0903651826
  11.9825856132    1.1886561829   18.0810433757
   2.1458687461    4.8183015602   13.0413599836
   9.8571669892   19.6342546834   18.3688610058
  -2.1534370413   14.5097408328    4.1297134156
   7.0630814654    6.7457595091   15.6446882777
   3.2121789296   13.7635716726    8.2968421130
   8.9284353706    7.8507384370    5.2047528567
   0.3300993126   18.6419017506    3.6857730302
   7.5826808555    8.1633894040   15.4203937456
  10.3628647432    7.4689133094    9.7358915764
   1.2948860021    6.5069494783    2.6224279654
  12.9617906432    2.3699937984   18.4700357065
   1.8910769945    5.0823190516   10.5164839864
   1.1473081332    4.7781260949   11.8814568745
  10.8791910333    5.1486457368    3.4474482113
   9.6778426040    5.6923200933    4.1817075371
   8.6848574425   15.7227685657   17.8463169787
   9.5401995513    7.9542513658   10.8970290060
  13.1721698415    8.2675764159    3.5155502363
   8.6904847006   18.3836315048   12.2669252951
  -0.5168672523   12.8456711752    3.5396910757
  14.8221922004    5.6751330357    5.6759588358
   7.9139564150    8.2878956032   10.3967039252
  14.4891090598    9.8334068541    2.1749374885
  12.2952054980    5.3526541400    1.4889117357
   2.3637455137   14.7227435848    6.3245321597
  13.6330860602    7.4711145563    4.8025929306
  -0.9493738878    6.7338018687    2.8608170985
   9.0752097357   17.7628877295   14.5051111435
   9.1145670330   13.3282409002   17.9529742725
  15.8551504307    7.6773109105   14.1056355295
  -1.7517110573    7.7226959095   13.4653310328
  17.1642243763    5.9104909522    1.9125648606
  15.5087113866    2.9235621060   11.3194929918
   8.5292947290   12.0322170167   18.4750240330
  15.9460720966    4.3452154126   11.1452681236
  10.5867877699   18.0740859302   14.3333098837
  15.5647362019    4.8237352049    9.6564750038
  -1.6007321148    9.0007865638   12.6218470418
  10.4291693217   19.1619880707    7.0163926850
   2.5979572487   10.0317240721   15.6344415913
  -1.9485359259   11.1918144605   18.7038465376
   0.5472760241   13.0311453046   15.2391759783
  16.6472976134   12.8914158502    0.1790098924
   4.6790768922   10.3223080077    6.4839967144
   5.7305093651    9.2761700444    3.9377099528
  10.1597041914   16.9881405163    4.9126592971
   9.1806040004   17.9446408630    5.5043386351
   1.5559716040   12.1602552963   16.0731415782
   2.2936009580    0.5865467793   12.7206447653
   0.9033097953    0.8310763710   12.1383101663
   0.9771715141   18.2494578774   12.5782922137
   0.7105969090    0.7707388561    9.9109611159
   9.8469211440   10.5586516135    1.2386784974
   2.3704837695    9.9227945444    6.4041242358
   6.0667517108    9.7033900890    6.2667432068
  12.2528782778   19.7938072950   14.7293436144
  -1.1324399038    8.3447631694   18.1235720615
  17.4178189174    3.9938374389    0.4211321182
  -1.6421392215   12.0698564392   15.4047386794
  -0.6832889977   10.5181240995   19.2108340558
   9.7974061540   16.9684017624    2.4020614444
   9.3371741235    5.9186786100   13.7170937936
   6.9585833567    1.9884535488   16.5144382828
   9.3739427145    5.3664288683   18.5764488518
   9.1630727633    3.6816407886   12.6518153817
   7.5952493509    1.2744344720   18.4371836090
   9.6574012252    3.8798664122    0.8856595025
   6.1477022738    2.9233795743   18.2749864374
   7.2741833624    5.1676119777   18.7403050823
   8.3449452774    1.8163529883   13.4610916954
  12.0879730595    3.5071783342   12.5434414613
   9.9803082678    1.6681561437   12.1218374935
  12.8282462709    3.0064619130   14.5573935797
   4.7021400136    7.0520805604   14.9090728347
   5.5293865035    5.0265006368   14.6898135433
  11.5311087310    4.6484137501   14.3145842553
   6.1590330701    6.6207785990   13.3609353969
   3.1173462600    3.8293161287   12.9567388396
   8.9571790314   18.6769569200   17.9906622074
   2.6690810125    6.0909385087   13.2238474683
  11.7223346033    7.0694388705   10.0516870711
   0.8541017442    5.0839429991    9.6350809748
   8.1977369546    8.4677806331   14.2844260212
   8.6051930505    8.3900738537   16.2724591481
   1.4813011089    4.3464145282   14.1473808403
  10.6347889760    8.5090711380    8.8632780094
  11.0382196238   19.5626791228    0.5236293026
  14.1939928426    2.1864804312   17.8930378686
  11.0109887016   19.4058729518   17.8103032336
   2.8905370132    4.2542730206   10.1851447059
   9.8047616878    6.3815603865    9.0922186126
   7.3167793744    8.6153456817   11.6197295009
  14.2672145848    2.5500232973    0.5785317621
  12.2936382134    3.4122001092   18.0264119719
   6.5469867292    8.9555562937   15.7094587411
   2.4885568997    6.2923017503   10.3540991907
   7.3041759666    7.2318854497    9.9190684162
  15.8143235360    8.8437737533   14.9197413533
   7.7278675450    9.3325849662    9.4940718965
  14.1386396503    2.7687025920   11.2416273609
  14.8936605156    7.7679895674   13.2363510373
  16.0236212711    4.0718069432    8.6469140250
  16.0946080323    2.1103912372   10.4477875305
  16.1509114901    6.0310560472    9.5204827592
  15.7778927693    6.6544713275   15.0105394006
  -0.7175676765    8.6572069975   11.6671093803
  15.9682174053    2.3998704220   12.4658035519
  -1.1568763312   10.0335338994   13.5062623304
  14.1593067307    4.8379239762    9.2908905558
  16.2844144217    9.3544725039   12.0108818707
  -1.5894132202   19.4268199858   18.6401032245
  14.6912780646   12.5732053424   16.0642651796
   1.3646709642    2.1528730222    3.6712080171
   6.4929728613    7.0008427872    1.7825481204
   6.5614004023   16.5390168259    8.1924881949
   9.2326176082   11.4280800259    7.5005067301
   6.6234119723    6.4201056245    0.2095952003
   4.4675004110    2.6581028941   16.3235230697
  17.3004433881    3.6028707852    5.5508892582
   0.5477558121    0.5723530829    1.8133927801
   1.3532892397   16.7315994754   17.2060440474
  18.4866581592    0.4807970002    0.2842206950
   7.6795367226   15.2710159048    7.4812731069
  -0.1653265789    2.0540224473   18.0530396393
  -2.6216897465   18.9009712574    1.1967318451
  13.3793720038   13.0368643803   11.9845091492
   0.2132079790   19.0473640712   17.1496094166
   7.9224890110   14.9560402959    5.7700484400
  12.6986185380   14.4249308710   15.5107837736
   4.0399209689   11.0395231838   19.1548870914
  15.2017932523   12.8033824306   12.5118420030
   4.1551500719    3.8751429280    0.7781502835
   3.2872373459    5.3974323771    0.1702662142
  12.5511387119   10.7501756035   17.8440064963
  12.0644120798    9.5462258735    5.9393781722
   1.2295370597    1.7177526421    5.3559510216
  -0.6381109014    2.4672153409    6.4494731208
  11.0450917956   13.2312531111    6.2763746901
   2.9845737724    2.1406452084   15.7179329950
   5.6871636183   19.0710031712    9.2432897322
  11.0030571600   14.9390227143   16.0889098006
  12.7754823654   11.5153569420   13.9115315066
   0.9278337447   15.0094237294   17.5352616599
   2.6017246475   15.3683550164   17.1737150569
  11.7972932731   15.6420440305   14.5337404201
   6.9398147266   17.7076132973    9.4599045959
   1.4178549716    3.0210915197   17.7430398052
   2.9514424870   17.2397726416    1.2072429558
  -0.3676203966    7.7311571531    6.3594950932
  14.4689224240   10.8771261730   16.1518092886
   2.0007515261    3.3080720624    4.7831003881
   6.6612633251   15.9045383572    9.8566736689
   8.5737246431   11.4478011154    5.8599787563
   3.9140022163   10.2845224304    1.1300457688
   7.2970313060   13.5611486936    6.7534642048
   2.7142761396    9.7851048295   18.6980182282
   3.7236586181    4.7431193888   18.6128011493
  14.5419650161   14.3645828226   12.2255017072
   0.9920186253   19.6742596579    0.3530745327
   4.5166105427    1.0425134232   15.4427188344
   1.5990455711    3.1346143623    0.1799429782
   2.0868787808    0.6947351471   16.5268191426
  17.8048967533    1.2297399629    3.7703067077
  16.8834814847    2.0022751702    2.3696835203
  12.3360745029   10.0191443743   16.2039348923
   4.3010980238    7.8227655799    1.6967634108
   3.0963788716    7.7373159810   19.0707577880
   0.9549765760    6.7776518315    6.0017287721
   0.8925527377    4.5109018179    6.6840808164
   1.5539038054   16.7254002516    0.2155342532
  11.9577778012   11.0932873724    7.1611251260
   4.5762673328   18.9250702229   11.3096339995
  11.0863601154    9.6439621133    7.5146765233
  11.0292569361   11.0135437952   16.8309297095
   9.6926194996   13.5486930055    5.3042815799
  14.5208326665   11.2974357825   13.6472003554
   4.0028655366   18.4507785308    8.3820656357
   7.7115672322   14.0907551404    4.1003325105
  -0.4781613563    4.1292374463    7.8849149537
   0.2726621364    6.8330695049    7.8594988799
   6.5588699836   14.7764753244    2.4371508319
   7.1814290341    1.6384295218   11.2979861659
   1.8865754091   14.3653214985    1.1113946014
  13.5967473760   17.3907196045   17.5249343494
  14.5981861814   16.2223241297   16.5578130599
   4.7569486587   15.0513850729   19.1768094987
  -2.5661103181   14.7727616698   12.2395914373
   8.5092369242   12.2811038176    4.0532098199
   5.4912556802    2.2818542973   10.6451462066
   2.9508093350   18.1168713229   10.7348713516
   4.3142380371   12.5926880210   16.9697630267
  -1.0179197545   14.2859811762   11.2530927655
  14.9887483428    0.5668465539    2.8311335366
  15.5170784240    1.7850832555    4.0959609712
   5.2558033215   17.2415583238    3.1659129859
   5.9776853588    0.7039841288    7.7639455692
   4.1493560120   19.0785693426    2.2723426506
   1.4656924272   15.4192917303    2.4181195271
   6.7906559106    1.4783797364    4.2561390627
   3.8676515372    2.3324219970    2.3569258654
  -2.2691053399   17.4009985571   11.9478885157
   2.3208188977   13.3183847963    3.3789094941
   3.5469112164   12.6785514923    2.3212945533
   6.7052753955   12.7061344885    4.0515995216
  13.4718349658   14.3753789473   17.4371961590
   5.5122031624    1.0818591093   12.0147765184
  14.7002861194   15.0908070234   18.1706464332
   6.0855675002   12.1385953367   17.0383834062
  12.1876116248   13.9401975695    7.7486155428
  14.7280482810   16.3726159799   10.7820707420
   5.6903670770   13.2426723735    1.9927387209
   3.0260723719   15.4769690502   11.2730630835
   3.8707078001   16.8111344367    4.1305345488
   4.6891709186   15.7111925195   11.8450338660
  13.7445539229   13.4268816273    8.5236465647
   5.4256656185    2.7590247270    1.4427353465
  -0.8269437902   15.5414849624   12.3490559241
   7.4931383502   14.6200629773    0.0112316850
   4.1293011817   13.5290424608    3.8206327759
   7.3039641219    0.4924057101    6.6283842513
   2.9578782529   19.8229379252    6.1691328036
   5.3963512579   13.9379767465   16.9047356892
   8.1598046109    3.9137768659   16.8311856546
  12.5625304072   18.8939201324   12.0486766180
   3.4388532979   14.8443931721   15.2153902698
   4.9141363141   15.0192951223   14.1448721193
  10.5523077397   14.8863177521    8.9051044669
   3.4096037809   16.9865948180   11.8634385604
   5.5575738469   17.1665719327    4.8909213499
   5.6231196998   19.6688094834    2.9127760598
  -1.8172121839   17.9347375943   10.2915847020
  14.5591983671   17.9809800524    3.8999596523
   7.3079956437    1.8617903291    2.5064940058
  13.2690634767   18.1947574564    2.8252730357
  12.9348406385   17.4232180246    4.4562236232
   5.2244498385    3.3056415000    3.2290745307
  13.3976881128   15.0295263586    7.9495430915
  14.9298221577   17.6728078231    9.6186859052
  11.4324781583   14.6488198581   11.8598971010
   1.1017142822   18.9163968015    8.9141767200
   1.3161772124   13.5733113446   12.2539957727
  13.5402190374   12.6042579225    6.1992556764
  14.4103215839   11.9267168228    4.7498018153
  12.8936737843   17.9075766098   10.5751933503
  13.0900968582   16.2066254391    1.5367915974
  15.0016544644   15.9674790854    1.3882196194
   0.3226676738   12.3522389707   11.3646145545
  13.0553519093   17.0598248595   12.1156747711
   1.9520160932   12.0276441911   11.4176841563
  13.1116764585   13.1663336537    4.4385778329
   3.9334780904    2.1241131914    6.5429715454
  11.3155731557   16.1821774028    9.7954502063
  -1.1717264197   14.4705944173    8.1151152614
   9.6312624212   11.5320426905    9.7932099904
   5.0528781527    2.9981284918    7.7759996670
  14.0979386109   17.3498180565    0.6461955011
   5.2043260614    3.7677776475    4.8731609733
   5.9668756193    4.3933554402    6.3180948161
  16.4101886671   12.7849612471    7.1495598985
   6.0813887406   18.9602135958   13.0324868344
   0.8694380603   19.1883761783    7.1542761173
   1.9042641551   17.9507927395    7.7337907310
   9.6789912234   15.0699634299   11.3173466462
   4.7090927008   16.9738508806   15.9174819456
   3.3382321930   17.5317814115   14.8290498862
   0.0864530715   13.1632085854    7.6853687585
  -0.7802385221   11.5816359998    6.4546498413
  10.9696482470    1.3768717926   14.2754555034
  14.9744403748   14.3354778708    3.1421302208
   5.8731851110   18.9623649746   14.9063599962
  10.4560448488   12.8661717976    8.9834696720
  16.7465159613   11.1232657090    4.9128009541
   4.4189069872   19.3491496554   13.8792306441
  -0.5619680645   18.9994116053    6.0760429594
  -2.0062155332   17.9525508437    5.5154987979
   8.8700915386   13.2676234327    9.6471894621
   2.2597691350   11.9430090502    8.9909231451
   0.0325610933   13.8466275949    9.3456387145
  14.9598234640   15.6545181894    4.3370337056
   3.4226422746   12.5829116530   10.1245419801
   0.4495407450   16.5198737346    6.2667561386
  11.2113148400    1.3397007622   18.7620668816
  15.8413284693   11.5445281837    8.1905407077
  -1.1088271580   16.0156838003    6.9382806313
  15.8056365960    9.6078780211    4.7802843015
   3.2464586312    6.8004248035    6.7972619332
   9.4074550125    8.7842325249    5.4720229235
   3.9791623239    6.7667262221    5.1855185420
  -0.6686429612   10.4756304889    8.0208240489
  -1.6511930697   14.7481611937    5.0637717268
   1.1177124804    6.1727025390    3.7004501847
  -1.4959479552    9.5824646184    4.2949402872
   0.5567908238   18.3252125219    2.6350371174
   1.3414316468   18.8157131591    4.1925929758
   3.2693759085   14.9098043838    8.6116688340
   1.4298961897    5.6099724587    2.0560539488
  -1.7533967049   15.1252313714    3.3078964220
   4.2001794824   13.3058639299    7.9086943245
  11.6748235126    5.0306836046    4.1739978974
   6.5685286320    6.5804274363   16.6973479077
   4.9868355201    6.4110778252    6.4232010214
   2.1909403469    7.1153058071    2.6007484347
   8.1221976606    8.2150002944    4.4450115370
   8.8403739288   16.4896846385   18.6381386744
  10.6888412341    4.1555114784    3.0718746177
   8.4997533468    7.4750858857    6.1426419436
   0.8424959458    3.6993717237   11.6578094658
   8.5135859368   19.4596182858   12.6405080802
  12.5969656200    9.1485235240    3.9047768438
   7.8203569868   15.8547797930   17.1701590592
  13.9154975467    5.1631487224    6.0588298893
  12.8154201278    7.6022781735    2.7245740788
   9.7724491413   18.3323983513   12.1240392202
  -0.1669062389   19.5875156007    3.6606404252
  15.0553125773    9.5945765007    1.2984410039
  13.2616808356    5.2437227424    2.0000915405
   8.7064408395    5.7572315936    3.6191803161
  -0.0817699338   12.8919682481    4.5605189152
  14.9104956731   10.7433357846    2.6438434031
  11.9308422555    4.5280053481    0.8982301337
   9.5687448056   15.7592569313   17.1806571209
   9.3672288878    5.0677393687    5.0781736393
   8.1343422733   18.2296653729   11.3065815913
   2.2382827212   15.6220418576    6.9459710837
  -0.1210894754   13.6288448864    2.8872032457
   9.8869678454    8.9982318655   11.2717566585
  15.4213845864    6.2630227412    6.5502328081
  -0.3755084296   11.8512348777    3.0306126416
  17.3621035759    7.5161087554    3.2087747711
   3.3406374101   14.7641249425    5.7356063490
  15.5129328888    4.7736785626    5.4162327765
   8.5604419266   18.5735374868   14.9902302332
  -0.7311587927    6.2081443011    3.7489444529
  12.7240627791    7.0564805386    5.2796653724
  13.4856662455   10.0597301543    1.7231489986
   1.5412768301   14.4668941512    5.5261706664
  13.9838413310    8.0995643745    5.5914597090
  12.7838657694    6.1425738290    0.8058533614
   8.9214260727   13.2909498065   16.8432087317
  -1.0040613757    7.6682421755   14.2569654382
   8.7341512876   11.1199890967   17.8911856214
   9.1011549898   16.7740279917   15.0788030580
  10.1523558646   13.2820876571   18.0234266625
  16.3158824830    5.4563657516    2.4658857854
  11.0442318281   17.5969732317   13.4169478896
  16.7741847239    6.5427947705    1.0793003834
   7.4611074461   12.0282971150   18.6409980383
   1.9635448306    9.6196433596   16.5162838708
   0.0505192214   13.7945106605   15.8707188951
  11.0902439088   17.2594086303    4.5324956655
  12.6764647590    0.3822912252    7.0364095361
   4.6140577211   10.5123966265    7.5869824052
   6.2211004209    9.4913512145    3.0333855268
  10.9395420780   19.0659023540    8.0226836070
  16.1665018241   10.5699341406   18.9965918732
  -1.9097706789   11.2770320443   17.5548946539
  15.3184626951    4.9660375586   11.8494814858
  16.7255238467   13.7748884223    0.8672503265
  15.2352577656   13.2382137454   18.3448673813
  -2.3377927786   19.7643171962   12.0482617153
   2.8161004473    1.5424246602   12.8413833803
   0.2525619166   17.7228241541   13.2012705251
  -0.2514156267    0.2495390500    9.8249244306
  11.0206446516   17.6336277204   15.2057709862
   4.7215402530   11.3752364794    6.0770643877
  16.5234531206   11.6653066337   14.8491005578
   9.2784214646   16.2449897996    1.7402638400
   2.0530637360    9.7380725080    7.4665836934
   2.3095250287    9.4589373426   14.6871469135
   9.2384398855   18.9083061129    4.9993303112
  -1.1789442778    8.2053403371   16.9862120464
   1.1950921067   13.5022443811   14.5081055540
  10.5251852987   10.3183863869    2.0243770803
   2.1814503307   10.9841323062    6.1029191676
  13.0363831760   19.7739859227   13.8864130366
   5.5786066710    8.2271444934    4.1046525722
   2.1083267662   12.8792721706   16.7235007893
   1.7734406270   18.4805859970   13.2792319048
   1.6061941973    0.1081656104    9.9048252290
  10.2959349614   16.1145376183    5.6029960801
  -1.4392976401   11.3021666817   16.1025980346
  16.5490646312    3.4183580241    0.6363463737
   3.6275686915    9.7449399101   15.8013132097
  15.9306705530   12.2027668048    0.6196709750
  11.2635236102   19.2439588001    6.2274696043
   4.7420575773    9.8475475584    4.1035046841
   9.8553652804    9.8160899574    0.4966900135
  16.0521091824    4.8345596307   18.7454457817
   6.7511035771   10.2143489809    6.9661991009
  14.8336533402    1.0105087304   15.0014090121
  16.7817453923    8.4414403422   18.3958800913
   9.2652438516   17.9831619131    2.4141805212
  -0.7316330767    7.3638730307   18.4380211980
   2.1041517449    0.1275393525   13.6665964143
   0.5484687036    1.4427804662   12.9949492183
   1.2674302347   17.4914555344   11.8146666260
   0.9179122938    1.4106928403    9.0476460773
   0.2079270849   10.1331408713    1.0661490888
  17.1210977545    3.4693892390   19.1612786471
   0.2859528973   11.1057717600   19.1405467618
   1.0649533842   11.4303022722   16.7413594108
  12.6336248131   19.1989448441   15.5302889427
  10.8238819192   17.2618645674    2.1746496187
   1.7774163570    9.2924479277    5.7796315879
   8.1623394745   17.4472396343    5.4580792788
   6.0050595288    8.6386677676    6.5153635587
   8.7569514543   10.6766301455    1.6334595558
  -1.9002180424   13.0104593780   15.9196293505
   5.4742609463    9.0876467274    0.5064282376
   9.3011547088   14.0303019775    7.2091202212
  13.8323474253   13.3527742659   14.0083443343
   3.8654923894    1.0751884188   17.3646153434
   2.5461400266    1.4065244445    0.0168523759
  -0.8789681864    5.6683344452    6.5256528887
   5.0749439369    5.5029184821    1.4587069328
  -0.0257047393    3.2486648242    4.6649223328
  10.4484445572   10.7598214747    5.8270971546
   5.0798439029   17.0366050619    9.5765794474
  17.4590276863    0.0424586541    2.0122933685
  12.7803891927   12.1022005113   16.3283553747
   2.3787969423   16.0181356574   18.9359778229
  12.5315151594   16.5062229402   16.0788143556
   6.1724979259    0.3909850570   10.0937419962
   3.3521865637   14.8677496958    2.4086735863
   7.6723654410   13.0088785706    2.1792443393
  13.1905924863   19.4616546881    4.4486521202
   5.2511837526   12.9254227701   18.8503123422
  -1.7675428153   15.9979767134   10.5135734264
   4.4677685638   18.8391400590    4.3704583668
   5.4115158909    1.1275159750    2.8668229771
  12.6792908716   15.4753932417   19.0880690875
   6.0684660051    2.0307586293    6.1492025531
  14.5876546019   18.2507373377   11.5970274676
  12.5319651813   14.6060807463    9.7222052459
   3.0842299777   15.3839651062   13.3095868169
   5.1628053796   17.4175873663   13.8487939069
  10.0125601545    2.7769787801   15.4008183647
   9.5744515899    2.6153433645   17.7010354479
  -0.1012806386   17.5270559392    8.0228594917
  10.3854790736   13.0525251502   11.0752789468
  14.9211140884   13.8749043667    5.2870668782
   1.7507408142   13.6082875950   10.2574651995
  -1.5204552295   12.5453402421    9.0583897185
  17.0033933205    9.8553465923    6.4781356756
  11.4571551739    1.4283561388   16.7105146312
   3.8271017744    4.8357207685    6.0743909628
  -0.3561674193   17.5836728996    4.4293605442
   9.9777808989    7.0894212292    4.6082542879
   8.2237142394    5.9447260320   15.5100499591
  -1.8767745531   13.1764478970    3.7167934698
   2.2424519721   13.6680323147    7.2311664087
   9.6651276946    7.1937094506   12.0314515107
  14.4684364202    6.3541585256    4.4823363627
   0.1244925757    7.2855686701    2.2315815568
   0.1764668820    5.7341968817   12.1964841059
   8.5772936644   14.4739069397   18.5326238254
  11.2712268418    5.9055038400    2.2958286904
  14.4467348485    8.7616214770    3.0732433718
   8.4243788948   17.4011397392   13.1909728691
  17.3638672371    4.4671964884   11.4101955506
  16.9865987180    6.5686645901   12.5245133295
  17.8893298493    4.7608449473    1.5083185101
   2.5086650870   11.3935033063   15.3545939723
  10.9292179623   19.4322358622   14.3167715490
   6.5826991073    9.8664301047    4.9576861242
   9.4757074032   18.0875453826    6.9427092459
  10.2532623960   11.7678811783    0.5617898248
  -0.2321178573    9.4786104681   18.3903061728
   0.3915751742   19.4100820892   11.8907068041
   0.7632323674    1.6697121279   11.0332355909
  -1.0712618154   12.3828824854    0.0770644340
   9.5603121743   16.3180481789    3.7326508545
  -0.4252247896   12.3011353587   14.5300721268
   3.6731855480    9.4167333769    6.0706151759
