B2 C140 Ca1 F48 H298 O66 
1.0
1.7921518486430216e+01 -6.2644818553406680e-16 3.8094073428987106e-17 
-2.5171577316752738e+00 1.9410421070027414e+01 1.7783526055021412e-16 
-1.0540929810429702e+00 8.0025057642351516e-01 1.9454565060378254e+01 
B C Ca F H O 
2 140 1 48 298 66 
Cartesian
   9.7725648015    2.9933438477   16.8166308246
  -1.2585862094    6.0182699779   12.1279229651
   0.0231597907    0.8550576644    1.6933655251
   7.1645924913   13.7932630395    6.5441906469
   5.1210255521    6.2257712133    1.3383527509
  12.3916576010   12.6531151453   12.6486391607
   3.6055924104    2.3159831780   15.5604324882
   1.6213831453    1.8663310010   18.3955122176
   1.3646634294    2.8229800764    5.4622216665
   1.8729475019    1.4046027344   16.9770594336
  -0.6110513835    3.8764890588    5.9455688201
   3.1030819403    5.9425032509   18.9214677245
   1.8020656233   16.2073777121   18.8058364457
   0.2404616350    3.6161329772   17.7133392744
  11.8368440624   15.6049560167   15.3144824901
   4.4374364817    9.7344349968    0.5848084031
   6.4325700745   17.1675870107    9.1586174844
  12.6113586237   11.7878638471   16.1656548895
   9.7563860445   11.9670594181    6.3722561499
   9.5100472248   13.3916182267    6.2079075994
  12.9539454906   11.4653132301   14.7209802987
   4.1715648112    7.4046192199    1.3403527111
  10.8223623949   10.3208064130   16.7197614620
  12.0504062669   11.4417611000    6.7262891485
   0.0293968854    4.8295868525    6.9691253154
   0.3550597013    7.1761158276    6.7211275977
   4.6980383505   18.6482098236    9.7348780744
   2.5832529311   16.2675394973    1.6573239970
  16.2764234183    1.5214229251    3.2387602065
   3.6902415586   19.0471024916   10.7518839849
   2.0204013569   14.8664373102    2.1744205994
  13.0776518910   16.6396295673   17.0867013330
   5.2791747482    1.8106244538   10.8620075972
   7.5642093959   13.7927054497    3.0284188263
  14.9791353575    1.2172231059    3.9276850218
   6.4453390658   14.2081649215    1.0030752178
   5.4235820046   14.7448837714   18.9731418315
  -2.1924273712   15.4263070937   12.2676131065
   2.4250764431   12.5803372983    2.4142095520
  12.6695800021   15.5856105675   18.0682217056
   5.4883903067   13.0847407320   17.2560171311
   5.4104775803   17.8396358900    3.5332038144
   7.1507947901    0.5107258734    2.4167659072
   6.0622840000    1.5186819727    2.7631967200
   3.7504990451    1.6687967928    2.5170495152
  -2.4828812285   17.2565036542   10.8047785008
   6.3539941532    1.0897931884    6.1651015484
  12.1434748671   15.1802668137    8.8045761227
  13.8839075593   17.4743727478   10.6978259938
   3.5944179134   15.4462750398   12.1962105493
  13.1631156986   18.3595027324    4.0619952036
   6.6630525359    2.2892676492   18.3265855026
   7.4536653266    4.5833343783   19.2121887196
   7.6099335010    3.4866218802   18.0095014293
   3.7601507889   15.3222936396   14.6261007913
  12.0252741004   18.2313579336   11.7932628429
  10.1850469365   14.7200954836   10.0712947756
   9.0463007635    2.8273933412   13.0447739949
  12.5464204549   15.7435951695    0.4760049304
  12.6779751759   13.0657169623    3.3969705564
   9.3399667287   13.9580177020   11.1520393154
   5.1729525018    3.1848143766    6.7105166311
   1.7230037867   12.7820995981   10.8233275314
   3.8089789113   16.7638590984   15.1101353332
   0.8711530748   18.4766757972    8.1035247378
  10.0329752532    3.0614541726   14.2792117364
  11.0347183351    4.2266388332   14.0850871161
   5.3742525040    4.6296923495    6.5004569601
   4.6042185349   18.9427697249   14.6136977955
   9.0300682654   11.8329000311   10.0391746254
  -1.1767484766   13.2449808999    8.5306214798
  15.3092884584   11.4158839209    8.4931117690
  -0.0738837016   16.9202572219    6.6799305280
  -1.5307187855   10.4196548274    7.9246995209
   5.3358529558    6.7396997269   15.7440922562
  14.0094612745   14.6832171167    4.4634850568
  -1.0520288191   17.8479114165    5.8343543445
   3.1116315599   13.6238259535    9.0284502980
  15.5711760566    9.8706135382    5.7424230684
   3.9142055053    6.3068431583    5.4553413674
  11.5608797194    2.1843882466   18.4430518496
   1.8690839405    5.0303686492   13.3345618686
   9.2334068652   20.0399087661   18.4850603493
  15.3628525621   13.9392851150    4.5467684392
   6.7683374559    7.1999721098   16.0493731820
   3.0852300275   14.2467671731    7.7010470866
   7.7062725540    7.3396866617    4.2352397223
   0.1300770891   18.2249930508    3.8063944041
   6.8980786966    8.7533568127   15.9013853032
   9.7399828186    7.7666985344    9.4495759962
   0.5643637365    8.1224663831    3.0622974705
  12.7071269871    3.1810907510   18.7816415380
   1.9095503681    5.6256784432   10.7047942495
   1.1004794182    5.1160316343   11.9045000279
  10.7196086225    5.5169509889    3.2949386178
   9.3217828416    5.6931265908    3.7532224408
   8.5324165152   15.5619820922   17.3721121386
   8.8511067565    8.3456685974   10.5743286145
  12.2199117024    8.5484880802    4.1742759654
   8.8129345303   18.0467567177   11.3072875947
  -0.8080172361   13.0599147327    3.4092899753
  14.2343863077    6.5838131847    6.4896814214
   7.4219045791    8.6200268306   10.0498307743
  13.3422503200    9.5723226360    2.2065416303
  12.0498307118    5.9220229335    1.2843467875
   2.7709454362   14.2188867550    5.3274286178
  12.4811658605    7.9116386892    5.5266229906
  16.2379516702    7.1339330816    3.3053595789
   8.5360784883   18.0322872589   13.7355746392
   8.9205387884   13.1920012962   18.0254723585
  14.8357496583    8.0067062940   14.6492096058
  15.8859417787    8.0442585108   13.4853253187
  15.7865814658    6.5013119748    1.9809983276
  14.9085602987    3.0207644667   11.0146351509
   8.6627083630   12.0658749427   19.0550043449
  14.9101383445    4.5607401919   11.1682348298
   9.3662899950   18.5341547143   14.8937779727
  14.2152385016    5.1720097901   10.0047212732
  15.8150524037    9.3653287779   12.7198621213
  11.3637623714    0.5762008258    6.8160048465
   2.5081760013   10.0044399160   16.2286395693
  -0.7504177860   10.1637274153    0.0977757355
   0.7101214924   13.2289530653   15.3969012548
  15.9303171119   12.0914679218    0.4770632961
   4.9062512727   10.4683415129    7.5253060819
   5.0732962558   10.3073920438    4.5866351614
   9.1824343870   16.8282869607    5.7612987812
   8.0414938870   17.8270600928    6.1545000938
   1.1997240644   11.9908155648   16.1389514757
   2.2677596658    0.5504550792   12.8705265542
   1.0142154598    1.1388027846   12.1730795545
   0.6800936495   17.8560066453   12.3675608545
   0.7016042202    1.5928488778    9.7665476332
   9.6975433242   10.8322048829    1.8903744434
   2.5691778330   10.0701589830    7.9219057837
   6.0697042559    9.9135971031    6.7035408096
  13.3294461077    1.1348057221   14.6292360085
  -0.4960895616    8.4083183013   18.5129081615
  16.8461538173    4.6701685614    0.6895673070
  -1.5573399651   13.2425545267   15.3157128735
  -0.2490903830   10.6692331346   19.2051998474
   9.5743177241   16.9061735231    3.4350124041
   8.5156612303    6.3968289701   13.2940460211
   6.4131945510    1.6063310947   17.2036969606
   8.3265776241    5.5681128005   18.9532742289
   8.7528908770    4.0884463465   12.5158203662
   7.3480673377    1.4140601545   19.1423747655
   8.6616211676    3.2541369005    1.0565324864
   5.4939300675    2.6183919247   18.8719763458
   6.2923706053    5.2125542202   19.3164998676
   7.8753432388    2.3944498694   13.5057959621
  11.4885797760    4.0973542097   12.8452886173
   9.6386447139    1.9578768094   12.2434011854
  12.0754048518    4.2295637234   15.0272764155
   4.3247213847    7.2866124408   16.3826706237
   5.2055592778    5.4246511613   16.1744401672
  10.5473179198    5.5125969871   14.1270712899
   5.0663498934    6.7974329500   14.3739749692
   2.6620698655    3.9449574024   13.5039238365
   8.1265748043   19.3696204125   18.0949867592
   2.5106771622    6.1648943127   13.5545917173
  11.0443010419    7.8184668850    9.8796210770
   1.0787595246    5.4718389051    9.6684978151
   7.0072707506    9.1337729812   14.5750775515
   7.8900780012    9.3262463964   16.5412645544
   0.8360913259    4.9181829174   14.3746533855
   9.7850527462    8.3215680892    8.2190834330
  10.4445738953   19.0376646093    0.3916332018
  13.7507787806    3.1877878893   17.9337987274
  10.3101547098   19.5760328232   17.7567543370
   3.0348153700    4.9303461832   10.5165952145
   9.2049068693    6.4264084794    9.2882840965
   6.6483840165    9.1080051187   11.0858087580
  14.2484890208    2.0631779091    0.5513652856
  12.1883645348    4.4596223312   18.7868202770
   5.6809787240    9.3314823042   16.2673499934
   2.3006883400    6.9422255998   10.8035754970
   6.7880861176    7.4829599944    9.5062594500
  15.0768703205    8.9661773447   15.5847048926
   7.4637938632    9.4937016656    9.1156860115
  13.7114672317    2.4038386957   10.8376837500
  13.6069517123    8.2628464103   14.1371714814
  14.7528942230    4.7815301199    8.7674075110
  15.7418215996    2.6689049046    9.9685269924
  14.5588770925    6.5494186517   10.0820476244
  14.9241369535    6.8036244034   15.3245988130
  -1.7151739458    9.1463393264   11.4061223055
  15.4264157614    2.3969799632   12.1007733434
  -1.3201938465   10.3862753833   13.2011767256
  12.8691673866    5.1655684821   10.0858877339
  14.5941675064    9.9773771178   12.6065849595
   0.8277626855    1.2874839399   18.8140919706
  12.9292090955   12.7687111517   16.4823839176
   1.6177735782    2.0419291152    4.6608301497
   5.3824293051    5.9435125534    2.4003962382
   6.1319396374   16.9697685325    8.1290805801
   9.6012324440   11.6738358413    7.4217527104
   6.0916723539    6.5370105883    0.8355408261
   4.6665936068    2.5753902029   15.4849975349
  16.4805235403    4.4353385248    5.4410659756
   0.4938852880    1.7539737358    1.2736428214
   0.7781088985   16.4556666636   18.5603282894
  -2.2318832245   19.3933155703    1.0185472866
   6.6522897454   14.7428861009    6.9036236831
  -0.2409098112    2.7138967755   17.4605820867
   0.5358878310    0.6918581032    2.7419978909
  11.4234711867   12.0504276959   12.4012350600
  -0.7205371257   19.7322578805   17.0334650768
   7.0580843186   13.8484323212    5.4309118938
  12.7732420466   15.3792429232   14.8302282083
   5.2727307372   10.5171054102    0.3373311616
  13.1291634004   12.1001478758   12.0973490590
   3.0354733455    4.9472173161   18.4423241569
   2.0794655181    6.3599278364   18.7633181632
  10.8857054155   10.3284328615   17.7974977601
  11.9852214639   10.7237558718    7.5235904727
   1.0307872009    2.2306940452    6.3190259981
  16.8129658639    3.1033164218    6.5756386128
  10.4831294028   13.8761320724    6.5973035516
   2.9179109394    3.1354592595   15.3468949792
   5.3858848827   19.4799797714    9.3234070296
  11.6708112424   14.6570828681   15.7891820176
  12.4832242610   10.4726755523   14.4207493949
   1.9598405808   15.1347006138   18.9744262040
   2.4131852253   16.4671696850   17.9465688626
  11.1391831994   15.8510576414   14.4874719194
   7.1270151536   18.0729045208    9.1306591188
   0.7814747275    4.0335917427   16.8009588834
   3.3712596977   16.5587540567    2.4969262849
  -0.6360716534    7.5114743175    7.0173297226
  13.1628991713   11.0719684101   16.7654026372
   2.1722761340    3.5190725320    5.6640672313
   7.0913052674   16.4407777350    9.6457681547
   8.9155815636   11.3656500998    5.7139781011
   3.6907325692   10.2701369024    1.1689355590
   6.5643548308   12.9310994012    7.0117643029
   3.0303903478   10.2895010734   19.0522412124
   3.8169070289    6.6454811504   18.4145364514
  12.4223094022   13.6454125954   12.2161655105
   2.4475107913    1.4271262442   19.0607792551
   3.3325051604    1.4462929275   14.7733568520
  -0.3808943825    4.5064493832   18.2810814286
   1.3973675933    1.8456353656   16.1391289246
  17.0939688341    1.1777935204    3.9404850154
  16.4700810780    2.5804990348    2.9796674555
  11.5405867815    9.6249828576   16.2670390912
   3.5591092659    7.4479211827    2.2196654799
   3.6358205325    7.4542412938    0.3724835397
   0.6124744066    7.8775715098    5.9968953872
   0.7466725822    4.2880946643    7.6089873467
   1.8469590570   16.9936162112    1.4975155844
  12.9585253516   11.1393330352    6.2190014146
   4.1954215250   19.5445893436   11.6047827552
  12.1402167992   12.4039618694    7.2463149618
   9.8123984850   10.1802841027   16.4098478224
   9.1411938602   13.7564560276    5.2003222385
  14.0813229863   11.2193510812   14.5649076218
   4.1135522443   18.3293791653    8.8263119038
   7.1516639690   14.7122521583    3.2721219385
  -0.6318638271    5.2631641193    7.6874619178
   1.0007182347    7.4165859626    7.5098701650
   6.5604168164   15.2811494670    1.1405783509
   6.2423688674    2.3689618893   11.0170689984
   1.2853406689   14.4422421329    1.4399503139
  13.1508959857   17.5750615538   17.6854316684
  13.9642041171   16.3411332572   16.5423709788
   4.5104706014   15.3490605420   18.5597932087
  14.6214969311   15.4061080514   12.7130454887
   8.6294082793   13.8210914099    3.3425099732
   4.6069693700    2.5590768379   10.3085676875
   3.0825507775   18.1489242709   11.1107220338
   5.6037022788   12.0011552030   17.0369352057
  -1.9445399474   14.3818111314   12.4316671085
  14.1416037091    0.9230731412    3.2311659495
  14.6153009898    2.0108246237    4.5619606628
   4.9184283397   16.9520345372    3.9613689298
   6.9773091746    0.8542229556    7.0348795930
   7.0179970944    0.4796529779    1.3619501549
   1.4008384998   15.0564702025    3.0215331544
   5.7851739464    1.5278100376    3.8716782941
   2.8905273254    1.2880077592    1.8498105309
  -2.0805968550   17.7269136108   11.6031104045
   1.6234722819   12.3499671846    3.1664658305
   2.3089611145   12.3465317451    1.2746001241
   7.0803134158   12.9513458603    3.6631332246
  12.6265384547   14.6712234158   17.4924332721
   4.8876647443    1.5106847855   11.8675215616
  13.4072644372   15.5603152103   18.8729526957
   6.3758803568   13.5435326561   16.7775105368
  11.9764722555   14.4461785059    8.0838631322
  13.4678201404   16.4439596507   10.9152223178
   5.5170373360   13.8804584889    1.4937139348
   2.8258994780   15.7451515885   11.5142381902
   5.9675570383   18.4657454483    4.2724274036
   4.0183541558   14.5494408176   11.8028660311
  13.2671072292   15.3147105370    8.9286553291
   3.8235036524    2.7604518279    2.2855712323
  -1.5000987133   16.0043394809   12.8794572510
   6.3436774313   15.2406850414   18.6740125754
   3.2260300322   11.8715687239    2.7095755600
   6.9019604351    0.7405896553    5.2777882546
   5.3830935176    0.6235140349    6.1600514365
   4.6996288081   13.3985116326   16.5940553709
   7.3162017508    3.9188422128   17.0968605304
  11.7082022098   18.8789874931   12.5153895273
   3.3660377879   14.7052362608   15.3861523856
   4.8677407546   15.0414299777   14.6085702540
   9.9383676763   14.3525441139    8.9556214595
   4.1956161049   16.2803214810   12.3633362711
   6.2056482500   17.4933464278    2.7519386785
   8.1303347806    0.8420693979    2.6602204596
  -2.0447200295   17.5657607720    9.8842800286
  14.2729511165   18.2315368446    4.1553569077
   6.1051777615    2.5359186807    2.3730990573
  12.7578981435   18.0914578972    3.1171519426
  12.7247745392   17.5687615366    4.6409963545
   3.2925590330    1.6765722767    3.5708052176
  11.8804308090   16.2080013175    8.3651557137
  13.6157262682   17.5246144171    9.5464319567
   9.5672480979   14.4160916761   12.1072590456
   1.3295654789   18.3850074497    9.0916658544
   2.6524862082   12.1771769689   11.0018903507
  11.6676893604   12.8589116623    3.2768473686
  13.3409010976   12.2134298113    3.5521418098
  11.4450398593   18.1449333513   10.7686511048
  12.0107940296   16.7585190424    0.3519223109
  11.8602228347   15.2478700204    1.2078327094
   1.5247645693   13.4027050104   11.7149980003
  12.0050430751   17.1945560227   12.2603460583
   0.8817594556   12.0958403296   10.8787937101
  12.9493449189   13.6916972278    2.4816094708
   4.3393302732    2.8890474545    5.9516915810
   9.8803810386   15.7694436877   10.2436580829
  -1.6008857969   13.8142517667    7.7121538693
   9.8803581606   11.1846318980    9.8112280223
   4.8644124602    2.7782886501    7.6498273126
  13.4966892406   15.7466872704    1.0091965256
   5.7832221616    4.7690745208    5.4868774169
   6.0631843593    5.0071120707    7.2206804319
  14.8805024909   12.0060840464    7.6007836256
   5.0060737257   19.4747301102   13.6875240029
   0.5944221517   19.4522568607    7.9508961099
   1.6907112836   18.3094167171    7.3831510216
   8.2618051985   14.0916792900   10.9283555627
   4.2228566431   16.8122798090   16.1232474206
   2.8365113162   17.3071267050   15.0914979076
  -0.2179815301   12.8380260004    8.3025151207
  -0.7094079987   11.0351706295    7.5838610294
  10.7732323230    2.1921221149   14.3287793123
  14.0511705137   15.1204209731    3.4484165044
   5.4381968636   19.1161829364   15.4042265334
   8.9457304275   12.4519730906    9.2020989126
  15.0948538541   10.8323715785    5.6046265542
   3.5928186263   19.2296360345   15.0460081989
  -0.7994567279   18.9309270838    5.8794452951
  -2.0932230334   17.6624260633    6.1091259496
   8.0588760037   11.2557471720   10.3441538381
   3.6816514315   12.6710531306    9.0320135866
  -0.9076434913   14.0335476927    9.2483612301
  13.9944589762   15.3341799335    5.3768149210
   3.5296196348   14.5111717879    9.5004076899
   0.9467452031   16.9140393965    6.3709657709
  10.8138023074    2.3654571360   19.2806372143
  14.5287539287   10.9323718475    9.1124092446
  -0.6022516152   15.9048464336    6.7439879977
  14.8471174677    9.0819173985    5.2142822288
   3.3908085007    5.8960272122    4.6324400735
   7.5986098344    8.3672582260    4.3604574909
   4.8608544874    6.7007546213    5.0364629044
  -1.0130588034    9.8834202479    8.7865469557
  15.4022663122   13.1567064128    5.3911126218
   0.8505311240    7.2476344802    3.7372158512
  -1.4644240220    9.8199152581    5.1137645722
  -0.1327278255   18.2057619130    2.6994045184
   1.0619368694   17.5875509026    4.1048768413
   2.6015422923   15.3224604841    7.9003438622
   0.8453723597    7.9017230051    2.0617200396
  -1.7370532157   14.6498110571    4.8672621264
   4.2487832820   14.3690272836    7.4851904699
  11.4697558335    5.8784361966    3.9943070851
   6.7457558574    7.0389833768   17.2463695012
   3.2472190712    7.0423349243    5.8200526208
   1.2208611609    8.9490050116    3.3116502449
   7.0943599777    7.1400967095    3.3368007242
   7.9311478735   16.3351733792   17.6965559014
  10.9129664040    4.4787997688    2.9931202620
   7.3320350492    6.8264047698    5.2133797260
   0.5683199435    4.2016268110   11.6389372394
   7.6798077984   18.1184695635   11.2357657796
  11.3124529241    9.1512004161    4.0306148744
   8.5945465238   15.2354937379   16.3500428699
  13.7775625873    6.6537706134    7.4974896035
  12.0404323325    7.7292158786    3.4060448463
   9.1722283255   19.1551362237   11.2176360200
   0.2437041704   19.2389500087    4.1900291288
  13.9394641124   10.4714903535    1.9847426099
  13.0295130116    6.0008933893    1.8376047657
   8.5715063081    5.2396519529    3.0378252210
  -0.3979594388   12.2628792750    4.1280038051
  12.4417256560    9.3400176957    1.7560164660
  11.9593446825    4.8596396228    1.0300586568
   9.4920613799   15.8452925307   17.7306177597
   9.1102706369    5.2382563643    4.8008419708
   9.2102358909   17.3852737361   10.5206677273
   2.7594455096   15.2569305939    5.5014674916
  -0.3399075315   14.1205496572    3.7432569263
   9.2494232307    9.3849104984   10.8353524888
  14.9572925071    7.3215836796    6.5981321743
  -0.3750649012   12.7180097543    2.5149034926
  15.3118448982    7.5081054660    3.7659729709
   3.7700656080   13.8054091820    5.0248496097
  14.6343967766    5.5628323146    6.3496425451
   7.7204019688   18.7322313958   13.4697029091
  16.6550246570    6.3800088799    4.0127773203
  11.5270655487    7.6005136467    5.9280709499
  14.1741746234    8.8522982339    1.8682125437
   2.0324351553   13.8464648939    4.6319470094
  12.9307253242    8.6682704626    6.1903336453
  12.1576238899    6.7077400023    0.4487515996
   8.8316293294   12.8556540207   16.9632302668
  -1.0156812942    8.1809536206   13.8964363181
   9.0954326717   11.1440321695   18.7457250684
   7.9111160779   17.2156488596   14.0436556378
   9.9041259841   13.6068919686   18.0359898360
  14.8280567959    5.9581807892    2.0450405138
  10.3142296242   17.9004393206   14.9895893654
  15.8779723360    7.2593393004    1.2101721965
   7.5632635134   11.9030132957   19.0218986822
   1.7768837642    9.7298423572   17.0436164220
   0.4144974323   14.0982651724   16.1035138415
  10.0409585019   17.4096885965    5.7730650348
  10.8073571381    0.8348653714    5.9281843859
   5.1626310792   10.4969200180    8.6081894455
   4.5746469940   11.1724340593    4.8216605625
  11.3446733919    1.2826517205    7.7084684784
  -1.1024439850    9.6297679047    1.0458456847
  15.5450916020   10.7565433089   18.5637392907
  14.1934320759    4.6895900759   12.0286376335
  15.9963796567   13.0729873747    0.8113241760
  14.4137206948   12.7321369061   19.0004500304
  -2.3377950755   19.8913683035   12.1934200278
   3.0258795472    1.2943123171   13.0669739783
   0.0104286990   17.4418295865   13.1138289520
  -0.0871927423    0.8100030943    9.7810082850
   8.6743444036   18.4496846326   15.7427173811
   4.5666612793   11.5056506125    7.3343377655
  15.4626416019   12.9167344891   14.8495346325
   9.4673315321   17.9652968945    3.6723905021
   2.6492731353   10.1476233856    8.9856994023
   2.7098281034    9.1369118297   15.5460693303
   7.8062812735   18.4763073042    5.3124787537
   0.7130558641    7.4067211468    0.1832404370
   1.4481851635   13.6373211127   14.6895888372
   9.8796828806   11.1198310033    2.8133346318
   2.1401191552   11.0004476979    7.4696806618
  14.1537199789    0.6428388695   13.8780419799
   5.4302507661   10.4836290761    3.5321068896
   1.9799445015   12.4216552314   16.8712352496
   1.6543638167   18.0232063277   12.7809988736
   1.3559092394    1.3303144954    8.8466808089
   9.2163892325   16.1375919164    6.6958450068
  -1.5850388137   12.7507508135   16.3619012991
  15.9300323806    4.1148455563    0.7849042076
   3.5202783382   10.3077241989   16.6384695341
  15.3533688588   11.5329991128    1.2203481933
  12.4057545320    0.4249525602    6.5952603298
   4.4160235296    9.4678392109    4.4096113542
  10.1098468137    9.8349608417    1.8328862999
  15.7698783051    6.0980926515   19.2040976612
   7.0176894112   10.2502388254    7.1676309142
  13.1496705990    2.1728221769   14.2238934907
   0.1703313918    7.7305330170   17.9671005095
  10.6111069491   16.6685691672    3.2361009843
  -1.5195209955    8.3381404972   18.1307429979
  -0.5849557448   19.5529036046   13.8505053409
   0.6692752103    2.0547244614   12.8115362465
   0.6047129276   17.0135328760   11.5372661024
   0.1964418715    2.5477058133    9.6071254485
   1.2841444784    9.5472273073    0.7677545291
  -0.1189111213    4.2687020009    0.6726577208
   0.1925792135   11.6189562365   18.7545700964
   0.3875072813   11.5717434814   16.6647260562
  13.7692866075    1.1269159575   15.6399971062
   9.0206932027   16.6846328335    2.5717763247
   1.7348160637    9.4021050139    7.6149511816
   7.1530746430   17.1586426828    6.4066474232
   5.9598509909    8.7859759068    6.7178023089
   8.6758574266   10.6387364182    1.7394366056
  -1.6715037922   14.3448796064   15.4741479589
   5.0503633007    8.6173442639    1.3686939773
   8.4484330816   13.8326253997    7.0961189442
  12.6448965014   12.7125390792   13.9958363299
   3.4447922760    1.7210130572   16.8013787939
   1.3382439159    3.2758659592   18.6426898340
   0.7079221358    5.8928911495    6.2871545977
   4.5052436699    5.0268369922    0.7937731169
   0.2158700195    3.4959320294    4.8888411855
  11.0597280887   11.5148539846    5.7543448261
   5.4260811545   17.5351235997   10.0832880183
  16.5910985862    0.7844267634    1.9746016619
  11.1113490033   11.6826735077   16.3612362774
   3.3679670690   16.1152063307    0.4197916464
  12.0660935194   16.7861845275   16.0648683999
   5.3577530774    0.6436569146   10.0893855072
   3.0711835619   13.9033119250    2.3734582328
   7.5388465156   13.5789322612    1.6919191132
  12.6914700966   19.5092610983    4.7403179284
   5.3570857281   13.3669987675   18.6319381333
  -2.0262370376   15.8887178333   10.8966385201
   4.3213608511   18.6470797445    2.8691407159
   4.9077583571    0.9055464226    2.1610904982
  11.3969685868   15.9928143490   18.5834342798
   6.3370981405    2.5458340827    6.2025694250
  13.4520062673   18.4983620729   11.5306850292
  11.6234329033   14.6833448443   10.0812112129
   2.9682475408   15.0954334855   13.4385244130
   4.5175145404   17.6405290505   14.1670842551
   9.2986458826    3.1743326611   15.5820575587
   9.0296429091    3.1401573959   17.9587288159
  -0.0868803284   17.5373309292    7.9968201643
   9.4975598785   12.5062242007   11.2693497431
  12.8191199592   13.9191677658    4.5550155999
   1.7940052675   13.4539703154    9.5726786141
  -1.9855804607   12.4031450492    9.4129612357
  15.9204508539    9.4651857669    7.0359852825
  11.0676371634    2.5020164381   17.1193809413
   4.1890681227    5.4569952152    6.5809826249
  -0.9616125623   17.5363985729    4.4683364653
   9.0239718115    7.0795267957    4.0091766144
   7.7002185995    6.4872543509   15.3601284688
  15.6942068658   13.1192397665    3.4239056309
   2.5095302756   13.5167650202    6.6629614928
   8.9197203278    7.4354652665   11.6127464210
  13.4112282619    6.8127222468    5.3453807466
  -0.8839851385    8.3714340029    3.2838268751
   0.1073585130    6.2049505609   12.2069733326
   8.0386058523   14.3465247935   18.1391985857
  10.9069105796    6.3764805568    2.1252017479
  13.2610351815    9.4173393031    3.7054280383
   9.2740740567   17.5674334353   12.6020122344
  16.1931371278    4.9912953918   11.3887390460
  15.7041487584    6.8926631056   12.6356597244
  16.7822459777    5.4098856862    1.8656168351
   1.9281642880   11.0462504640   15.3587043387
   9.5415292570   19.9224098341   14.4371046387
   6.2426139808   10.3375166602    5.3780038876
   8.3509589364   18.6775851474    7.2682921152
  10.1616673050   11.6971687069    0.8756462524
  -0.0586820445    9.6870770935   18.1862003077
   0.2048048063   19.0902863299   11.8858630594
   1.4989186528    1.5770143889   10.9232253401
  -0.6949680342   11.5121766603    0.3962618145
   9.0332229226   16.1080373548    4.5373291520
  -0.4375194688   12.9085429850   14.5366386217
   3.7749691912    9.6525395444    7.3121505431
