B2 C140 Ca1 F48 H298 O66 
1.0
1.8833245266569158e+01 1.8829420163879111e-16 -1.7110838932338880e-16 
-2.6462937792494428e+00 1.9721824153443350e+01 3.1881639108138439e-18 
-9.4000905117065336e-01 -5.9885634803920486e-02 1.9282091405159036e+01 
B C Ca F H O 
2 140 1 48 298 66 
Cartesian
  10.3029493363    2.3238201567   16.6219295802
  -1.1707888110    5.3765931959   12.0142089514
  18.5225305377    0.3196618998    1.1586162518
   7.9881478843   14.4367082303    7.1531142569
   5.7160629310    6.7494245696    0.8509589313
  14.0835194218   13.2214730055   12.3830009661
   3.9926144803    1.7119188945   15.9889327686
   2.0545492625    0.0411119504   18.7116036264
   1.2217351295    2.5826916010    4.3911606131
   2.8520620670    0.1057015036   17.4186468256
  -0.4564481565    3.2634366618    5.9345558835
   4.3087064242    4.8514240679    0.5591462284
   2.1495406740   15.7719440064   17.7495412419
   1.1264180673    2.2536949229   18.4773053078
  12.1345964333   15.1708553595   15.5778755889
   4.6159881735   10.0998181894    0.1459071842
   6.3573765018   16.4125235856    9.1382115784
  13.9979766142   11.5698573211   15.8625563885
   9.3273035094   11.5752234002    6.5888923366
   9.9115001532   13.0085086992    6.4952728638
  13.8853810015   11.6257086855   14.2851684481
   4.5044064504    7.7674644433    0.6511105912
  11.9698304838   10.7205230884   16.9320903900
  11.2909201042   10.1804165821    6.5547078625
   0.0063281625    4.3838910335    6.8271783582
  -0.1114894488    6.8738982728    6.7739923686
   4.7983084526   18.1190674107    9.3811701310
   2.5937418810   16.2370007288    0.7059142534
  17.0817375070    0.8524034593    2.9632826563
   3.8698841408   18.6850255374   10.3813198181
   2.3461401685   15.1714726850    1.7499760853
  13.5540098745   16.1586947584   17.1729341465
   5.9437878011    1.3619372628   11.0399200027
   7.6400545772   12.8596860866    3.7222466323
  15.7763784390    0.6203733386    3.4520941096
   6.2672591734   13.6904088589    1.9288931461
   6.3135245843   14.1804800169    0.4307819115
  -1.1264950542   15.0544214398   11.4870391197
   3.3807322577   13.6338099357    3.2046553399
  13.7696553547   14.9767142625   18.0343537844
   5.2865362942   13.2137661805   17.4799921290
   4.6711637562   17.3172298333    4.2588912216
   4.7187094355   19.5726864758    3.3887265465
   6.6675571329    1.2009268149    3.4723596398
   4.9036216436    2.2056895945    2.3884054122
  -2.0847488261   17.1383787687   10.9424054516
   6.3379311231    0.8565750157    7.0618862811
  13.0490043194   14.1102646719    8.5149383016
  15.1892304089   17.1757517214   10.6885489393
   3.7777534922   15.4731519362   12.0065059039
  13.5674993227   18.0531647617    4.0735965558
   7.1746364620    2.2552767129   17.7818336192
   8.4290245351    4.4155118685   18.7028908299
   8.3289575718    3.2576525320   17.6542676824
   3.9645116641   15.4175527229   14.3637946273
  13.0680949063   17.8664114025   11.3787003946
  11.3485322781   15.2592713589    9.9318702426
   9.4836433206    2.3527083358   13.1028841420
  14.0706034329   15.8978922162    0.8920088163
  13.8884782535   12.7955468648    5.4081557329
  10.6580749393   14.6045766741   11.1651582112
   4.8302564880    2.7222259910    6.5660109138
   1.3930830231   12.6278631725   11.6445234078
   4.1151771967   16.8911696633   14.6815706043
   1.1948849404   18.2257001619    7.8885241820
  10.5246931080    2.3170930359   14.2137978648
  11.7406777915    3.1650022100   13.9427143758
   4.9838288692    4.0399361548    5.9504431950
   5.4041167147   18.7779142470   14.1351540709
   9.9860245105   12.6887215269   10.0394206740
  -0.6258139337   13.2114031369    8.5078530911
  16.7070489427   11.5041947998    7.8670010453
  -0.6786981923   16.9519817800    6.7057252366
  -1.0953161721   10.7381049702    7.1307394811
   6.0274118860    6.1408485564   14.6498957971
  15.0462999279   14.4596193043    4.1516282899
  -0.8152526955   18.0295519483    5.6206364452
   2.7946166837   12.6322722316    9.5580560280
  16.7252320673    9.8641256820    5.0636300320
   3.9796356771    6.1369942186    6.2643457788
  11.7292772338    1.1417536953   18.1565216133
   2.2817667068    4.6401800200   13.1689927788
   9.7407153705   19.4196397714   18.4066310280
  16.5768944468   14.3829233076    3.9113824210
   7.1491919636    6.4546246151   15.6285267513
   3.2616348448   13.6548728092    8.5697212958
   8.9470842597    7.5335254639    5.3993141955
   0.3161913367   18.5934466786    3.6341424069
   7.6291133149    7.9050728133   15.5999706042
  10.3389279537    7.3127348344    9.7903310300
   1.2324936137    6.2044322100    2.6073748725
  12.7472952952    2.2278534388   18.4663894634
   1.9847134375    5.0024683668   10.6055894218
   1.2344542236    4.6759725276   11.9248660051
  10.7835824925    4.8806342483    3.5354182049
   9.5915351364    5.7046676846    4.2066603185
   8.8512723084   15.5885508368   18.0704473128
   9.4304755952    7.7934324324   11.0032120750
  13.4389090052    8.1669989451    3.4751348997
   8.7738565194   17.9678001391   12.2468024381
  -0.4800955510   12.8731746452    3.2135938332
  14.5703429269    5.2920129074    5.5040750816
   8.0438552642    8.0378145933   10.5917523773
  14.6292305782    9.7387268673    2.0471192521
  12.2703051734    5.3248955332    1.7542869780
   2.5127728226   14.7001907683    6.5611879762
  13.6239255917    7.3483666155    4.7206877752
  17.7826763231    6.5862038257    2.8106578340
   9.0146142398   17.5794542597   14.5749736435
   9.1501902355   13.2094044299   17.9421192105
  15.8337686803    7.5800890367   14.2782519237
  17.0726024350    7.4036141023   13.3016630515
  17.0503999775    5.6846018266    1.7702957191
  15.3805240252    2.7819106093   11.2035361732
   8.7630297218   11.8519797567   18.5588011143
  15.8926672962    4.2370276955   11.0359278590
  10.5141594376   17.6604165661   14.3625681355
  15.4041414947    4.6728071747    9.6034461545
  -1.4054798748    8.6767466394   12.5518088711
  10.6531137329   18.8685923513    6.9935255177
   2.6618813684   10.0651085280   15.4449505676
  -1.8579745792   10.9202655434   18.9926764182
   0.6010438090   12.9653206887   15.2175494487
  16.6842806604   12.8408391247    0.0122938779
   4.7233708022   10.2228256850    6.5556313933
   5.9180015450    9.1906917505    3.7623522023
   9.9744585021   16.5755497360    4.7680064874
   9.1470191057   17.7196639471    5.4168984964
   1.6019230483   12.1635288773   16.1024412550
   2.4929268246    0.5805896621   12.9587110931
   1.0954775299    0.9053935563   12.5552130638
   0.8822944615   18.1914581293   12.6695513698
   0.5782107786    1.0479705371   10.2291781490
   9.9446109317   10.8305737274    1.3634470485
   2.3759648628    9.8584512944    6.4080747314
   6.0019646650    9.6230667561    6.1583253984
  12.0973058396   19.3790537056   14.7214239048
  -1.1693915948    8.3098048851   18.4109044068
  17.2887097130    3.9511556047    0.1187152886
  -1.5379885376   11.8200079692   15.1196155560
   0.3977792789   10.3023943929    0.1255069711
   9.7410426700   17.1208882969    2.5209563916
   9.4294065962    5.8162486707   13.5991383943
   6.8356259145    1.6781470655   16.6208534027
   9.5661716274    5.2169031442   18.6278877853
   9.1183591612    3.6063329831   12.5401362117
   7.4450334729    1.3262241607   18.7589716541
   9.3751982273    4.0798577247    0.6684721581
   6.1774120495    2.9151069553   18.2839413047
   7.3541235560    5.3060527389   18.7435423535
   8.3656468826    1.7694470065   13.4788247435
  12.1970645511    3.1814637812   12.7111511841
   9.9687501726    1.6778301654   12.0229554119
  12.7785505322    2.8832872773   14.7075377932
   4.9417272114    6.9075329724   14.8977948568
   5.7079334674    4.8227910010   14.8303859171
  11.3757977212    4.5798441168   14.2201769112
   6.4238658340    6.3211582132   13.3494205324
   3.2527210478    3.8210059332   12.8341608719
   8.9535207259   18.4387279685   18.0309303961
   2.8223733514    5.8570516050   13.3535207500
  11.4525077046    6.8298029482   10.3877572397
   1.1946057749    5.0344878733    9.5314372782
   8.1409768579    8.1187429507   14.2481272063
   8.6101912117    8.1858867371   16.4104479245
   1.6665827583    4.2658356982   14.4042179548
  10.6837230560    8.2762897340    8.9173992555
  11.0486719639   19.2361414038    0.4261346182
  13.9162270872    2.3039488619   17.7858529889
  10.9083002322   19.2114305018   17.6804426656
   2.7333123166    3.8897320360   10.3398621682
   9.6875020875    6.3976349459    9.0687434979
   7.2652011984    8.3419788157   11.6755322241
  13.8739673456    2.2217919756    0.4808002465
  12.2908553570    3.6263606270   18.1319843374
   6.8287867107    8.9470041597   15.7165918900
   2.6186142420    6.1972590992   10.5231736770
   7.5664845816    6.8611313776    9.9252641676
  15.7257730986    8.6630057606   15.0023550487
   7.8809085013    9.0572829662    9.6594101701
  14.0642185651    2.7207279749   11.1173297604
  14.6229143913    7.5422391076   13.4824073786
  16.0231895067    3.9163631559    8.6461823987
  15.8855183739    1.8259863703   10.4604351466
  15.7409470609    5.9260290221    9.2721389869
  15.6870213932    6.5359595002   15.1494751205
  -0.3370129126    8.5156935195   11.6558583258
  15.6562483911    2.5441595438   12.5794530137
  -0.9210283100    9.6779833061   13.3944774478
  14.0459669622    4.6321362159    9.6058602147
  16.2702015381    9.1166472109   11.8660764712
  -1.4883705171   19.2135659180   18.5916620495
  14.6138435616   12.4163434328   16.0800692821
   1.3768093977    2.5200019963    3.2986058468
   6.2451994378    7.2484284116    1.6479509614
   6.3899774681   16.2722485327    8.0897751739
   9.4674480820   11.2917259154    7.6402490277
   5.0374170003    6.3719569026   19.1581768980
   4.3620238456    2.5940508492   16.1697519479
  17.2753278441    3.1436339279    5.9018764022
   0.3373011299    1.0155470551    1.6576985677
   2.0004424350   16.8008495439   17.4454208325
  18.3669949240    0.8106640870    0.2453883388
   8.0759846972   15.4972084963    7.4742134015
   0.2868540845    1.7949803944   17.8346866853
  -2.4483917649   19.1296117176    0.9862380674
  13.1655016715   12.9001751388   11.8636853769
   0.8287961874   18.8786502074   17.6018824923
   7.8171192484   14.3104866830    6.0534151989
  13.1009072374   14.8138954317   15.2703739462
   4.2892107758   10.8550832159   18.8985026931
  14.8499422518   12.6121653505   11.9164240604
   4.0135718421    3.8588106303    0.9001324043
   3.3224463787    5.3892103394    0.5789948395
  12.3334528237   10.1894205255   17.8147597367
  12.1546244066    9.7570323234    5.9802761086
   1.1633983209    1.6053197501    4.7804117824
  -0.0790555356    2.3144696434    6.4172831667
  11.0080791111   12.9749779495    6.7055242156
   3.1404035713    1.7705002633   15.3166577033
   5.6669512410   18.6329769576    9.1769473056
  11.4197439483   14.3123029494   15.9486360590
  12.8190272241   11.2573633711   14.1168421165
   1.2733578729   15.1329853121   17.4241983080
   3.0774705745   15.4378111204   17.2956071557
  11.5749576121   15.4622217516   14.7290984355
   7.1155654021   17.1115776136    9.4591302675
   1.8578063530    2.6574377525   17.9023960154
   3.1619933209   17.0331729086    1.2344830257
  -0.7210438735    7.6373360614    6.3243644889
  14.3559400551   10.5630201422   16.2020975697
   2.0635901200    3.1005918576    4.9592055715
   6.7379251953   15.5335509093    9.6428858037
   8.2523032607   11.3067968427    6.3296967183
   4.2840215380   10.5223555365    1.0538450473
   7.1372584417   13.9720768548    7.7026957168
   2.7102554849   10.0244668236   18.8666051015
   3.6508498785    4.7169839012   18.8196847706
  14.2272533885   14.3362658320   12.2909982905
   1.0271822976   19.3504963388    0.2254408817
   4.7072368529    1.0133913263   15.5581194072
   0.6425888059    2.8816381994   19.1337863292
  -0.5450024023   19.6149452446   16.5423311894
  17.7484643701    0.7073101772    3.8539578225
  17.1552155553    1.9625403883    2.6996802414
  11.9107667733   10.0018009637   16.0475814763
   3.8987490836    7.9104527180    1.6215290556
   2.7552158768    7.3244309872   19.1908448051
   0.9352377833    6.8761403665    6.3004629178
   1.0356998038    4.5702561591    6.6968337154
   1.6500834708   16.6081324945    0.2502138887
  11.7584271454   10.9647242719    7.1721802367
   4.3748059234   18.7050954533   11.3368959652
  11.0994439935    9.3383467143    7.2373052604
  11.0648315041   11.2289115388   17.1401587639
   9.8242170906   13.4421289584    5.4911520697
  14.7546709798   10.9790885649   13.9731687355
   4.2456024477   18.2748395259    8.3519650420
   8.0135466379   13.8565650316    4.2113777569
   0.0173428670    3.9271531432    7.8629814909
   0.0452068472    7.2081095097    7.8293259106
   6.1458308893   14.6210044818    2.7070440622
   6.8987477004    1.6504427217   11.5537961878
   2.0316461612   14.2490854039    1.1916163394
  13.7259244132   17.0646378214   17.7900503365
  14.4003469329   16.0629483820   16.4865697848
   5.5614710199   14.9137487748    0.3420015999
  -1.8700315317   14.9176244770   12.2864523543
   8.4679891088   12.1318975685    3.9678755686
   5.5605783533    2.3292333503   10.6246566918
   2.9854680161   18.1135437158   10.6542077900
   4.3898185691   13.3923062234   17.0422413601
  -0.8837853490   14.0763098950   11.0610356827
  15.0776410355    0.4511192162    2.5736196811
  15.3075652004    1.5897799551    4.0088868096
   5.6311431407   17.1371662075    3.7685422619
   5.9112272736    0.9709228085    8.0982681221
   4.3816252563   19.0635454747    2.4720720242
   1.4261722793   15.5061995394    2.4309200694
   6.8597923482    1.6385919662    4.5000917015
   3.8363082800    2.3535039734    2.2173602792
  -1.7647316000   17.2890257898   11.9890016321
   2.3673734685   13.4697069830    3.6405326307
   3.6363699173   12.7995304165    2.4841668421
   6.7815442610   12.4619477964    4.2695417980
  13.5843426237   14.0879977024   17.4064558022
   5.2463981117    1.1969129724   11.8639219528
  14.7746320809   15.1911222749   18.4528719785
   5.8078052751   12.4111536601   16.9107962542
  12.1638500319   13.7463865423    7.9079564137
  14.7862726302   16.1454117428   10.6143133995
   5.5121915158   12.9400519922    2.0929448880
   3.1933056341   14.8296312679   11.3305564965
   3.9234920709   16.8232792621    3.5988570007
   4.9019564500   15.2758516488   12.0470021313
  13.6422035262   13.1394077583    8.7768327915
   5.3452230395    2.2850725564    1.3591884658
  -0.2691260107   15.5393774590   11.9806686699
   7.3067958961   14.5420393745    0.2403613746
   4.1135606601   13.5963328839    4.0753692013
   7.3707748038    0.6013225530    7.0836519352
   3.1543128278   19.6325813442    6.7044973180
   6.0120430831   14.0801320351   17.3503318275
   8.0441583747    3.8113125277   16.6944144656
  12.4357285096   18.6630392499   11.9905288900
   3.4502429188   14.6600211049   15.1622046823
   4.9949675468   15.0072245291   14.2991200094
  10.7412761273   15.1762276206    8.9960193428
   3.6866073372   16.6098912914   11.9203113704
   4.7279301717   16.8099428044    5.3247511012
   5.8365496350   19.6413470651    3.2225518414
  -1.6164251273   17.9456776632   10.4232552036
  14.3575669797   17.7006176341    4.8444111815
   7.1640455567    1.8359193318    2.7119289287
  14.0192575415   18.1124361748    3.0525314900
  12.9573120799   17.1505648275    3.9736261434
   5.1597553003    3.2106696692    2.8767562863
  13.6542638154   14.9148598959    7.9992915591
  15.1431776653   17.6501123461    9.6970171172
  11.0244354534   14.9220401339   12.1828740325
   0.8962565076   19.1435110176    8.4650470177
   1.2296458197   13.4876117581   12.3817302766
  13.8478059312   12.2796614339    6.4740344453
  14.1706002738   12.0198458656    4.6262553933
  12.8838973833   18.1088922605   10.4004484946
  13.4230827896   15.7182775602    1.7322530895
  15.1365917693   15.6973657684    1.3372024228
   0.3729760394   12.1747239049   11.4129505768
  12.5859866955   16.9028698272   11.5574093053
   2.2159705565   11.9437256205   11.9149715618
  12.8789603991   13.2017401121    5.1344840775
   3.8994164030    2.2174388038    6.2058513331
  11.5373415739   16.3488173877   10.0841850515
  -1.0847956934   14.2001862064    8.6433328355
   9.6134136769   11.6250601776   10.2781822086
   4.6268697290    2.6825019556    7.6854876035
  14.0582807858   17.0290292824    0.6402878622
   4.9760630979    3.8797622966    4.8694207038
   5.9222619361    4.5476507412    6.3408976574
  16.1666186220   12.2584358562    7.2329307796
   6.1045031615   19.1409797580   13.3515705146
   1.4166191188   18.5547016762    6.9414635742
   1.9761220812   17.6446114044    8.2494416946
   9.5547163524   14.9135620173   11.2442358099
   4.2376576619   16.8838996452   15.7960993023
   3.1878930456   17.4332038106   14.3766572764
  -0.3953562838   13.1101506681    7.4053774753
  -0.4574232427   11.3513212122    6.5159800233
  11.1290860246    1.2846789687   14.3231547770
  14.5306537482   13.9715904697    3.3416417038
   5.8143613597   19.0843049916   15.1312566223
  10.5822899086   12.4855792838    9.0886817296
  16.8858058067   10.8913036673    4.8318690861
   4.4823260269   19.3909212019   13.9020338997
  -0.3824664740   18.9851750822    6.0492046311
  -1.8547407835   18.2424538045    5.4097105971
   9.0116687940   13.1967525590    9.7670686233
   2.2869435572   11.8420710607    8.9152093720
   0.3903756958   13.2242219675    9.0555457701
  14.8249452878   15.5782660628    4.4018080994
   3.5691351293   12.1382476678   10.1440745639
  -0.2969649612   16.0934513081    6.2694599023
  10.9180874935    1.1480991899   18.8379842136
  16.0014405779   10.6875410245    8.0521004846
  -1.6339128897   16.6181929169    6.9636854229
  15.6604033251    9.5569511861    4.8793787473
   3.3133912635    6.7979984471    6.9847032192
   9.3210788089    8.4364279013    5.9208168202
   3.7337746758    6.4362616381    5.2694576839
  -0.4542817845   10.2272677313    7.8481426943
  -1.6873191281   14.7125525527    4.8468523996
   1.4354154068    6.1431674930    3.6746466666
  17.2484120605    9.2079660044    4.2855827751
   0.3612818831   18.3400534462    2.5049971253
   1.4034246855   18.7865776663    3.9572662492
   3.2101316036   14.5719427739    9.0819083054
   1.0700186048    5.2657118816    2.2285704649
  -1.9989462167   15.2707745197    3.2349304143
   4.3702934069   13.4496122828    8.2201713962
  11.6170462070    4.8165013062    4.2865070712
   6.5426748938    6.4660659493   16.5941095283
   5.0256784642    6.3666905129    6.5410220670
   2.1588184945    6.5862062304    2.2396060464
   8.2458018835    7.7216003952    4.5116934113
   9.4410502329   16.1199658104   18.9083914284
  10.3291849303    3.9430456497    3.2202286902
   8.3205996791    6.9735818351    6.0861902975
   0.8262619076    3.6590235392   11.7498170555
   8.7106094204   19.1283933252   12.3038709953
  12.5774184245    8.9523384153    3.6291965967
   8.0103785353   16.2891516020   17.9556989005
  13.6516343240    4.8216144072    5.8334741449
  12.8350329006    7.6554559915    2.6632169525
   9.6952598187   17.6467525967   11.9595496642
  -0.1577154025   19.5597373966    3.7606349432
  15.2734891193    9.4994846655    1.1038741452
  13.1472116953    5.2951204840    2.4768237500
   8.9120846118    5.9391453097    3.3489120997
   0.1307851215   12.9626884925    4.1351142225
  14.9920315552   10.6647095200    2.4898345974
  12.1072060116    4.3220555689    1.3936649307
   9.5561079345   15.6504702935   17.2465381952
   9.1865140605    5.0146732643    4.9896610469
   8.1037196348   17.5776754222   11.4327522085
   2.3340381156   15.6896235959    7.0912455504
   0.0267195169   13.5141337192    2.5126352896
   9.8388817820    8.8124646559   11.1536385757
  15.0487025362    5.8507866090    6.4053743064
  -0.3636189621   11.8063075280    2.8312104400
  17.1724836481    7.5435772972    2.7175150481
   3.5082357103   14.8630966799    5.9429684114
  15.3328234506    4.5733934543    5.1437736968
   8.7730308776   18.4985931119   15.1718825344
  -0.9035208610    6.1459523849    3.7328564307
  12.5925306116    7.0085754755    5.0844860005
  13.5878052635   10.0212971111    1.7119672397
   1.6422553748   14.6549213937    5.8216692850
  14.0310501736    7.8467293564    5.5443885844
  12.3172210835    5.9872931862    0.7808168287
   8.9822879969   13.1996699313   16.8568409094
  -0.9402845384    7.4569846177   14.0305877357
   9.1415342921   11.0832087320   17.8612658385
   8.6587129689   16.7952103203   15.3114083006
  10.1276010859   13.5063116176   18.2190824857
  16.2971525187    5.3089315063    2.3737717434
  10.8708498280   17.1742217854   13.4437537056
  16.7540036412    6.4036670087    1.0103389835
   7.6830033325   11.7805947093   18.5445537285
   2.1080516238    9.6822594717   16.3067120471
   0.0126920751   13.6127354001   15.8363265264
  11.0000923490   16.9675162076    4.6656009068
  12.9045646198    0.1358816996    6.8964781759
   4.5566746969   10.3283517575    7.6394527456
   6.2366783880    9.5976311222    2.8625399972
  10.9145473163   18.6475674262    8.0385643200
  17.0149823569   10.4250479177    0.1219531669
  -2.0780500074   10.8923995943   17.9778052936
  15.3277327074    4.7804898950   11.8103680974
  16.8503768461   13.9199920360    0.3017538316
  15.2751799182   12.7274166919   18.2359939313
   0.5648445668   -0.0160405456   12.4305384856
   3.0198876102    1.6017993023   13.0211722792
   0.2079877794   17.9237368403   13.5517079736
  -0.4639981891    0.6857018372   10.3127563499
  11.0106900464   17.2510510227   15.2082126325
   4.6246110483   11.1536720914    6.0142753494
  16.5414046109   11.5397457614   14.3837270842
   9.4502064622   16.7023686191    1.5233484883
   2.1098182654    9.7903989712    7.4977921805
   2.0663992588    9.7042335055   14.5674305938
   9.1879411771   18.6001809808    4.7824368699
  -1.7251369194    8.5186325119   17.4696606691
   1.1876282190   13.6079925511   14.5643672728
  10.3475121385   10.9906633331    2.3717327053
   2.3008402672   10.9328017670    6.0793779722
  15.2202312326    0.2215711860   13.9741786168
   6.2271987399    8.1525672883    3.8303183439
   2.1527213297   12.9406467973   16.7819909021
   1.8493146047   18.3556879995   13.0286949999
   1.2257382687    0.2674836852    9.9041094809
  10.0075504982   15.7191598620    5.5120874292
  -1.3926041780   11.0004142176   15.7767748932
  16.5015720444    3.1157376419    0.4602029273
   3.6778592219    9.7843045908   15.3828958941
  15.9900339888   12.4128140747    0.7313780671
  11.4587145798   18.6883602464    6.2995364547
   4.7998135979    9.3529528921    3.5636517460
  10.2288642597    9.8970456400    0.9551558623
  15.5998722118    4.5819115362   19.0036303051
   6.7834147342    9.9494382345    6.8448861182
  14.5408385181    0.1694875092   15.6132579802
  -0.9223403725    8.5156841357    0.0210203652
   9.2219355989   18.0888205031    2.7271179967
  -0.7845745381    7.3120183840   18.4306403431
   2.4794624383    0.2178414177   13.9585209768
   0.6567942814    1.4701982953   13.4162200775
   0.9679573656   17.2629232598   11.9452695050
   0.5734896457    1.8823956021    9.5297236634
   0.3708765408    9.8176045339    1.0974607530
  17.0751464750    3.3428467967   18.8296038881
   1.1633727004   11.1253247890    0.0709633038
   1.1588966124   11.4032712097   16.7846934630
  12.5750924694   18.4311271811   14.9676211263
  10.8236661292   17.3565549258    2.3703735357
   1.6801148499    9.1650571405    5.9545611043
   8.0579528827   17.5215485003    5.4185267219
   5.9366581019    8.5340935459    6.2690592880
   8.7373700789   10.8174547742    1.5395627630
  -1.8341096785   12.6564601666   15.7048684952
   5.2218558234    8.8773246212    0.2552362324
   9.3342985006   13.8360934636    7.4972181138
  13.9659787704   12.9493894955   13.8404894754
   3.5613125589    1.3631287248   17.3253013161
   2.5591435659    1.3311124696    0.1013004495
  -0.7327681953    5.5463536405    6.6287397483
   5.3305240569    5.4383003993    1.3600753141
  -0.0623894684    3.2400406210    4.6071600174
  10.2205800889   10.6629588352    5.8131942799
   5.1127458179   16.8420208762    9.7053153836
  14.6834718124   19.7074638157    1.8844403093
  12.7695305104   11.8804153200   16.7521633992
   2.5814332512   15.7858382492   19.0345646399
  12.3063371608   16.2653773656   16.4481698327
   6.2139264230    0.3440288365   10.0171379325
   3.5016297681   14.9301323106    2.5543088387
   7.4257254664   12.9998091530    2.3471574055
  12.9914694404   19.3902158858    4.4702083134
   5.1496218831   12.8959738284   18.8785252781
  -1.6695365125   15.8692649463   10.4649675985
   4.3525766948   18.6834634686    4.5051098732
   5.2557071906    1.1366555512    3.0474379578
  12.8317540101   14.8997468444   19.1356380662
   5.9756564282    2.0163950319    6.1657067865
  14.4767706592   17.7343931036   11.7248447918
  12.6157466488   14.6278933031    9.7296444082
   3.1747288795   15.1134946232   13.2128042544
   5.2245721862   17.4012129831   14.0182117388
  10.0087182850    2.7596615107   15.3791046067
   9.6104977983    2.6092655054   17.7314093682
   0.0124722867   17.3417886645    7.9263729085
  10.8193183957   13.1973790238   11.0420576960
  14.8547689398   13.8086976268    5.3849218441
   1.9438004320   13.4119401021   10.4335991670
  -1.4578743148   12.1796214756    8.9447578471
  17.1672640760    9.6665644847    6.3611961319
  11.2413479411    1.2460462159   16.8779539702
   3.7608541066    4.7579169258    6.3848683526
  -0.3226286576   17.5032185494    4.3138243237
  10.1019796970    6.9011923343    4.8356158198
   8.0005050421    5.4017388761   15.4531741849
  -1.8683344315   13.1099755647    3.4264954156
   2.4934618267   13.5713277458    7.3827042907
   9.5516893120    6.8581656128   12.0292149517
  14.2300377773    6.1094523267    4.3685481872
   0.1973775474    7.1214691894    2.3615345988
   0.2123025975    5.5931839631   12.2621620512
   8.3725225208   14.3648110990   18.5090120871
  11.0998708114    5.7902423109    2.4793429004
  14.6340271219    8.6212996338    2.9164218059
   8.2121207330   17.3553756007   13.4853955992
  17.2766375806    4.3663856799   11.2143803768
  16.7892530182    6.3380895654   12.4209819045
  17.8132140005    4.6395749925    1.1987264179
   2.5853787779   11.5119079947   15.2722178237
  10.7492462909   19.0513988246   14.3549909505
   6.4318993551    9.9856054045    4.8243657950
   9.5107966809   17.9602562691    6.7476829511
  10.3362474441   11.9167518523    0.5359505886
  -0.1310757392    9.2485102996   18.4018034875
   0.2804985402   19.2937601170   11.9223780746
   1.0516684051    1.6488086345   11.3902785923
  -1.7726184131   12.2954952873   19.2515169364
   9.4503304127   16.2526459082    3.5334034117
  -0.3497785982   12.1441652881   14.3748808237
   3.6908894960    9.3563933822    6.0811746934
