B2 C140 Ca1 F48 H298 O66 
1.0
1.8700349696139511e+01 2.6206693848584625e-18 4.7329530212517977e-17 
-6.5592711486124677e-01 2.0191361993704138e+01 -1.1329978984923857e-17 
-9.2382331302274501e-01 1.9492760409327661e-01 1.9959972676395605e+01 
B C Ca F H O 
2 140 1 48 298 66 
Cartesian
  10.3829034976    2.8039646032   17.1347586677
  -0.6025379938    5.3093574954   12.5341500122
  17.1174072037   18.7559746231    0.7125046478
   9.9264237082   14.8449077948    7.2593751426
   6.0720310292    6.9489467251    0.2177088183
  16.0393004548   13.2443902552   13.0883698075
   3.8318701378    2.6227966682   16.7008532911
   2.4033761373    0.6722393439   19.4646456329
   1.4200834721    2.8586744940    3.6722085405
   3.0450214335    0.6909244302   18.0547132060
   0.2208530677    3.2058002343    5.8665402463
   4.3193956241    5.2991056802    0.2348541784
   3.3653890972   16.5412611141   18.6923963938
   1.0853920666    2.5683534678   18.8005541035
  14.3897942705   15.9170030086   15.6581084453
   6.5798357790   10.6208206314    0.0497889530
   7.6294825146   16.7684045228    8.9553332072
  15.2313555420   11.2878135078   16.1695646668
  10.9305356566   12.2058692683    7.0186022950
  11.8205860111   13.4170505667    6.7480338986
  15.3922871362   11.6679705244   14.6807535698
   5.5359382667    8.3915422482    0.3365943624
  13.0882110579   12.2086957565   16.5297316434
  12.4946697176   10.4743571670    6.3047391122
   0.6676477578    4.6234532046    6.4141288799
  -0.0351255169    6.9080106332    6.7798607848
   6.1054744130   18.4126143571    9.1954740285
   3.9611540476   17.0959264151    0.9936712501
  16.4750392391   19.9473350177    2.5036354124
   5.4344974997   19.3286195199   10.2585050163
   3.4757434433   15.9453564240    1.7454331769
  15.0026489012   16.9414193819   17.7986495896
   4.8605089913    1.2364487616   10.6347279745
   9.2518370680   12.8697427392    3.8544223371
  16.2200135408    0.1279229467    3.6458194691
   7.7765415112   13.8823012213    2.2202736038
   7.9658517729   14.5314812716    0.7876929921
   1.0978618231   15.7229258273   10.8805916537
   4.2490060152   14.5775269408    3.5337733423
  15.4493855926   15.7075794713   18.5660263849
   6.6346115511   14.4464328055   18.4940729974
   6.5750458662   17.5028079814    4.8101304578
   6.6943682598   19.3066245986    3.2565655313
   6.9042831757    0.5704427078    2.8687089262
   5.1300803776    2.1543236568    2.7333318114
  -0.7351704128   17.1257291799   11.2315443309
   5.8160147006    1.3892773591    5.9503901938
  14.5284599289   15.1359166442    9.3454481036
  16.5291991956   17.3535525033   10.8045831266
   5.5972298904   15.5669377783   12.4808458982
  15.5441925377   18.0138534053    4.5650539744
   7.0153199958    2.8937975185   18.2243989103
   8.5486703669    4.6091578487   19.4464905135
   8.2623855994    3.7252920578   18.1953396737
   5.6557998256   16.1054590293   14.9366433237
  14.9568344632   19.1620876248   11.1048725036
  12.5444797632   16.2548275728   10.2127482287
   9.7618309663    2.2578311390   13.5199953645
  14.8978790546   15.3008919496    0.3890042694
  15.2796540483   12.3912157034    6.4584675025
  11.9647252839   15.4915389019   11.4337145617
   4.9657230113    3.5808740173    6.2810496737
   3.0112680082   13.3003219295   12.5063608210
   5.3509539101   17.5138037497   15.2450857303
   2.3221787285   18.7495654467    8.8515932706
  10.8104669908    2.3757990942   14.6941166173
  12.0218371266    3.2778990033   14.3532300652
   5.1791352027    4.9575394702    5.7006685398
   6.3821280013   19.6736385945   14.9309489868
  11.2231043538   13.4458837956   10.8085350015
   0.5701581809   12.6780519168    9.0613456747
  17.9454703585   10.8288378354    8.2944654573
   0.7067294267   18.4318167727    7.0825614531
  -0.1464556651   10.5298834181    6.8592109515
   7.0462260954    6.4578587273   15.0772552153
  16.0660709485   14.4300078437    5.4500404353
   1.4117337441   19.1262046982    5.8773454030
   4.4153220626   12.7563535764   10.5252268684
  18.1036247169   10.9047490050    4.5027517572
   4.1705990737    7.0642213060    5.9770397572
  11.9342947499    1.8555774416   18.8225794193
   2.6523389891    4.0997743256   13.5712977195
  11.9160741887    0.2960072949   18.7884825959
  17.4006486619   14.8260780515    4.7607372081
   8.1622478837    6.7641445439   16.1719060484
   4.8291172903   13.4371441752    9.2465782348
   9.5151186440    7.9404377300    5.9427723495
   2.3783498592   19.0841199160    3.8011757458
   8.5439510888    8.2529566743   16.1952556804
  11.3603824621    7.3966121217   10.0516170022
   1.8539823681    6.6751332109    2.5302935624
  13.1870690856    2.5609695578   19.2417348551
   2.5495265550    4.8947348777   11.2445408580
   1.7285478134    4.2495824698   12.3788156385
  11.0284051454    5.3571821668    3.6860639343
  10.2391687308    5.9660557385    4.8365613028
  10.3696453431   16.7774378249   18.7558648616
  10.4729353421    7.9352520656   11.1865015756
  14.3587874107    8.0836995758    4.0621172972
   9.5992415615   18.1840072789   12.0540010033
   0.2012163574   14.2025316030    2.8769399830
  15.3431899203    4.5947490182    5.0834838408
   9.3134297632    8.7264549855   10.6308964375
  15.4207978584    9.0376218530    2.1254376514
  12.3690778423    6.2846781785    1.7952564536
   4.3343540837   14.6901595337    7.3411128762
  15.0776938088    7.0716418346    5.0758687588
  18.1872416854    6.6603048575    2.7134136482
   9.6277431929   18.0968454516   14.4116222037
  10.5379729084   14.4343733519   18.9873521842
  17.0316204809    7.5044318982   15.0822972763
  -0.7755241846    7.2412985007   13.9034357438
  17.7019629707    5.9678731190    1.5603249838
  15.4825768998    3.0628748981   12.1482221125
  10.1625153256   13.3887130018   19.9550052053
  15.9856879937    4.3373852230   11.4101347496
  11.1260408604   17.9937642459   14.7272096950
  15.6945737790    4.2205431714    9.9265787290
  -0.4525375469    8.5317795436   13.0858562687
  12.7740540307   18.6915908103    7.2614649504
   4.6669309969   11.5717625219   15.9348770642
  -0.9779974640   10.7301061737   19.4141165186
   2.0986719561   14.2004659256   16.5356189757
  16.8993790288   13.0046689983   19.5307470725
   5.5536853912   10.7972539534    6.4015310624
   6.5462651764    9.1296516403    3.8854273470
  11.0747472787   17.4403419714    5.2615146228
  10.5610366671   18.4427238053    6.3149730646
   3.0215172179   13.0883566627   16.9292123047
   1.3707644670   20.1089405954   13.4679026517
   0.6493861348    0.5120770500   13.0886960285
   2.8394518101   18.4741795970   12.9431241479
   0.9858737158    0.7876738061   10.7359963573
  11.6851391766   11.4901547788    1.5116102083
   3.2803807519   10.4940250173    6.8453150803
   6.7830291838    9.9725468959    6.3106197021
  13.1120573921   19.4205518733   14.4118168100
   0.6653484778    7.5754410847   19.0750769936
  17.4089695610    3.7201761734    0.8746697928
   0.0429053055   13.2598727315   15.8957774221
   0.9432602763    9.5796429066    0.2081417935
  11.0543688662   18.4755915468    3.0128220262
   9.8037476377    6.0158878808   13.8235223616
   6.7506581674    2.4278897509   16.9899191766
   9.8608285653    4.7236830595   19.6685451639
   9.4297028410    3.4753355925   13.0980323119
   6.9883675097    1.8816875793   19.1623636105
   8.8604768252    3.9240993804    0.5946529794
   6.0659679530    3.7841064722   18.5064684360
   7.8981948686    5.8882258658   19.3225519049
   8.6402099394    1.6336456035   14.0626254757
  12.4180006968    3.1213000288   13.1034272513
  10.0531330624    1.5604785938   12.4051704027
  13.0597573129    3.2481087609   15.2772379326
   6.1350813526    7.4650560327   14.9536477932
   6.4959928098    5.2457468177   15.4112339707
  11.5296281228    4.6108312691   14.3464438510
   7.4962714874    6.2800231426   13.6204994875
   3.7500744082    3.3971625191   13.2775342190
  10.0832152084   20.1688725940   18.1339744940
   3.0984111557    5.3341539401   14.0614866739
  12.2048111398    6.5059024225   10.4770607850
   1.6927192476    5.6289815539   10.4295860368
   9.1498696167    8.6571655627   15.0837540580
   9.4244775110    8.5104626978   17.2536344029
   2.0186276901    3.5171758669   14.6632928301
  12.1210646588    8.4057378165    9.4850881395
  12.0736927199   19.7553702708    0.0808084581
  14.1296546370    2.1471579608   18.3840113078
  12.3281124364   19.9473273608   18.1968622286
   3.0765112985    3.8514269070   10.4378309376
  10.7247126461    6.8053972047    8.9896198099
   8.6091553586    9.4217268123   11.5824567675
  14.3297246148    1.9064461247    0.5359644935
  13.1129261507    3.9436147309   19.3031979918
   7.3961149113    9.0130840834   16.4706313142
   3.5124692012    5.6537192926   11.5980106069
   8.4706300474    7.9105078507    9.9990559067
  17.5946874247    8.1488083758   16.1666042111
   9.7410244135    9.6754567520    9.8083688205
  14.2936771105    2.6106634977   11.5862304140
  15.9418308008    8.3057839730   14.7630001798
  15.8789379350    2.9340070655    9.3919753514
  16.3153194935    1.9989719387   12.1545470095
  16.4603981124    5.1101144696    9.2150118593
  16.4945450745    6.3081260127   15.5805736652
   0.6262117438    8.1609292988   12.3060958461
  15.4219512422    3.4334246213   13.4333899555
  -0.1104439086    9.5772209543   13.8138167416
  14.4082321437    4.6792789005    9.6322046879
  17.2306046575    8.7526338282   12.1948955402
   0.9344401353   20.0816168120   19.5700425309
  16.2100425573   11.4539307011   16.6725026835
   1.2465192459    3.3159739693    2.6990464049
   7.1423390247    6.8967159650    0.6094284330
   6.8961804833   16.0709540848    8.5913281945
  10.8948259094   11.9353791619    8.1624675859
   5.2014021461    6.7692267940   19.1000007606
   4.4307528695    3.5156344297   16.8619912264
  17.9027906572    2.9914494986    6.2722274946
  17.8268482891   17.9662970956    1.2008623690
   2.3171485259   16.6506256355   18.5040668294
  17.9637300597   19.5558439619    0.6493486532
  10.0077299262   15.9051458365    7.6394759965
   0.1819349644    1.8862159580   18.6679415303
  15.9019073826   18.5679443531   19.7045160959
  14.9889891232   13.0805347532   12.7267962763
   2.8859148142   19.9215409003   17.9040540951
   8.9499695974   14.7089846998    6.7026457337
  15.3202223912   16.4418415468   15.2310272734
   4.7667854900   11.0651352270   19.4051717038
  16.7383809332   12.5848138010   12.5470593536
   3.5354694528    4.8449521838    0.8242001442
   2.8189287951    5.9984887029   19.4171768303
  13.1293550478   12.1129565560   15.4114187020
  13.1366582731   11.0248982700    5.6493069972
   1.7749835493    1.7777193423    3.7225572886
   1.0030641340    2.4530215630    6.1923107328
  12.4747728941   13.6378012286    7.6406819119
   2.7574271457    3.1226942300   16.6189515470
   6.5753201304   19.0717812909    8.4264668885
  14.7121088642   14.7964616710   15.7803171229
  14.5312206182   11.8074180220   14.0382467214
   3.7587140172   15.5996794723   18.5315060775
   3.7492221514   17.0411468316   17.7524055256
  13.5904648754   16.0293396678   14.9633018866
   8.1338903234   17.4487253435    8.2252510644
   1.5588218379    2.9856084716   17.9125295856
   4.4489793694   17.7950440217    1.6005123207
  17.6312357931    7.5672194789    6.6993933298
  15.1628589377   10.2219083712   16.3301552131
   2.1955831439    3.3668730732    4.1357317467
   8.3592991353   16.1278547351    9.4704881184
   9.8929700309   12.5418925693    6.7660034126
   6.6256924750   11.0339477751   19.6300883259
   9.8015550828   14.2699616148    8.1939045968
   6.3155802774   11.1494254693    1.0680726449
   4.0366597577    4.8039332943   19.6576866285
  16.2684499538   14.3146436244   12.9903140106
   4.1002663065    0.2894924859    0.2421704067
   4.0245255135    2.0190465818   15.7809322801
   0.7450604840    3.4835666855   19.3043145918
   2.2733016761    0.7118618543   17.2790343732
  17.3900027208   19.4995825855    2.9201391263
  17.4583261159    0.8313926396    2.1218247416
  12.4942741184   13.0600530226   16.9821930427
   5.2311143684    8.6262536762    1.3772444086
   3.7465184697    8.7740281584   19.6013815535
   0.7579500978    7.4138938055    6.2508105377
   1.6788450816    4.9492761036    6.0740604242
   3.0423118555   17.6480988809    0.6834082571
  12.8156044647   10.4950874936    7.3523744873
   6.1677101431   19.2671633264   11.0995618668
  12.4485607165    9.5101849517    5.9011621551
  12.4611122576   11.3977400444   16.9119273125
  12.5273237055   13.3206072611    5.8637610228
  15.9299725890   10.8178452994   14.3118028012
   5.2029058987   17.8430721825    8.6591232289
  10.2003974776   13.3827573258    4.0629347011
   0.8126073894    4.5619386520    7.5956503942
   0.3652034120    6.7694388218    7.8677656922
   7.7759121976   14.7130489197    2.8271884185
   5.5765927593    1.7984717720   11.2567962805
   3.0423982930   15.2227477426    1.0008361343
  14.7259734622   17.7816751701   18.5036490116
  15.8525147202   17.3682026919   17.1958441159
   7.3627781453   15.4704465430    0.8370671542
   1.4524421995   15.3421467650   11.8282175668
   9.5242041483   11.8130704478    4.0449851377
   4.4758507691    2.0210383726    9.9789282632
   4.5413884781   18.8958153082   10.5556085591
   5.9353950263   15.3779291530   18.3563461563
   1.5739441739   14.8725655673   10.2343354124
  15.3982905570    0.7613611789    3.3503402644
  16.8244595041    0.6793995844    4.3610034063
   7.5276955301   17.5094115060    5.4100290678
   6.4817378494    0.8928448743    5.1302446551
   6.1566553047   18.6789911101    2.5346822302
   2.6552773377   16.2275325696    2.4748833996
   7.3796477821    1.2101494105    3.6278135305
   4.1121196526    2.2831865146    2.7122487403
  -0.5706726724   17.1592064796   12.3483902492
   3.8303111902   15.2802565567    4.4034023559
   3.5541513633   13.7680235396    3.1335484572
   8.4166335408   13.2238503858    4.5270260324
  16.0720099940   14.9845868139   17.9822724266
   4.1179392583    0.6987226273   11.2493394072
  15.9682411920   15.9176777969   19.4824882601
   6.1916901441   13.8518962546   17.7801381252
  13.9886352067   15.1879481148    8.3292783365
  15.7292640660   16.6181783964   11.2829082768
   6.7192723926   13.3900742776    2.1682674268
   4.8443048325   15.0800042299   11.9694154152
   6.6883490890   16.9164797144    3.8935145714
   6.5108739601   15.1255641701   12.5785803516
  14.5026025812   14.2208182802    9.8955638933
   5.6344825692    2.6010068279    1.9362136753
   1.5756415196   16.6499976093   10.7181854188
   9.0191110051   14.8467850094    0.6970203135
   5.1845874124   14.1450139620    3.8143197529
   4.8451027282    1.0854320108    5.6443050407
   6.0338239201    1.0156321700    6.9353550019
   7.6654228654   14.6770398269   18.2680775794
   8.1965460120    4.3533579021   17.3722396511
  14.4775057415   18.3517794466   11.6566429766
   5.3493421452   15.3872880611   15.7331905813
   6.7698128906   16.1087964326   14.9146193339
  12.2986380972   15.9984142745    9.1840648238
   5.8350378829   16.5446251984   11.8765679808
   5.7960441999   16.9696752448    5.4847798137
   7.8199485798   19.2619377743    3.2491110700
  -0.1111763910   17.9007450410   10.6847418647
  16.4077867889   18.0737747076    5.1811933891
   7.5220010549    0.7366988612    1.9704622318
  15.7099374578   17.6129850669    3.5886466314
  14.8334163642   17.2608487943    4.8939862583
   5.5421458024    2.6100407054    3.6880332474
  15.6310818432   15.3721772566    9.2320932988
  16.4605909558   17.3013779916    9.7295394624
  12.3078272194   16.0525260559   12.3326384605
   2.2617053438   18.9609573728    9.9079752079
   2.0499906717   13.7051663849   12.5984725649
  15.5858255883   11.3534085175    6.4892506658
  14.6216497530   12.4214622961    5.5867478947
  14.8394293531   19.9640054010   11.8672834389
  13.9505550099   14.7415685615    0.7293137917
  15.5285862515   14.9506478719    1.1858298064
   2.9601525293   12.2154325759   12.5887728065
  14.6972626189   19.3295139009   10.0561774099
   3.6509497554   13.6500946282   13.2621167233
  14.5790538659   12.7109979603    7.2675314516
   3.9535599752    3.2339068444    5.9652572091
  12.4298807165   17.3890862325   10.3105646124
  -0.2615038889   13.3987334360    9.3104641706
  11.3583001698   12.3920291006   10.4322054342
   4.9255156528    3.6563137196    7.4040091292
  14.7191283545   16.3160055788    0.4150168511
   5.0591479484    5.0454604315    4.6653672705
   6.2275274872    5.2285157461    5.9546382008
  17.2967430502   11.5794853571    7.9211138512
   7.3316185267   20.0735910032   14.7304404370
   3.1428081075   19.1713369417    8.2510275267
   2.4653456788   17.6821896484    8.7868521396
  10.8688124672   15.5452117178   11.4903679061
   4.9160310805   17.7281751102   16.2749073529
   4.6304286698   17.9787143582   14.5924401780
   0.7658628620   12.8706058716    8.0230654832
   0.6048556842   11.3949885308    6.8275511774
  11.1454565952    1.3671839907   15.0046898306
  15.5459538326   14.1553280904    4.4807211938
   6.0588697693   20.2916991609   15.7997152191
  10.8182243679   14.0551793260    9.9127323313
  17.3561185294   11.2438700425    3.9030149928
   5.6619544267   19.8963236071   14.1361338175
   2.4921106291   19.2670691050    6.1233841648
   1.1072673023   20.1421985862    5.7464420341
  10.3968888931   13.3251829976   11.5653800887
   4.0328481899   11.7820322286   10.2474285445
   1.4311937357   12.9349017907    9.6434377260
  15.6032633224   15.2629808746    6.1130787519
   5.2520887640   12.6256146364   11.1775162594
   0.9651465300   17.3814631966    6.9849157755
  11.0756232619    2.1738475588   19.4651842312
  17.3923967069   10.0083990025    8.7093324634
  -0.3555887817   18.5200695934    7.0748687497
  -0.3987161049    9.8127887676    4.1327084410
   3.7925451186    7.6601659415    6.8420241854
   9.8758449484    8.8912963043    6.1694570283
   3.5372082132    7.2166367764    5.0663828313
   0.4049664697    9.5473335230    6.7680773596
  -0.5063354919   14.7929925048    5.5309426930
   1.9987083326    6.5452750496    3.6453567391
   0.1654510770   11.6571051211    4.4248059827
   2.8419576685   18.3366724510    3.1311022624
   3.3532524714   19.4439515342    4.2813536931
   5.1489150571   14.4540946431    9.6264470662
   1.8830476857    5.6707644692    1.9981205600
  17.2105154515   15.9088335931    4.3424774932
   5.6288403791   12.7496817530    8.8578131075
  11.9560389309    4.8799910374    4.0290184503
   7.7697235818    6.6091691781   17.1119105104
   5.1504561254    7.4129890531    5.7164272926
   2.5756310499    7.3698305545    2.0526666477
   8.7625674083    7.9249675495    5.1769558899
  11.0558359723   16.5297462199   17.8186483484
  10.4446271443    4.6431474218    2.9686387744
   9.2081319473    7.5976528216    6.9339606479
   1.4804634974    3.3123838901   11.9815848979
   9.0303576222   19.1386680994   11.9845199660
  14.5262762087    9.2351902238    4.3431617452
  10.8420192396   17.7569844708   19.2498699628
  15.4404361059    4.6525429667    6.2226983526
  13.2156351131    8.0187673140    3.9614879855
  10.6279149952   18.5981427293   12.0479020275
   1.9092317494   19.8478712228    3.2558979972
  16.5679631407    8.9278455867    1.9977117248
  13.4312903626    6.1354929115    2.0997601784
   9.2939962483    6.2071932694    4.3532218460
   0.9730720361   14.3519906089    3.6102956085
  15.1593176000   10.0628378335    2.5482601230
  12.0885992492    5.3890660932    1.0926312832
   9.3685065826   16.9225216825   18.2671489665
   9.9152787367    5.3099029494    5.6704393344
   9.3228543913   17.6140660034   11.1052031113
   5.3221116303   15.1181580885    7.3583631170
   0.3932828332   15.2413578306    2.3532008834
  11.2441161527    8.6675982760   11.6435312949
  16.4007314928    4.4629379148    4.6800514333
   0.5093835702   13.3192629251    2.3325955202
  17.4333186733    7.4036858617    2.9165033403
   4.2879951863   14.3638418665    6.2280997088
  14.7073850715    3.6965943888    4.7119958430
   9.4286574626   19.2197050427   14.4406469547
  18.2832903171    5.9759332926    3.5998102582
  14.8192003679    7.3978926751    6.1669341001
  15.1411320223    9.0851419361    1.0477909210
   3.5308830282   15.3965321952    7.4228373214
  16.1377762833    7.0719419074    4.9192707669
  12.2620363531    7.1011680124    1.1921291904
   9.8950130175   14.5410802586   18.1544055450
   0.2084829719    6.9384400853   14.3052516432
  10.0686509675   12.4763817396   19.3918965261
   8.8956466711   17.6572742605   15.1048881816
  11.6198979943   14.2474367228   18.6423801231
  16.5744132657    5.7641629320    1.6735196155
  11.4999637009   17.0308542023   14.1164379628
  17.9164540319    6.4477675352    0.5670105374
  10.0665988871   13.5030067941    0.3460344414
   5.5411500669   11.8684074641   16.4449900215
   1.4593232389   14.4611201929   17.2992107151
  12.1423313007   17.6208564010    5.0516459505
  12.8924830681   19.4874678572    6.4488187283
   5.4242988536   11.2450088071    7.4169054736
   6.6744055670    9.9409704401    3.0543288571
  13.2429974866   19.0058300149    8.2229336546
  16.7315707673   10.1609357370   19.2299936987
  -0.4664305442   11.0472299721   18.5045378690
  15.3671065002    5.1189467398   11.8120311617
  -1.1413833498   13.8625320430   19.6747170424
  16.5741383469   12.8054892171   18.4137559387
  -0.8050556453   19.8558922919   13.1257862932
   2.7818993023    0.6580973175   13.7633156517
   2.5150339405   17.8716432747   13.8172697203
   0.0789978706   19.9125363593   10.5050983153
  11.3354633821   17.8250788596   15.7709129873
   5.7053228777   11.5579380483    5.6855313898
  -0.6447148151   13.0490135075   15.0711031493
  11.2892776847   17.9040488133    2.1070360850
   3.6434906179   10.9635157628    7.8444985176
   4.2147295238   10.8706860117   16.6612411350
  10.5113781347   19.4896886009    5.9306648493
  -0.3208556848    7.3799996486   18.7058468411
   2.6983176210   15.0411630224   16.1526631137
  12.1804945174   11.1259517816    2.4110789570
   2.8165211725   11.3779336878    6.3543489685
  14.0701587532    0.1854522726   14.0589965202
   7.1581788715    8.2401574717    3.7061742254
   3.6646968341   13.6697279074   17.6532852859
   3.7084814425   19.0690080081   13.1941590353
   2.0581305976    1.0013255912   10.8712659532
  10.9525121753   16.4086883049    5.5794823775
   0.1864001546   12.2726460510   16.4202877339
  16.4147851506    3.5447869362    1.3850174943
   4.9085308712   11.2061226322   14.9517655131
  16.9652229764   13.1700027090    0.1782333748
  13.0828050550   17.6597702562    6.9906921588
   5.4614196020    8.9911309609    4.0606996907
  11.9166891994   10.8980507885    0.5727125756
  16.2769535742    4.1438435643   19.7393915817
   7.5507123629   10.5105870298    6.8270094775
  13.3753291901   19.3535079496   15.4753302794
   1.9276481311    6.9570058457    0.0974723766
  10.2627977461   19.2898155165    2.8747090009
   1.4261443447    7.3388308496   18.3808829720
   1.2614836888   19.4908619665   14.4223858091
   0.3250732269    1.1669973061   13.9772360194
   3.2728961554   17.7681572329   12.1151256539
   0.6312169607    1.4466746809    9.9311423173
   0.5038373785    8.8795308318    0.8896271112
  17.9152513434    2.7887174688    0.8639807212
   1.8139047651   10.1526374838    0.6911434140
   2.5979906599   12.2340917102   17.3631398084
  13.7391487257   18.7102798485   13.8654870768
  12.0498789021   19.0106181480    3.2461880017
   2.5878500646    9.6736156634    6.8709296481
   9.5968315046   18.0289643757    6.4782043783
   6.7718897838    8.9973981199    6.8477271972
  10.5823588240   11.3227929546    1.6636087407
  -0.5037628024   13.8590048263   16.7209809384
   5.6873220446    9.3649530316   19.9436367667
  11.1237771230   14.6807687252    6.6249238636
  16.1547912132   12.8844206193   14.5170363867
   4.0849826646    1.7398061780   17.9063852708
   1.8817501014    1.9806931713   19.9085615877
  -0.3432758893    5.6063312901    6.0870083984
   5.2303951460    6.0719582587    0.9958123303
   0.1719352428    3.0647415389    4.4104784161
  11.2236038540   11.0633027898    6.2307672712
   7.0397090766   17.6601391302    9.8972598997
  15.9821190021   19.1499860159    1.4721827903
  14.4232374977   12.0739168172   17.0194444565
   3.9352268183   17.0643625060   19.8201379089
  13.9917425753   16.7153850444   16.8638841879
   5.7758258024    0.4086106307    9.8572822351
   4.5756369540   15.3713572728    2.4375059188
   8.8533859731   12.9933042400    2.4771975281
  14.8653357159   19.2960243760    4.4133519590
   6.5383388202   13.8676835654   19.7493998999
  -0.2977469248   15.8123094891   10.7678118242
   6.2021154919   18.8194369243    4.4923804667
   5.5274236477    0.7548998069    2.6464762208
  14.2592210429   15.0537773746   19.0277261033
   5.9903570251    2.8328602097    5.8271005264
  16.3400114005   18.7069909244   11.2260144612
  13.9647902343   16.2343779842   10.1765211908
   5.0211617349   15.6230669588   13.7792156745
   6.5458364242   18.3071740192   14.9682190847
  10.1442815891    3.0429356763   15.7928367055
   9.4255239148    3.0138128639   18.0784639555
   1.1270171991   19.2284579451    8.1756919170
  12.4190905933   14.0661716982   11.4331346596
  16.3295460915   13.2438282480    6.2314954610
   3.4471724031   13.6281232746   11.1820567643
   0.1612053425   11.3256957406    9.2380385336
  17.5644430337   10.7569380167    5.8472378202
  11.6257953515    2.2711837071   17.4936883487
   4.1842950780    5.7028764650    6.4306895803
   1.3766568663   18.4491730768    4.5869869696
  10.6040157937    7.1221576602    5.3865754695
   9.2176113306    5.9797491760   15.9197078273
  17.6174036811   14.0117915947    3.5733954761
   3.9906172670   13.6733851902    8.1473603564
  10.0908047107    6.9648281669   12.0755443543
  14.6911644349    5.7295001044    4.5827705648
   0.6417352405    7.4399401053    2.4306167953
   0.6618626296    5.1005691012   12.9455221096
  10.3530571859   15.6584082953   19.5951214812
  11.3940196803    6.4803079574    2.7963071746
  14.8144232987    7.9232035806    2.7140022233
   9.2334600628   17.4319560151   13.2353258599
  17.3921264306    4.4045781472   11.6680099091
  17.3727281683    6.3424529562   13.0473697008
  18.2765514174    4.6286504789    1.4711239266
   3.7534088099   12.6908931793   15.7289759015
  11.6725427246   19.2601903060   14.2492878215
   7.2563349724    9.8511796827    4.9644420068
  11.3109052513   18.5139051909    7.5305543815
  11.9310513244   13.0215500717    1.2001726085
   0.6352580030    9.0482721241   19.0890839993
   1.7637925502   19.2436103311   12.3840839529
   0.4396291890    1.2556612053   11.9586526934
  -0.2062697188   11.6789545723    0.2441780324
  10.5799958742   17.5703671175    3.9391658866
   1.1919929147   13.9608406095   15.5276029865
   4.4164889038   10.0618645427    6.1200354108
