B2 C140 Ca1 F48 H298 O66 
1.0
1.7926621692720595e+01 2.6081224028570139e-16 -3.2142995756863000e-17 
-2.5099562863348446e+00 1.9428266245598770e+01 -2.0764002373539491e-16 
-1.0680034020401099e+00 8.0818823700720066e-01 1.9449314743021478e+01 
B C Ca F H O 
2 140 1 48 298 66 
Cartesian
   9.7622401299    2.9904209017   16.8207308987
  -1.2736221857    6.0193128417   12.1079114071
   0.0482325990    0.8369133039    1.7018686063
   7.1692209972   13.8303316049    6.5509127514
   5.1180906976    6.2309463748    1.3398405513
  12.3814658103   12.6581269154   12.6655427726
   3.5919876817    2.3156237138   15.5451198595
   1.6431963973    1.8688254022   18.3998171613
   1.3471158263    2.8094434253    5.4359848546
   1.8889537740    1.4215813473   16.9831740228
  -0.6377371937    3.8834761460    5.9532575264
   3.0976507334    5.9164146038   18.8730493658
   1.7853630830   16.2012433701   18.7994035865
   0.2093210692    3.6519467012   17.7158701472
  11.8422655023   15.6228552040   15.3275294047
   4.4371724172    9.7629002903    0.6136640319
   6.4259924183   17.1529303860    9.1376187073
  12.6188103733   11.8089900241   16.1191659749
   9.7484432553   11.9397854308    6.3395025673
   9.4802714966   13.3977812125    6.2025461252
  12.9489641856   11.5051950458   14.6730298584
   4.1845878395    7.4120005645    1.3712541901
  10.8274720693   10.3703914838   16.7299127827
  12.0356100201   11.4577889336    6.7421316583
   0.0257146711    4.8330423048    6.9604981098
   0.3439122448    7.1963305920    6.7003139983
   4.7141196014   18.7134728598    9.7291929878
   2.5651336267   16.2757654457    1.6679267594
  16.2773967617    1.5413107797    3.2243972390
   3.6573129538   19.0673686163   10.7513727238
   2.0378794418   14.8910813604    2.1632553935
  13.0815184654   16.6698873429   17.0742303284
   5.2776077796    1.8298025477   10.8691044221
   7.5653788474   13.7711547104    3.0301401783
  14.9682618093    1.2311413227    3.9339743415
   6.4317097555   14.2220268377    0.9921189175
   5.3902275530   14.7602041937   18.9652172953
  -2.2161048661   15.4544460318   12.2790271655
   2.4536569307   12.5647104126    2.4417211898
  12.6808308342   15.6272691875   18.0562118842
   5.4758794077   13.0995149292   17.2517156641
   5.4339707791   17.8390692153    3.5241767986
   7.1372336088    0.5224126492    2.4153745753
   6.0839386043    1.5275015539    2.7823933290
   3.7381777821    1.6694448222    2.5089164897
  -2.4568487699   17.2607342559   10.8025098157
   6.3458534841    1.0763647081    6.1491881653
  12.1490154746   15.2015305606    8.8034461425
  13.9088721366   17.4879376014   10.7000022753
   3.6110883829   15.4824390041   12.1962287086
  13.1505832333   18.3471502249    4.0767942715
   6.6611037936    2.2884802908   18.3171579183
   7.4268550121    4.5625808651   19.2042397344
   7.5792800681    3.4929273086   17.9863153489
   3.7922301262   15.3270193866   14.6344155791
  12.0219625484   18.2284935339   11.7938571765
  10.1596001164   14.7415118670   10.0694425180
   9.0472878423    2.8283649120   13.0501437221
  12.5254557858   15.7750526740    0.4779829527
  12.6886680693   13.0745248133    3.4009714442
   9.3402386802   13.9998118981   11.1417668855
   5.1502721262    3.1951345070    6.6850028640
   1.7337310475   12.7804289083   10.8096394494
   3.8268054374   16.7781619427   15.0801651642
   0.8730517174   18.4972589883    8.1063792105
  10.0351654431    3.0636299179   14.2614809566
  11.0347655974    4.2119336080   14.0424906903
   5.3574508794    4.6547497855    6.4921781306
   4.5941520258   18.9537671494   14.5741962909
   9.0454922813   11.8400411960   10.0480500544
  -1.1902835036   13.2658805807    8.5312674038
  15.3181217896   11.4185256522    8.4745462403
  -0.0772718906   16.9246070501    6.6930739878
  -1.5367276256   10.4451397342    7.9397356911
   5.2994779755    6.7601911497   15.7387865887
  14.0289745216   14.6955414173    4.4633567962
  -1.0425815059   17.8510531204    5.8529709898
   3.1364901650   13.6266559926    9.0278355634
  15.5790625229    9.8863062145    5.7376336563
   3.9094833222    6.3244566576    5.4549661176
  11.5390170829    2.1868044327   18.4170427105
   1.8693445393    5.0392309053   13.3332854300
   9.2478131247   20.0915395660   18.4830834360
  15.3611376366   13.9624996212    4.5260625656
   6.7650589920    7.1790298015   16.0750058742
   3.0853151006   14.2549481817    7.7072058297
   7.6822801181    7.3713552878    4.2726059231
   0.1468037678   18.2268368455    3.8055327893
   6.8583165575    8.7872972680   15.9113768099
   9.7355597997    7.7756094750    9.4430167181
   0.5682741563    8.1100297472    3.0465649091
  12.7043751494    3.1866598475   18.7847632156
   1.9074700302    5.6584291185   10.7211133641
   1.0802611848    5.1285585272   11.9284353119
  10.7047771816    5.5069605361    3.2912060852
   9.3078196145    5.6893037593    3.7673933406
   8.4894679603   15.5697697773   17.3690491271
   8.8510532799    8.3590748026   10.5863848962
  12.2357322993    8.5140475500    4.1761663603
   8.8218428498   18.1012961313   11.3063982797
  -0.7767355268   13.0789024757    3.4162188819
  14.2113485296    6.5674691490    6.4802351510
   7.4274170410    8.6302345078   10.0539557304
  13.3744613632    9.5727170247    2.2034703883
  12.0713867912    5.9144550595    1.2867636584
   2.7760748999   14.2390620624    5.3259073692
  12.4984705217    7.9168854168    5.5090143901
  16.2204349014    7.1335421276    3.2907554177
   8.5333378598   18.0622044649   13.7378183685
   8.9054391568   13.1666620007   18.0389114113
  14.8499828472    8.0188280095   14.6450748548
  15.8709517452    8.0432454777   13.4919994645
  15.8050335922    6.5153551564    1.9836376915
  14.9067834036    2.9973210145   11.0298135297
   8.6682730103   12.1070649014   19.0340259632
  14.9187614696    4.5452868268   11.1771162215
   9.3833548002   18.5397920496   14.8882137073
  14.1949462625    5.2037385476    9.9865446505
  15.8162865386    9.3677404509   12.7199632979
  11.3854142346    0.5472317590    6.8192158222
   2.4714716449    9.9996497709   16.2251477070
  -0.7482824972   10.1821312964    0.1087200000
   0.7196286827   13.2261545427   15.4135340203
  15.9352366515   12.0884008819    0.4746225508
   4.9088141700   10.4897664936    7.5292480855
   5.0815517876   10.2827893521    4.5711926193
   9.1783604492   16.8486526536    5.7338421462
   8.0713441209   17.8449594871    6.1919070887
   1.2152283833   12.0192862896   16.1485619390
   2.2882059589    0.5375090385   12.8282490585
   1.0194762106    1.1514305384   12.1528088393
   0.6790839159   17.8702607641   12.3557954006
   0.6657476734    1.5747582170    9.7419956927
   9.7083584491   10.7854224557    1.8834231582
   2.5680822546   10.0752192805    7.8728441774
   6.0637167549    9.9351094219    6.6792817926
  13.3022805912    1.1515602467   14.6037656310
  -0.4760912423    8.4014191390   18.5039423329
  16.8415303150    4.6628033950    0.6689315590
  -1.5587069265   13.2779061341   15.3157649573
  -0.2776117950   10.6920819802   19.1992579747
   9.5491905564   16.9261160508    3.4534381037
   8.5176089867    6.4045686850   13.2709654644
   6.3828631191    1.6192956875   17.1960778436
   8.3279903898    5.5847202697   18.9632635760
   8.7427542860    4.1046973112   12.5141434293
   7.3286605762    1.4157118200   19.1231033751
   8.6750665157    3.2792788971    1.0625576105
   5.4691342020    2.6552687295   18.8708317310
   6.2924838333    5.2450141796   19.3004930357
   7.8721542944    2.3861782937   13.5102651959
  11.4915965729    4.1142879560   12.8224724843
   9.6522283509    1.9608780185   12.2375760263
  12.0697365570    4.2345588542   15.0307658635
   4.2873302217    7.3117800183   16.3893694598
   5.1843582044    5.4308760558   16.1662472455
  10.5158166185    5.5090515124   14.1229189222
   5.0512122032    6.7963029891   14.3678900551
   2.6516095859    3.9638794126   13.4924649747
   8.1306322152   19.4003673660   18.1052717686
   2.5197460338    6.1585529041   13.5624154089
  11.0211080433    7.8335603766    9.8955288724
   1.0775210276    5.4551898905    9.6795813817
   7.0093211846    9.1663127256   14.5513938503
   7.8828275640    9.3394315272   16.5387653243
   0.8295328170    4.9184854569   14.3439754759
   9.8093353320    8.3283738235    8.2257773857
  10.4568962416   19.0834684337    0.3935110811
  13.7706818929    3.1754065639   17.9286719468
  10.3022348950   19.5998651850   17.7313837582
   3.0063753549    4.9445974140   10.5015674969
   9.2084087824    6.4315714165    9.3019123575
   6.6514755267    9.1248256962   11.1063006179
  14.2309966081    2.0519740267    0.5646067123
  12.1889641272    4.4620969767   18.7834809993
   5.6870291786    9.3925908471   16.2574358067
   2.2985278090    6.9678762821   10.7863268882
   6.7756163226    7.5048484763    9.5004741655
  15.0966966093    8.9842404156   15.5607723314
   7.4632461725    9.5070229268    9.1322232318
  13.7161553717    2.4211101604   10.8299328696
  13.6110717192    8.2749948439   14.1439608948
  14.7781679570    4.7709191100    8.7778318994
  15.7020394504    2.6678874568    9.9797554687
  14.5556402762    6.5811088951   10.0661229316
  14.9305560070    6.8230932849   15.3310993027
  -1.6987774715    9.1601330555   11.3979290562
  15.3860531397    2.4199760223   12.1158189525
  -1.3262335171   10.3908724856   13.1884474494
  12.8726075699    5.1946859071   10.0928702528
  14.5964418777    9.9930934903   12.6010721367
   0.7517565200    1.2459956680   18.7639819752
  12.9481484748   12.8448004694   16.4644537714
   1.6504216004    2.1230007058    4.6983947726
   5.3524909902    5.9688742081    2.3969634444
   6.1129710476   16.9283843914    8.1007194862
   9.6111318951   11.6627807399    7.3681940654
   6.1004748568    6.5619344402    0.7423951379
   4.6012861437    2.6727853797   15.5227024126
  16.4898682412    4.3975043034    5.4428136165
   0.4683672676    1.7742096252    1.2516048104
   0.7160916280   16.4689534052   18.6262291637
  -2.1904180185   19.3910764110    1.1102422262
   6.7446154673   14.7737676113    6.8992543400
  -0.2124715015    2.7162851887   17.5318768385
   0.5094338791    0.6087777759    2.7713485402
  11.4403697641   12.1630333405   12.3579147592
  -0.7872837542   19.7918318574   16.9385120188
   7.1233947448   13.8707754041    5.5169728581
  12.8184261649   15.4223835542   14.7840123316
   5.2839068110   10.4796469499    0.3643180556
  13.0818045060   12.0447603774   12.0692074367
   3.0343598854    4.9828087389   18.4212777651
   2.0908548224    6.3824513161   18.7286838594
  10.8818695664   10.2505523084   17.7744486293
  11.9398329140   10.6858296767    7.5831135470
   1.0696619289    2.1792874929    6.3129405341
  16.8729991889    3.1401042020    6.6037914023
  10.4934502685   13.8433685108    6.5854230896
   2.8593299090    3.1325815730   15.3015403221
   5.3763959570   19.5218863093    9.3485516747
  11.6667733533   14.7060442665   15.7988758856
  12.5046715788   10.5124703080   14.3971424105
   2.0267088517   15.1397362259   18.9645504514
   2.3801803500   16.5019716735   17.9169273392
  11.0142570844   15.8295514581   14.4275641683
   7.0566346718   18.0736952168    9.1296172394
   0.7708175397    4.0724379472   16.8128150681
   3.3122248619   16.5999150005    2.3714686682
  -0.6833067341    7.4842292269    6.9454847760
  13.1066353675   11.0981029082   16.7541405002
   2.2370646826    3.5283414909    5.6414015146
   7.1115401973   16.5459847101    9.6485329213
   9.0326440554   11.3723597215    5.7479445931
   3.6723977837   10.3142520797    1.1697351286
   6.5739958301   12.9480400989    6.9879130875
   3.0251390465   10.2611539051   19.0161622909
   3.8538910318    6.6852613233   18.4609515571
  12.3346921381   13.6216347494   12.2097309015
   2.4232224590    1.5877871069   19.0514589929
   3.3491337319    1.5102356898   14.7322829812
  -0.4026527263    4.4998988575   18.2192618971
   1.4210334720    1.8488714946   16.0742493048
  17.0845267832    1.2112125149    3.9453213781
  16.5205934545    2.5435206265    2.9618227800
  11.5180024882    9.6644513182   16.2459031842
   3.5553485717    7.4586241965    2.2901210874
   3.6083281155    7.4946441071    0.3774011825
   0.5340077290    7.9310769860    5.9674071104
   0.8002751225    4.3240803844    7.5893553520
   1.8129309258   17.0286077358    1.4670453188
  12.9789451342   11.1525191974    6.2071108411
   4.2034894999   19.6143515588   11.6169532363
  12.0921054962   12.4077237007    7.2012714797
   9.7766891202   10.2717409828   16.3603047227
   9.2338373566   13.8093975794    5.1314214962
  14.0570066746   11.2706206739   14.5875134113
   4.1538471816   18.3914376594    8.8254247515
   7.1882589104   14.7894009726    3.2631293197
  -0.6976256766    5.1899297464    7.6914538562
   1.0403863587    7.4506329661    7.5046767228
   6.5889686786   15.3780193361    1.1241738223
   6.2417455139    2.3692415235   11.0102730785
   1.3150105497   14.5255362464    1.4559175431
  13.1389430624   17.5021658764   17.6830621991
  14.0086394016   16.3426355165   16.4987469379
   4.5087275727   15.3313846402   18.4958692160
  14.7103391801   15.3838779999   12.7019229391
   8.6121227245   13.8272500932    3.3275505311
   4.6276433838    2.5091898733   10.3574146225
   3.0974841708   18.1909724933   11.1368861193
   5.5433269201   11.9883419699   17.0570748389
  -1.8693357968   14.4463966398   12.3677727528
  14.1522115206    0.8883809348    3.3182536979
  14.6556504119    1.9443551683    4.6066013487
   4.9191901205   16.9812423452    3.9993600990
   6.9776059742    0.7740730388    7.0264814105
   7.0005502367    0.4902125909    1.3363222063
   1.4126508421   15.0744793237    3.0288160300
   5.7980310367    1.5052680394    3.8769082494
   2.9243343397    1.3332547150    1.8631032716
  -2.0590166415   17.7726849277   11.7322274731
   1.7067997069   12.4557055295    3.1320463755
   2.3006977803   12.3588009898    1.4004075452
   7.1531070525   12.9913426124    3.7228389344
  12.5963497375   14.6486882030   17.4745570268
   4.8917193033    1.5614443865   11.8946323500
  13.4081511267   15.6123600052   18.8470527576
   6.4071951287   13.5588731521   16.7235245868
  11.9573686430   14.4506255144    7.9701074623
  13.4326990747   16.4716821299   10.9058319301
   5.4960497374   13.9185802706    1.5009729403
   2.7584173267   15.7525515693   11.5918117147
   5.9266343295   18.4635611409    4.3013035937
   3.9787100500   14.4890919927   11.8194272472
  13.2380388690   15.3869013133    8.9084188514
   3.8361741456    2.7586625142    2.2325981934
  -1.4384516360   16.0449382587   12.9125164884
   6.3586447249   15.2200845329   18.6823967976
   3.2598336912   11.9130911543    2.6921502815
   6.8740141225    0.7401279118    5.2891489505
   5.3850391538    0.5547836940    6.1922765940
   4.6609849407   13.4482469818   16.5773837790
   7.2817678870    3.9725614346   17.0299439584
  11.7012229640   18.9361901655   12.5597579910
   3.3258633690   14.7161897083   15.3737658723
   4.9215466853   15.0213271756   14.6207826273
   9.9553138114   14.3789317333    9.0485501408
   4.2207388762   16.3325801929   12.3339492778
   6.1735542562   17.5587448445    2.7790033473
   8.1454709659    0.8858819652    2.7127430455
  -2.0512509254   17.5478789369    9.8298076191
  14.2228302450   18.2188704857    4.1602997122
   6.1989630965    2.5834676860    2.4027221469
  12.8191817769   18.0748358380    3.1044809942
  12.6700173335   17.6447422347    4.7129292570
   3.3100419160    1.6250046753    3.4874463585
  11.9248129104   16.1948199911    8.3786730164
  13.6107674872   17.6630820703    9.6344732652
   9.5229383083   14.3161513795   12.1015392132
   1.3750284090   18.4111849615    9.0780426018
   2.6892411351   12.2601113841   11.0362900358
  11.6818117217   12.8148174942    3.3013242762
  13.4178696427   12.2906981199    3.5441710177
  11.4006368227   18.1977627584   10.8014186629
  11.9386744272   16.7612707451    0.4491655297
  11.9574186887   15.3331318784    1.2156072405
   1.4942154629   13.4203890071   11.6717352257
  12.0155269114   17.2982200965   12.2065545060
   0.8488778974   12.0672531561   10.8338672866
  12.9036454807   13.6805449658    2.5467474172
   4.3025130373    2.9106762014    5.9920256731
   9.9149869975   15.7982977477   10.1924331412
  -1.6796573707   13.8144248733    7.6489135479
   9.9651028162   11.1655725684    9.8029397781
   4.8375571868    2.8534438405    7.6912037784
  13.5763260267   15.7506165799    0.9713808651
   5.7683186186    4.8403564189    5.5605108802
   6.0656521613    5.0758813084    7.2012622240
  14.8631153280   11.9792815577    7.6134691452
   4.9995059198   19.5239311305   13.6170447970
   0.6056271643   19.5337571127    7.9496503342
   1.6921423451   18.4036743665    7.4132830226
   8.2146060548   14.1465415124   10.8600136217
   4.2418663499   16.8676886439   16.1509316483
   2.8697515081   17.3107693293   15.1374914513
  -0.1941749800   12.8066926384    8.2870554499
  -0.6939198421   11.0538804033    7.5828279076
  10.7647677274    2.2533756583   14.3175722430
  14.0129775306   15.1575167380    3.4248955885
   5.4276929645   19.1856579896   15.3315859640
   8.9300817358   12.5019803313    9.2287509542
  15.0927104540   10.9013509533    5.6112023455
   3.6534261881   19.2687360766   15.0402249645
  -0.8291473615   18.9878122485    6.0073634097
  -2.1555418154   17.6421472295    6.0742835057
   8.1377322878   11.3130605324   10.3042222075
   3.6299915322   12.6673990981    9.0407476205
  -0.9346918385   13.9776218045    9.2967623977
  14.0224853269   15.3222936764    5.3524095422
   3.6005944262   14.4601881607    9.5355554624
   0.9668767847   16.9984514852    6.2770908971
  10.8661344401    2.3995509048   19.2324475915
  14.5670601636   10.9877650159    9.1084362719
  -0.5234707638   15.9817212244    6.7016480937
  14.7895367814    9.1120025692    5.2162788328
   3.3657839748    5.9293936257    4.6361438860
   7.6598639600    8.4400954514    4.4057875369
   4.8926604375    6.7320812386    4.9941900460
  -1.0307344762    9.8716942553    8.7791809024
  15.4214377449   13.2254812755    5.3866926708
   0.8593746385    7.2968981699    3.6836259066
  -1.4627299325    9.8935874532    5.1135971791
  -0.1486507005   18.2167514012    2.7383538414
   0.9935236850   17.6269289618    3.9901838089
   2.7135123933   15.2393559206    7.8326750217
   0.8167346125    7.8887467912    2.0373651822
  -1.7084449828   14.6594160640    4.7862436559
   4.2830274903   14.2935473505    7.4647464043
  11.4698113801    5.8895141713    4.0280083707
   6.7996525347    7.1457569653   17.1608858525
   3.2285394668    7.0861517442    5.7743105080
   1.1712915259    8.9924968814    3.3023409358
   7.1161601964    7.1394233404    3.3515512404
   7.8918107014   16.3480562273   17.7176574953
  10.9408790121    4.4452040130    3.0216489720
   7.3187297376    6.8231966865    5.1713773423
   0.5402069639    4.1776634694   11.6768952714
   7.7414691103   18.1361438575   11.2014301891
  11.2627527621    9.1609438718    4.0223835420
   8.6403017835   15.2260164757   16.3398409617
  13.7478153279    6.5702960269    7.5085740762
  12.0505054374    7.7517871308    3.4152412085
   9.1241723526   19.2161040773   11.2638051932
   0.2711383069   19.2852329249    4.1434563038
  13.9563179792   10.4952479537    1.9658105161
  13.0480517626    6.0750784868    1.8323780826
   8.6069811909    5.2491859988    2.9834528267
  -0.3692553815   12.2271585746    4.1158339166
  12.3910296788    9.4246993563    1.7660483082
  11.9825481580    4.8122698346    1.0222534383
   9.5164127589   15.8231184986   17.7577332715
   9.1105984424    5.2843545309    4.7487650265
   9.2655286224   17.4248700802   10.4928638783
   2.7501984524   15.2505731488    5.5444936522
  -0.3205747378   14.0721640800    3.6763169369
   9.2999601077    9.4240691786   10.8101259545
  15.0351211583    7.3191312467    6.6043261313
  -0.4717567540   12.7312464440    2.4293770314
  15.2213292759    7.5037986696    3.8106512049
   3.7867695381   13.8146968241    5.0432901520
  14.6860765435    5.6536369095    6.2961702804
   7.6844197462   18.7292912757   13.4492564962
  16.5954262604    6.4672847707    4.0330620872
  11.5686669338    7.5911150070    5.8504892320
  14.2298621430    8.7956226340    1.8315573510
   1.9856719048   13.7699033533    4.6221636716
  12.9139003278    8.7083509730    6.2239312010
  12.1772233542    6.7168704901    0.4581695462
   8.8086060335   12.9043138130   16.9510622299
  -1.0090108107    8.1498352641   13.8706605378
   9.1254162925   11.0679218256   18.7178203691
   7.9258760264   17.2630234127   14.0479833110
   9.9186324871   13.5949642738   18.0696337226
  14.7247273325    5.9823532678    2.0572055337
  10.3603264477   18.0133432541   14.9825315314
  15.9222633318    7.2687263986    1.1354946839
   7.5581472715   11.9814992326   19.0859486589
   1.8394987207    9.8026342151   16.9723794952
   0.4723798215   14.1360621663   16.1349229341
  10.0797991480   17.4279294251    5.7415291414
  10.8236980372    0.8392568218    5.9427067920
   5.1969478440   10.5294648221    8.6150122792
   4.5628328589   11.2071207225    4.8068542201
  11.2834775166    1.2126577671    7.6422003948
  -1.1065878022    9.6644758855    1.0413341931
  15.5662811952   10.7813716749   18.6301783797
  14.3067051131    4.7096315396   12.0379972687
  15.9817788197   13.1287576142    0.8312263751
  14.4464611755   12.7466588857   19.0171444728
  -2.3755618093   19.8674503566   12.0734733007
   3.0305014508    1.3576548402   13.0288382439
  -0.0206405507   17.4851999998   13.0937892571
  -0.1220649481    0.8520065726    9.7574759479
   8.7907681234   18.5439286773   15.8331714792
   4.5525519431   11.5289082823    7.2629139185
  15.4595782236   12.9461330008   14.8219745825
   9.4276988820   17.9727135337    3.6447774611
   2.6292338061   10.1059956899    8.9244128163
   2.7561821018    9.2177986104   15.5619198121
   7.8640106383   18.4374526392    5.3013427666
   0.7228222867    7.3995062175    0.1504039209
   1.3901261495   13.5936881482   14.6856094235
   9.9048939821   11.1870345330    2.8760460552
   2.1449561517   11.0739063359    7.5032000309
  14.1703443212    0.7160255511   13.9844122046
   5.4721801849   10.5026050720    3.5093308582
   1.9304461172   12.4171997098   16.8872127807
   1.6705706474   18.0894026989   12.7864743402
   1.3249256872    1.3599273025    8.8424777233
   9.2282506508   16.2182267206    6.6338160971
  -1.6284529802   12.7313659595   16.3239831711
  15.8634227692    4.1631668324    0.7360997997
   3.4945665910   10.3302218660   16.6197636373
  15.3266718879   11.5251187934    1.2048301919
  12.4219775136    0.4232847877    6.5592252551
   4.2998921639    9.4779181233    4.5370369785
  10.1185791158    9.8347450174    1.7489490163
  15.7506798122    6.1179962955   19.2082980690
   6.9511603253   10.1808819443    7.1831800065
  13.1591741373    2.1494356205   14.1855605501
   0.1981089274    7.7305813289   17.9590891924
  10.6233789460   16.7157202348    3.2564714019
  -1.5763974162    8.3572075599   18.1775165089
  -0.5387709355   19.5414129882   13.8667399240
   0.6389732679    2.0209070315   12.8570934519
   0.5700344871   17.0642745360   11.5510024585
   0.2758033616    2.5119129054    9.6096508205
   1.2565127469    9.5932045136    0.7644408977
  -0.0457711857    4.2038909602    0.5666674546
   0.1174316033   11.6390451499   18.7450696037
   0.3502663271   11.6629052372   16.6462770680
  13.7799283556    1.0902879396   15.6878135827
   9.0611047322   16.7067943787    2.4592026539
   1.7289025974    9.4034033799    7.5864255898
   7.2379529752   17.1848326520    6.3894344157
   5.9364973620    8.7886562868    6.7015416547
   8.6873613406   10.6567091855    1.7775361746
  -1.7459677382   14.3637729101   15.4150659482
   5.0606192609    8.6252446345    1.3693152139
   8.4493169506   13.8622453021    7.1016977800
  12.6643781116   12.7222163697   14.0162156623
   3.4053410101    1.7381252102   16.8422599793
   1.3210697257    3.2671089744   18.6703330348
   0.6810582326    5.8837049531    6.2981789703
   4.5222949834    5.0182586119    0.8064436541
   0.2054048917    3.4976254097    4.8894591099
  11.0367938147   11.5149576316    5.7824868836
   5.4202345762   17.5321148459   10.0712975724
  16.6105044897    0.7996128159    1.9651779948
  11.1195276503   11.7180739793   16.3646706650
   3.3522824112   16.1295111116    0.4442405807
  12.0605880513   16.8226100879   16.0780565505
   5.3496867722    0.6366506839   10.0642540936
   3.0763288046   13.8862496305    2.3680536856
   7.5562906529   13.5935516244    1.6798045780
  12.7089569871   19.5439785883    4.7300292948
   5.3631505397   13.3855358003   18.6281951007
  -2.0304756207   15.9148414990   10.8866007344
   4.3394463027   18.6602076951    2.8622015154
   4.9000762737    0.9000453750    2.1588066481
  11.3852961996   16.0198545318   18.5825080518
   6.3247757565    2.5436597690    6.2186001922
  13.4456312273   18.5271969210   11.5094242912
  11.6486833142   14.6826160627   10.0773182228
   2.9299102333   15.1097388754   13.4621133679
   4.5315664038   17.6460586271   14.1694129085
   9.2905373194    3.1896823681   15.5912446167
   9.0238224432    3.1607145533   17.9484934936
  -0.0940497771   17.5816204054    7.9818931056
   9.5185874319   12.5339302651   11.2325604535
  12.8281921992   13.9298141446    4.5524390453
   1.8151383730   13.4655735583    9.5734355227
  -1.9911165128   12.4167473229    9.3734367220
  15.9332672674    9.4801732635    7.0093588435
  11.0614329880    2.4998039286   17.1250114140
   4.1745613655    5.4688839283    6.5855068633
  -0.9454619052   17.5632338344    4.4496375482
   9.0131018348    7.1020560757    4.0024170772
   7.6739322825    6.5045858991   15.3498822713
  15.7118847528   13.1556903894    3.4316783045
   2.5087879178   13.5413129052    6.6973804769
   8.9278540605    7.4353390153   11.5998304359
  13.3938288329    6.8123194262    5.3587294060
  -0.8519665828    8.3549340379    3.2628992295
   0.0945159395    6.2151182747   12.1836229839
   8.0452664309   14.3804159813   18.1476994747
  10.9173757147    6.3647557575    2.1381883694
  13.2705109101    9.4442036856    3.7322251710
   9.2829314695   17.5855164175   12.5831461372
  16.1795600957    4.9953533154   11.3852398330
  15.6984040441    6.9032362859   12.6212792234
  16.7932975012    5.4479541454    1.8933633929
   1.9330794469   11.0638363486   15.3667990762
   9.5403535247   19.9399699342   14.4713045650
   6.2456165468   10.3364993257    5.3927172629
   8.3571245683   18.7130126757    7.2510797732
  10.1764565648   11.6953886693    0.8582716533
  -0.0603369458    9.7182615000   18.1646866133
   0.1913126944   19.1069298234   11.8856968687
   1.5060103853    1.5855708329   10.9055581155
  -0.6832897702   11.5141673030    0.4120771123
   9.0346611685   16.1074641065    4.5482250463
  -0.4308393795   12.9199048009   14.5543042864
   3.7788131038    9.6509185642    7.3115443274
