B2 C140 Ca1 F48 H298 O66 
1.0
1.7876716120349812e+01 3.3684545380203762e-16 -8.6489905263150177e-18 
-3.0028039918176019e+00 1.9227655754563020e+01 2.3708959457456904e-16 
-7.7643462840218086e-02 1.3695190028956172e+00 1.9375122037190607e+01 
B C Ca F H O 
2 140 1 48 298 66 
Cartesian
  10.5601350348    3.7479080511   16.7386885870
  -0.7681177052    6.2630906362   12.0461788171
   0.0950610698    1.6152009366    1.5490030677
   7.3930968235   13.6744318299    7.4095272260
   4.7399601857    6.5633219049    1.0396068806
  12.9681451323   12.6306934267   12.3371077379
   4.5770074019    2.9606523016   16.4390213510
   2.4770001788    1.9922966765   18.0883816871
   1.5943264438    2.5126783326    5.5927633455
   2.7931359835    1.2208550014   16.7484025032
  -0.1532303366    3.9936344164    5.9354842735
   3.2901504560    6.4825399275   19.0533637876
   2.4695152385   17.4532577163   18.2144162072
   1.0995791148    3.6872574105   17.2413125065
  12.2406700779   15.8398070014   14.9484618201
   5.2919629728    9.9394636508    0.7931032339
   6.0804561398   17.0153644628    9.3681782321
  12.4090712927   11.8123310201   16.0399591865
   9.6340629207   11.9590448052    6.8431795290
   9.5492714238   13.3711066019    6.5298066157
  13.1081324805   11.7133703913   14.6355145001
   4.0466628871    7.9538333627    0.9437440890
  12.2764440716    9.5298209686   16.7884328492
  12.0693026875   11.8424630750    6.3161782163
   0.0030011117    4.9897043045    7.0333992337
   0.7925465477    7.2691659212    6.7649650152
   4.8922757480   19.0964751540    9.6081229314
   2.1411561186   16.3539075606    1.1345917931
  16.0160962723    1.7025659511    2.7659439154
   4.0034707008   19.8653956286   10.6002922989
   1.3661319419   15.1642150946    1.5016529506
  13.4494630253   16.8563157885   16.7278847400
   5.5050066152    2.4657654326   10.6371382718
   7.3656277726   13.9693573933    3.0072211994
  14.8417155308    0.8078820929    3.2042060252
   5.9798780204   13.7168788196    0.9995408231
   5.8569631352   14.8604285083   18.9403145187
  15.0728697360   15.2648042793   12.0914821495
   1.9052941955   12.8336606035    1.9370378034
  13.1342954589   15.7899591891   17.8605495120
   6.1286602095   13.2990767810   17.1215371547
   4.9725550390   17.8815962154    3.8350282223
   7.2271882872    0.4117835884    2.5995863885
   6.3604655730    1.6346065489    2.6162647098
   4.3999593728    2.5395856085    2.0887525534
  15.1901408249   17.0765217432   10.3895511270
   6.9789925506    1.3319136927    6.7546922223
  12.4640417378   15.1002160474    8.8127421379
  13.7640336200   17.6674686858   10.2797699017
   3.7399170233   16.0937438710   11.9223109088
  13.1060923592   18.3804694744    4.3662127498
   7.9162502629    2.5670959400   18.1444264325
   8.2327020897    4.9966138765   19.0529896381
   8.3884417861    4.0273711237   17.9560626844
   4.1154321201   15.4514447118   14.1756352400
  12.2027887366   18.8090327941   11.5148033281
  10.3388482508   14.9151866567    9.7712962917
   9.7325863792    3.4588611960   13.1721357253
  12.1064857136   17.1355574141   19.3497638927
  12.0015297734   13.3797287443    3.2438068278
   9.8189578783   14.6481006474   11.2204881029
   5.4898627331    3.0294174223    6.2580020215
   1.6155794270   12.8406497587   11.1106715518
   3.9071878359   16.7042569544   14.9903437775
   0.2752588981   18.5120876914    8.6059386919
  10.7763667562    3.7637136037   14.3399493811
  11.7961024219    4.8489958391   13.9375900432
   5.4851987171    4.4307631935    5.7866505330
   4.7266851463   18.8910854520   15.0197944125
   8.8278378134   12.5646634922   10.7015794450
  -1.6069288620   13.4219129219    8.6850199812
  15.3407156605   11.2818762176    8.8711102200
  -0.5625002185   16.8750475141    6.8287168076
  -1.3752583225   10.5464260571    8.1871676269
   6.0925260697    6.7602435336   15.3822195495
  13.3662150042   15.0480647354    4.4699926085
  -1.4145588024   17.6997617208    5.9487849205
   3.0174417422   13.6358640736    9.3587622604
  16.1012578542   10.2417826329    5.7622430405
   3.9641632713    6.1618739872    5.2889106083
  12.1113416830    2.6994282451   18.2234726666
   2.3558336449    5.5813068028   13.3038176398
   9.1665348604   20.4005398846   18.4537775900
  14.5057838594   14.0228788897    5.0430323751
   7.4009234274    7.4287226667   16.1755073008
   2.9566609363   14.3655893341    8.0248273293
   7.6098222747    7.3474786173    4.1339955701
  -0.4339797143   17.7639252164    3.7395847177
   7.3427147620    8.9793478015   16.0267719012
   9.8289864142    7.5714251284    9.5101394979
   0.6088739649    7.6421549003    2.9464781693
  13.4612459095    3.4575732715   18.5682242799
   2.3595614892    6.1229247086   10.7161433086
   1.5671899452    5.7425599105   11.9854037118
  10.8729872756    5.9169252036    3.0971762891
   9.4222043398    6.0497633697    3.6632943023
   9.1766812625   15.6947159093   16.7192252076
   8.8109075551    8.3868282640   10.4317184644
  12.3241090705    9.3878814529    3.6955209924
   8.6475965370   17.8055821778   11.8588822072
  -1.2980019038   13.1500325477    3.9750748539
  14.0041943889    7.1312539703    5.9847427428
   7.3006034666    8.6423501621    9.9791148401
  12.4475580598    9.9182646308    1.4952045199
  12.0975358182    6.2907206371    1.1149966415
   2.9835484254   14.4538079434    5.6737345127
  12.7925392594    8.8591360152    5.0205625759
  16.0658200584    7.1736296532    3.0691062776
   8.2852893509   18.6945035940   14.0178283630
   9.7912719130   13.7430126511   17.9778149324
  15.1298785383    8.1234466818   14.4168081733
  16.1523980560    8.1931503516   13.2903583964
  15.6474373645    6.2345069535    2.0145664716
  15.3732050419    3.3923348155   10.9290234425
   9.2516480336   12.7705774036   19.0325958094
  15.3886006458    4.9085280357   11.0895220820
   8.9825014484   19.4305640239   15.0769115970
  14.7507105910    5.7055165079    9.9160182029
  16.2098599389    9.4870920076   12.5438210080
  11.4852662720    1.1180054227    7.0920099215
   2.7148619278   10.2140587159   15.5680604364
  -1.4571918270   11.5369113032   19.2361801155
   1.4356451312   13.6009546066   14.9738202431
  15.3065030669   12.0401564897    0.7581423154
   4.7155405578   10.9177003856    7.3085733793
   4.6661351886   11.0604886176    4.1186536261
   9.5420011752   17.6584749656    6.1145673525
   8.0997431827   18.2245709879    6.1125427991
   1.9971804992   12.4303760764   15.6978878147
  -0.5351058811   19.9772882606   13.0863176786
   1.1440514704    1.3615775080   12.4512794304
   1.0546394823   18.4128776041   12.5284730091
   2.0723832032    2.2754454742   10.5150710819
   8.8607863672   11.2098393195    1.9321415451
   2.6756648674   10.0642266069    8.3182267894
   5.7138786646   10.3403862847    6.2016756363
  14.0076106265    1.5125380239   14.6623064415
  -0.3747373695    8.7712837758   18.6009396796
  16.5854533949    4.5966716857    0.4983607870
  -0.9142469680   13.2267589623   15.4616686587
   0.0128194575   11.1357302491   19.0375668470
   9.8783498866   16.6619802084    3.8641839041
   8.7914958755    7.0091904502   13.4525175498
   7.9269419575    2.0959304003   16.8610056423
   8.8270858595    6.2148795306   18.7602072157
   9.2342679671    4.5013725413   12.4463362825
   8.7694982393    1.7774087323   18.8990806009
   8.8050333746    3.3180028798    0.9301338682
   6.5844574238    2.5140616383   18.6274380759
   6.8871705413    5.4275825562   19.2202419333
   8.6854410517    2.8784703603   13.6367520957
  12.4791773613    4.4079199393   12.7185762729
  10.2992057202    2.6034575888   12.2571789909
  12.7609628335    5.0497476922   14.8541708647
   4.8287135487    6.9547416219   15.7382829780
   6.2888499138    5.3960225848   15.7698204722
  11.3538260458    6.1637890366   13.7244967132
   6.2374463116    6.8032899412   13.9892858742
   3.1213624879    4.4975741276   13.2773032833
   8.2185851828   19.7022171766   17.8458276408
   3.2232351297    6.6984089857   13.6245712681
  11.1331011134    7.7563311922   10.0421434916
   1.5882107134    5.7305056538    9.6561720579
   7.1889593292    9.4236903069   14.7370775203
   8.5633126375    9.4825385521   16.4458885991
   1.5036321719    5.3910245392   14.3294081633
   9.7438896176    8.0531271004    8.2390418650
   9.2137143905   18.8589084648    0.4209692766
  14.5747326929    3.4208916142   17.8305297819
  10.3980227487   19.9410673047   18.0759032916
   3.5935794607    5.4639974546   10.6987723597
   9.7647774833    6.1919772452    9.4261952439
   6.5516787159    8.9938694575   11.0472832050
  13.9214218610    1.6282462952    0.4461588272
  13.0979558525    4.8014495356   18.5243987272
   6.3001268670    9.6283903291   16.8786987300
   2.5142893730    7.4966727168   10.7429786981
   6.6831840275    7.6499366260    9.3735478268
  15.2956724490    9.2122911750   15.2272021340
   7.3415753225    9.7245937602    9.0862525827
  14.0885650724    3.0017925714   11.2609733881
  13.8364908881    8.0221272326   14.0381764795
  14.8002151356    5.2748947407    8.6877115133
  15.7096528675    2.9738881805    9.7235423198
  15.3471291429    6.9175339252    9.7536901817
  15.3060380051    7.0215109489   15.1667800701
  -0.8710986320    9.4032089088   11.4467673437
  16.1414622905    2.8090685169   11.8059287973
  -1.2242336562   10.4430719340   13.4548509126
  13.3732269726    5.7721107111   10.1897098177
  14.9663029318    9.8689959042   12.1022302362
  -1.1669428085   20.4084377612   18.7145851369
  11.8028603134   12.7258324549   15.8663734392
   2.0693562264    2.2056558947    4.6321913848
   5.2626073885    6.6114868654    2.0021934621
   5.2503833136   16.6253950778    8.7602782533
   9.9074867245   11.9805606219    7.9591217440
   5.5504259813    6.4726500669    0.3169854643
   5.4786832632    3.1102356336   15.9735166088
  16.9334680600    4.5010709022    5.2841817344
   0.3819872605    2.6994710658    1.7897915831
   1.5301515438   18.0981404616   18.0952443298
   0.3767259626    1.4748214406    0.5060929265
   6.9089011495   14.1705743514    8.1922941412
   0.4100918904    4.4893196509   17.7497841732
   0.8840399158    1.0439411558    2.0394898939
  12.3672071133   11.7688141931   11.9798027627
  -0.2603262195   19.3579752451   16.9072125218
   7.0291588586   14.2426114850    6.5052234062
  13.1086390759   15.9901899306   14.3002898794
   6.1583716439   10.3509759577    1.3540522874
  14.0792361395   12.3850068611   12.2967011464
   2.4902978466    5.7130019499   19.1567330933
   2.8248574962    7.4283062300   18.5768300159
  11.7556179711    9.1197599816   17.6841398532
  12.2910005173   11.4843574246    7.3515488138
   0.8689252992    1.7997138041    6.1002102821
  17.4226763794    3.0806869775    6.4496755959
  10.4811769342   13.8134400165    6.6656128599
   4.5834541132    3.3934763447   17.4628759469
   5.6499381667   19.7685717769    9.0385413290
  12.3030139058   14.9108349130   15.4764592223
  12.8350472835   10.6180994083   14.2417850984
   2.3138594576   16.3849406788   17.9817879839
   3.2580561782   17.7429321334   17.4708574486
  11.2576939176   15.9724706093   14.3826258882
   6.9326277474   17.4966724478    8.8168721589
   0.4996176036    2.8186373003   16.9696104525
   2.7688065841   16.5123160504    2.0329045915
   1.4605417038    7.9118707346    6.1239389528
  13.2461687834   12.1070719716   16.7942370794
   2.3759175227    2.8868918868    6.3228655488
   6.5512534696   16.2378480147   10.0719684708
   8.7306604805   11.3435460176    6.6112367201
   4.5136424529   10.7125631558    0.7997589740
   7.1070623576   12.6049631688    7.2687583825
   5.6147291243   10.9642603550   19.2016494391
   4.0422329472    6.1255080341   18.3406341832
  12.7219345166   13.5041874358   11.6982000759
   3.5473534228    1.8883647486   18.5753040563
   3.7231157866    3.5452606066   15.9479323640
   1.6002653944    4.0472569917   16.3438102395
   2.1486754337    1.5384147589   15.8791856227
  16.5493667085    2.0189301919    3.7167433578
  15.6821324579    2.7382604558    2.4115995459
  13.3814231585    9.7485037924   16.8591876518
   3.0922988703    7.8484249968    1.4193487492
   3.7753303519    9.7049600149   19.3049352084
   1.5197402290    6.9315496799    7.4896158007
   0.8758369297    4.7692969686    7.6816773624
   1.4670778984   17.2214545841    0.9302781841
  12.7692935391   11.2533589533    5.6042252520
   7.5203657542    1.4585249241   11.1036275769
  12.2201773814   12.9652534806    6.3114940046
  12.0324385365    8.7044404894   16.0584507185
   9.1968831629   13.5760104527    5.5130419955
  14.1649630254   12.0595449998   14.6934356112
   4.2313182321   18.4675177809    9.0204901191
   6.7191540303   14.8574410770    3.3069985479
  16.9458468588    5.1512949390    7.5985136720
   0.0207637347    7.9172522455    7.2898351812
   5.4541777868   14.6221535576    1.3074892443
   6.2092551019    3.2529156281   11.0563798494
   0.7151510582   14.6621756016    0.7384028230
  13.6063535170   17.7740028403   17.1603274010
  14.4073032085   16.5476866307   16.2896602313
   4.7746928813   15.1561870388   18.7548518993
  14.0785604122   15.2415857894   12.4052480185
   8.4294677888   14.1310195247    3.2674751038
   4.7485782040    3.0532285676   10.0761129772
   3.6069407276   19.1473881003   11.2756687126
   6.0756402193   12.2556375870   16.8921832953
  15.5444427419   14.3063396990   12.2118069751
  11.4994988452   19.2919263928    2.5094096138
  14.1014517744    1.5849975765    3.3648451984
   4.7334851686   17.2484675542    4.7518221993
   6.4074979370    1.3160535837    7.7185625900
   4.0895124242   18.9510795855    1.6746974281
   0.6450696635   15.5109206442    2.2481589760
   6.5256901782    2.1688545662    3.5266895963
   3.3275437635    2.3247237341    2.0240837073
  -2.1721164026   17.6337700785   11.1568129658
   0.8784817020   12.5419194258    2.4141244998
   2.2339205966   12.6301443830    0.8518314193
   7.0472727384   13.1601656758    3.6246446188
  13.0238870823   14.7314838405   17.4829663202
   5.0896911534    2.2407663574   11.5802069625
  13.9597502064   15.8381746445   18.5743518059
   7.0619748775   13.6468194762   16.7013101286
  12.3258143054   14.1882450229    8.1832490614
  12.9592915437   17.0275950327   10.3206713311
   5.4372454934   12.8765623347    1.4703361647
   3.0686014008   16.0545602279   11.1355357543
   6.1701383424   18.0606735443    3.8571242090
   4.6898555071   15.7129038470   11.4641063662
  13.5774891731   15.1625426894    8.9556753556
   4.7324824523    3.0001909397    1.0959466195
  -2.2009710703   15.9453052383   12.7411334866
   6.5073891137   15.5969420052   18.4369075765
   2.7456263330   12.3655906697    2.4964663392
   8.0127654613    1.1663271387    7.0336863526
   6.7222378149    0.6565588625    5.9832977335
   5.3080413209   13.8877868989   16.5579509506
   7.9878104223    4.4163350063   16.9933825657
  11.8964198596   19.8504224082   11.6142507384
   3.8775417359   14.6508367598   14.8180374501
   5.0892715471   15.3542374298   13.8078035251
  10.0865559773   14.2279282353    9.0218136479
   3.9711630564   17.1399978523   12.2123602835
   4.9056458896   17.3400448306    2.8682906838
   8.3415237389    0.8469838876    2.4518468603
  -2.2173412468   17.0575509035    9.4062895126
  14.0411828905   18.7459343152    4.0336521554
   6.7112608239    2.2495517972    1.7108478218
  12.8509022919   17.4883138399    3.7537575279
  13.2372252645   18.0338045095    5.3608629963
   4.5657254893    3.3290142715    2.8406415165
  12.2539405797   15.9329726867    8.2516353788
  13.6176884835   18.1471025623    9.2357502194
  10.5767006501   14.9708460951   11.9198571507
   0.3442784233   18.4696839962    9.6694798241
   2.0974290501   11.9118564832   10.8094528893
  12.6702373799   13.5874360121    2.4379728960
  10.9293936928   13.1593766007    3.0624047482
  11.4949958336   18.2645869979   10.8316661071
  12.2669659847   18.0293741744   18.6498767583
  11.2490469842   16.0135392805    0.5169359399
   1.9809937103   13.2805705300   12.0215285683
  11.8885096061   18.3790524408   12.4587208221
   0.5084295225   12.7128632150   11.3264044634
  12.3186508388   12.4742254017    3.7590059828
   4.8704790059    2.3052261014    5.6474228507
  10.0569525835   16.0527572046    9.4849668089
  15.5685249248   13.7140137869    7.8415051841
   9.4558130389   11.7299612325   10.3068071553
   5.1608764539    2.9463232362    7.3016515125
  12.9778092519   15.7172648946    0.8714713406
   6.0006777003    4.5294675542    4.8111460258
   6.0489142595    5.0615149061    6.5659867608
  14.5296291148   11.5710706910    8.1194708167
   5.4325649591   19.7137195100   14.5346024371
  -0.0636880311   19.5295397797    8.2417961740
   1.2275217033   18.2320193353    8.1355277628
   8.8448253659   15.0553458021   11.4095922749
   4.1648225143   16.5126384473   15.9816794194
   2.9282493263   17.1144431112   14.9513618912
  -0.6578349713   13.2105585668    8.1558046811
  -0.7281372080   11.3352583729    7.7783948643
  11.4946237844    2.7958583120   14.4580969785
  13.6976386964   15.4200413088    3.5504041181
   4.8906183878   18.8789039706   16.1449378528
   8.3823837076   13.0844477463    9.8152368793
  15.4893981359   11.1577558958    5.6304648142
   3.5991780164   19.1382577628   14.8716498532
  -1.2651880629   18.7913582163    5.9946202514
  -2.4398321974   17.5541286230    6.2969942122
   7.9736243106   12.1778295697   11.2816279499
   3.2344230503   12.6004512090    9.1466448130
  -1.5298598397   14.2423487367    9.4083468253
  13.2639251839   15.8175312249    5.2953810560
   3.7749229532   14.1360068174    9.9737015444
   0.4110634095   17.1537004491    6.5086220563
  11.4706569376    3.0302705206   18.9980986873
  14.8221853174   10.6372056063    9.6183575656
  -0.9598069384   15.8485228813    6.8994232825
  15.7351231807    9.4411762957    5.0349927617
   4.7642496939    6.2688500176    4.5650889644
   7.4143940252    8.4678282955    4.1834443053
   3.9073498793    6.8577374595    6.1047967125
  -0.6903369004    9.9897214280    8.8758771637
  14.2529925062   13.3285707822    5.8264421054
   0.7374474069    7.0725126317    3.8355462346
  -0.7118623135   10.3219598287    5.5243075135
  -0.4750050450   17.1930713018    2.8551722555
   0.6147447459   17.7659223347    4.0905222660
   2.1445232208   15.0666404903    7.8330925293
   1.0472942845    7.1459552698    2.0277027148
  15.2877275262   14.7129617938    5.5451354302
   3.6796451575   15.2103049024    8.0817704026
  11.6312523724    6.6183850901    3.5720746002
   7.3969689291    7.2065760319   17.3395008383
   3.0260584108    6.3462555301    4.8746158862
   1.1283545643    8.5994735550    3.0714682519
   6.8125415354    6.7801434606    3.5709443436
   8.5458786545   16.6032321376   16.7578525064
  11.0614127123    4.8378641815    3.1617230065
   7.7026353468    6.9631296806    5.1337524066
   1.0947735543    4.7740071397   11.7878727372
   8.4901525153   18.8936309778   11.5462361727
  11.6622138968   10.2543751719    4.0330632503
   9.2823114649   15.0948331193   15.7753071751
  13.3829307902    6.8874088709    6.9185037365
  11.5374739013    8.7778003830    3.3645456906
   9.4741836942   17.3332932962   11.2104675375
  -0.7647348745   18.7587515862    3.3426784336
  11.5263782269   10.5235169618    1.7331311884
  12.8846176028    6.9049573537    1.7083057149
   8.8730666944    5.1969133780    3.1954337253
  -0.8710502582   12.5230727208    4.8215005212
  12.1063236392    8.8668541394    1.1584925487
  12.3630780835    5.1709861018    1.0839106537
  10.2521109522   16.1160949380   16.7584013568
   9.5086292212    5.6507012746    4.6800755033
   7.6209358962   17.2459297937   11.6640517370
   1.8631854610   14.6270768816    5.4155244741
  -0.7728264938   14.0640439705    3.7883228493
   9.3017457598    9.3572450963   10.2936236597
  14.6575906372    7.9465661561    6.3080157884
  -1.1006016765   12.3641919133    3.2263525244
  15.2471249691    7.9751653641    3.1531388413
   3.2977579073   15.3735584514    6.0413386583
  14.3806435470    6.1801188409    5.6284004007
   7.7882227662   19.3707978134   13.4058292685
  16.1769698288    6.6092951628    4.0538092338
  11.7359717159    8.8987757925    5.3872597280
  12.9030387954   10.5983975739    0.7679246207
   3.4955049173   13.8806870074    4.8780338632
  13.4970175472    9.5350820028    5.5964970791
  12.1197780579    6.7957834405    0.0965918802
   9.9079227637   13.1691889251   16.9934826772
  -0.7816910093    8.0466708067   13.8124881307
   9.6668824187   11.7157020764   18.8681320928
   7.4612358851   18.0344931938   14.4349016198
  10.8647994691   14.1124683940   18.1435304231
  14.7858824392    5.5745676803    2.3264922749
   9.8374141547   18.9000591984   15.3861759639
  15.1416791672    6.7942641736    1.1926051837
   8.1777632304   12.5647415301   19.0803654210
   2.0383320126   10.0715274847   16.4095968141
   1.6095210941   14.5049993034   15.5871543434
  10.4010098778   18.2593627806    5.7641889586
  10.7526044432    1.7006790157    6.5514785005
   5.3139842964   11.1068482988    8.2265712040
   3.7658483523   10.9721939877    4.7769038266
  11.5119795087    1.5429158074    8.0528561873
  15.9003035812    9.5653372592    0.5994641342
  15.7966213441   11.6582346857   18.3219331122
  14.8089239075    5.1899920755   12.0594812371
  15.4024110445   13.0161302437    1.3147716001
  14.4765986490   13.4387899941   19.3269425301
  -2.1654782000   19.7879834870   11.6904628009
   3.1413617860    1.4408946536   13.6994473523
   0.5899132082   17.5756516730   13.0666701508
   1.2901295316    1.7630290539    9.7750458512
   8.3324710793   19.6665452032   15.9004408196
   4.2245967228   11.8003674431    6.9271735977
  -1.7508199704   13.8331280211   15.1776315603
   9.5680060840   17.6877889686    3.6438856610
   3.1960191418   10.3223255942    9.3393683927
   2.6502801481    9.3266565975   14.9677623403
   7.7841444549   18.8892293995    5.2219940360
   0.2095524772    6.9794585612    0.1263459962
   1.9096261786   13.7668135249   14.0115279128
   9.1635470339   11.2896268001    2.9337870417
   1.8558446237   10.7516580139    8.1291081115
  11.3775853658   19.7742771830   14.5395695114
   4.6777272450   12.1587958875    3.5772087259
   2.9586904164   12.7343768424   15.9984874008
   1.7823267090   18.9341944634   13.1694151763
   2.9114407875    1.6270454292   10.6622900235
   9.8864446840   17.2781530937    7.0944966046
  -1.1843630683   12.1593742252   15.6762838330
  15.7906011050    3.9125610547    0.6537667006
   3.6974865826   10.5573655684   15.7875003969
  14.9148593752   11.3539765275    1.4908874034
  12.4463458972    1.0764227803    6.4990531331
   4.6435412762   10.2726570151    3.2704037775
   8.7474841329   10.1123492122    1.8238800749
  16.2058662847    6.5640793354   19.0835288721
   6.7725560628   10.3565467293    6.5682834690
  14.4680490348    2.1843503148   13.9860303776
  -0.4350052174    8.2089470309   17.7154570980
  11.0001565014   16.3912909260    3.7041844382
  16.4692420484    9.0996698126   18.9207861323
  -0.9453717917   19.2301978752   13.7302412253
   0.2504346469    1.4702120870   13.0714661877
   1.5831243674   17.8603200593   11.6511447407
   2.2034674824    3.1856975362    9.9998186158
   0.5288308666    9.8532750902    0.6587246762
  -0.1809033597    4.2746694836    0.2456220641
   0.4599869076   12.0288285055   18.5184878084
   1.1695592226   12.0602620161   16.4539732633
  14.2050826198    1.8473262274   15.7691240814
   9.3354539122   15.8701395690    3.2452293849
   2.2068671062    9.0879228897    8.3437035865
   7.3885496098   17.3457931340    6.1626157149
   5.4949041799    9.2521849478    5.8082648648
   7.8849377755   11.7191654577    1.7909366268
  -0.6254792112   13.6071066593   16.4245295068
   4.8534362239    8.8734536666    1.6687687809
   8.6859849042   13.8601935038    7.6263089717
  12.5154010932   12.8354862679   13.7747980438
   4.3172466737    1.5580176087   16.4928542579
   2.0784925412    3.2808241329   18.1589735623
   0.2549182886    6.1438109500    6.1883627002
   3.8684114953    5.3971346080    0.9144559427
   0.9019149880    3.6668855507    5.0541499606
  10.6812042046   11.4286275167    5.9541542556
   5.6074019889   18.0127815551   10.4090402649
  16.7197715270    1.0531098508    1.7485483455
  11.5795438961   10.7772106632   16.4301717201
   3.0937672904   16.3835421846    0.0769495496
  12.3971700197   17.0583396962   15.8118368664
   5.8761319428    1.3168764326    9.8874257000
   2.1987004436   14.1935468623    2.0913231210
   7.2240805495   13.7042047801    1.5647592174
  12.0782520716   19.3356770098    4.4755273248
   6.0730371904   13.5231866066   18.5212480748
  15.2046516465   15.5798436616   10.6722125405
   4.1643721572   18.9656791125    3.8027906902
   5.0343296567    1.3248362065    2.4523055406
  11.8620594830   16.0165373829   18.5271727699
   6.9000532820    2.7184862199    6.2007993702
  13.6522738125   18.5946092423   11.3501950284
  11.7223042110   15.1975703798   10.0153655824
   3.1710673165   15.4926814596   13.0097116772
   4.9121375094   17.6325359947   14.4794944268
  10.1588152584    4.2030250984   15.4661076370
   9.8585602408    4.0322289661   17.8591447972
  -0.6599304290   17.4624198287    8.2334402405
   9.7078642088   13.2962340319   11.5386657493
  12.0175410921   14.4248685247    4.2803782978
   1.7593422640   13.7282059289   10.0634718462
  15.8069342278   12.4358341873    9.5571936972
  15.9205015585    9.7368919001    7.1123903210
  11.7002269700    2.9877410504   16.9185327896
   4.0905593318    4.8019382034    5.7690007917
  -1.5522596677   17.2220595401    4.6091615086
   8.7868380217    7.2655166960    3.4049392060
   8.5412958708    7.0251995127   15.6480404007
  15.1604797577   13.2548334640    3.9364498223
   2.9942208040   13.5303835559    6.7954465888
   8.8696420549    7.8073185684   11.5966719170
  13.2190701040    7.5129874219    4.8083518741
  -0.7490919484    7.9699162227    2.8114830477
   0.5087170081    6.6818094439   12.0778288328
   8.8311555490   14.7955175985   17.7911710407
  10.8234145188    6.4266842679    1.7104737707
  13.2398243951    9.6055323946    2.6691527069
   9.0335816864   17.7660717039   13.2028966574
  16.7647648726    5.2185614721   11.2647909207
  15.9974720319    7.0568007236   12.5415110360
  16.8277299010    5.3531587712    1.7179960973
   2.0193524377   11.3033407772   14.8813827199
  12.4966937334    1.4644978899   14.4379738406
   5.7940915056   11.1635210305    5.0540834595
   7.9816790339   18.9799089578    7.3244193428
   9.8767308355   11.7018644463    1.0499383091
   0.3454257073    9.9980062238   18.2901387848
   0.1664523578   19.3455707114   11.9876500186
   1.3817347062    2.6268139868   11.7277137521
  -1.2200472140   11.5592811310    0.3463669236
   9.5757745630   16.4541557122    5.2602834383
   0.0926222754   13.4650820582   14.4611717944
   3.7113298914    9.9081460909    7.3645003878
