B2 C140 Ca1 F48 H298 O66 
1.0
1.7929126879169875e+01 4.9533449012166354e-16 2.4282873628877826e-17 
-2.4934644962125199e+00 1.9457079172908639e+01 -8.0101654663538234e-17 
-1.0876302085705754e+00 8.1585900694705693e-01 1.9449956427836408e+01 
B C Ca F H O 
2 140 1 48 298 66 
Cartesian
   9.7591690256    2.9714426408   16.8469311323
  -1.2905150047    6.0333127650   12.0907028711
   0.0884120573    0.8059670497    1.7398319843
   7.1559477990   13.8765565411    6.5952503026
   5.1302251364    6.2278545191    1.3324532536
  12.3639876462   12.6528692234   12.6737535186
   3.5540387559    2.3044988717   15.5275346073
   1.6366988675    1.8752729558   18.4142971405
   1.3309903045    2.8042882165    5.4101030670
   1.9430519501    1.4509459251   17.0001597818
  -0.6769169660    3.9087327764    5.9656929960
   3.0975746907    5.9242115649   18.8210541284
   1.7597945258   16.1958851896   18.7897695497
   0.1941989755    3.7151048731   17.7498755551
  11.8597526391   15.6717065388   15.3033553306
   4.4521395082    9.7924453275    0.6423490851
   6.4221808336   17.1721581125    9.1141775976
  12.6052653133   11.8509138091   16.0781275427
   9.7451940197   11.9067829094    6.2900280787
   9.4664717249   13.4309614896    6.1928750991
  12.9462907624   11.5667788078   14.6371126340
   4.2039989949    7.4438331501    1.3987246687
  10.8203961784   10.4468802633   16.7333276702
  12.0315719094   11.4711453317    6.7733152594
   0.0268406727    4.8256081409    6.9562160173
   0.3313545772    7.2184350541    6.6907600456
   4.7312108716   18.7890045044    9.7138434494
   2.5656671052   16.2722471522    1.6669358180
  16.2984896086    1.5616627231    3.2020312372
   3.6414542166   19.1104069262   10.7567230403
   2.0660204771   14.9322530540    2.1464224444
  13.0838898718   16.6925114579   17.0429113551
   5.2776838771    1.8382300196   10.8846336175
   7.5712695297   13.7602404846    3.0479000762
  14.9650184921    1.2265443340    3.9170091720
   6.4302540468   14.2555093269    0.9961014660
   5.3425461780   14.7920721792   18.9712407829
  -2.2122071469   15.5009606388   12.2884606398
   2.5349107077   12.5567063009    2.4505825829
  12.6823743287   15.6769178672   18.0407294820
   5.4743009190   13.1195214795   17.2357727757
   5.4484020392   17.8644461738    3.5105374822
   7.1401377753    0.5442586472    2.4089603706
   6.0894629522    1.5339461954    2.8092116745
   3.7249280325    1.6797231711    2.4817931339
  -2.4223074633   17.2746941330   10.7980514836
   6.3334206289    1.0642530296    6.1463481855
  12.1580510654   15.2190302349    8.7986127030
  13.9513209324   17.4842537849   10.6965302960
   3.6060991493   15.5098093068   12.2100838438
  13.1373965730   18.3321962245    4.1180811064
   6.6615318623    2.2860711885   18.3179647206
   7.3977551456    4.5521618743   19.2092500175
   7.5510508796    3.5091629252   17.9802031807
   3.8412884767   15.3355768891   14.6328519572
  12.0241537739   18.2526524526   11.7817150419
  10.1392639118   14.7709060972   10.0780040878
   9.0475496094    2.8383693966   13.0929746689
  12.5132503854   15.8438425677    0.4704785265
  12.7019428125   13.1008653362    3.4159430468
   9.3345028898   14.0354600153   11.1149103874
   5.1081443851    3.2010459287    6.6390547095
   1.7462861186   12.7729158706   10.8066748232
   3.8472662160   16.8095211562   15.0587758516
   0.9133397028   18.5385473249    8.1294533523
  10.0264255787    3.0706986470   14.2718476647
  11.0313093216    4.2024571863   14.0263479327
   5.3264127728    4.7031511688    6.5003880943
   4.6136905900   18.9777986372   14.5218721219
   9.0905506267   11.8535478443   10.0781891438
  -1.1896066964   13.3052174182    8.5420443338
  15.3330499432   11.4288636043    8.4628747673
  -0.0754881170   16.9752963381    6.7041971337
  -1.5331673910   10.4759427408    7.9726828472
   5.2582814645    6.7731480911   15.7412950192
  14.0629359730   14.7158474041    4.4539324781
  -1.0288456812   17.8617093567    5.8758778350
   3.1549877874   13.6282340941    9.0376400924
  15.5810138534    9.9142630070    5.7033771268
   3.9222054391    6.3477700166    5.4512847369
  11.5167438004    2.1969800830   18.3737481802
   1.8323438629    5.0451647485   13.3308737187
   9.2693146707   20.1646617903   18.4849920433
  15.3704976371   13.9876017578    4.5191343386
   6.7573017234    7.1680936987   16.1154598556
   3.1368487541   14.2487077649    7.7120880200
   7.6500147821    7.4227808410    4.3137317785
   0.1536711724   18.2393439958    3.8059116164
   6.8006759755    8.8218909972   15.9028997166
   9.7300126941    7.7849170465    9.4388136521
   0.5623774010    8.1042727525    3.0417168822
  12.6870490518    3.1823376028   18.8003383647
   1.8997938914    5.6971855246   10.7572277415
   1.0463696580    5.1562513467   11.9873405296
  10.7087975744    5.5098095204    3.2812445842
   9.2674992067    5.6908637681    3.7805034631
   8.4655318552   15.5527938532   17.3868222121
   8.8639215625    8.3818478889   10.5984850132
  12.2363391568    8.5003187807    4.1519191413
   8.8501421735   18.1908625047   11.3171829753
  -0.7285019303   13.0876858081    3.4352070396
  14.1780124409    6.5672413977    6.4728806320
   7.4286152368    8.6057454926   10.0902728738
  13.4464199394    9.5532393222    2.2132531832
  12.1086929949    5.9094170263    1.2986677491
   2.7833879896   14.2223421251    5.3470668293
  12.5379343551    7.9481654839    5.4964908019
  16.1776040309    7.1666650454    3.2897530867
   8.5262125429   18.0978706361   13.7302485076
   8.8972268143   13.1623880958   18.0403597430
  14.8695852858    8.0339327371   14.6440071520
  15.8635309639    8.0385334669   13.5014187594
  15.8357483981    6.5287896597    1.9817607211
  14.9110005213    2.9788043040   11.0420481957
   8.6585925430   12.1498900757   19.0241903403
  14.9126563886    4.5092567027   11.1869222816
   9.3988680694   18.5754507646   14.8712014771
  14.1899734859    5.2661456778    9.9672980728
  15.7973050620    9.3978477082   12.7094868657
  11.4096294530    0.4960065047    6.8278628148
   2.4644020109   10.0190022683   16.1968311396
  -0.7151512518   10.1969017181    0.1232727441
   0.7362063862   13.2326456892   15.4332146317
  15.9518334522   12.0894760766    0.5039549361
   4.9058248593   10.5280821122    7.5289290312
   5.0956258476   10.2716471274    4.5299867228
   9.1779006257   16.8814738163    5.7245026533
   8.1220384070   17.8703268468    6.2131246305
   1.2489792818   12.0588407760   16.1680247948
   2.2954559266    0.5429093198   12.8015435189
   1.0275275062    1.1802879877   12.1512404814
   0.6764883400   17.8826751787   12.3392837373
   0.6396236056    1.5370460592    9.7125670403
   9.7275166537   10.7398660303    1.8690187884
   2.5569746578   10.0834129157    7.7950872993
   6.0389457254    9.9371658031    6.6639391443
  13.2823871446    1.1586132593   14.5829233553
  -0.4623345920    8.3989992696   18.4959430926
  16.8333201388    4.6732180756    0.6391054807
  -1.5884033589   13.3146918409   15.3210740884
  -0.3271796937   10.7165180331   19.2030083851
   9.5231975366   16.9431497363    3.4705768559
   8.5202310450    6.4153727138   13.2520184951
   6.3416183277    1.6352235489   17.1849250671
   8.3293639182    5.6012184275   18.9846943715
   8.7327211143    4.1202135816   12.5115791123
   7.3033493608    1.4185090325   19.1127749131
   8.6903475778    3.3128703293    1.0558812695
   5.4352434186    2.7041641985   18.8801118922
   6.2809309793    5.2765262770   19.2822469522
   7.8592089744    2.3716487266   13.5226507669
  11.4991495527    4.1333966395   12.7855949990
   9.6572816730    1.9686067739   12.2272347805
  12.0515023112    4.2391572167   15.0195898397
   4.2357449773    7.3568591075   16.4036719414
   5.1598508176    5.4384016109   16.1634937516
  10.4714331000    5.4955019119   14.1302423493
   5.0311405067    6.7933597792   14.3804257972
   2.6408694590    3.9933779691   13.4773940658
   8.1430677196   19.4532061368   18.1201385875
   2.5367147236    6.1483866069   13.5841486738
  10.9901342766    7.8466447628    9.9233539476
   1.0797634174    5.4379572571    9.6937020382
   7.0139618623    9.2078692724   14.5284205161
   7.8745588563    9.3542090525   16.5504762898
   0.8289717236    4.9193872581   14.3089363383
   9.8333827416    8.3333928396    8.2458351962
  10.4783439581   19.1486996416    0.4007049376
  13.7889615864    3.1577920588   17.9346263372
  10.2938590714   19.6320891101   17.7115468964
   2.9764342850    4.9545216556   10.4833359106
   9.2250468419    6.4489473836    9.3179236394
   6.6600039253    9.1409099923   11.1305860019
  14.2041331754    2.0451238924    0.5870452340
  12.1920774545    4.4630482100   18.7907632670
   5.6945204493    9.4688709097   16.2520120514
   2.2885553818    7.0015089616   10.7699664358
   6.7604658462    7.5344807828    9.5058751797
  15.1277437408    9.0188583349   15.5320963016
   7.4654446483    9.5391206916    9.1454206755
  13.7204337579    2.4488588672   10.8350658825
  13.6157249006    8.2803190010   14.1674827766
  14.7959159869    4.7632006586    8.8006951053
  15.6522296967    2.6662148236    9.9961304267
  14.5450715579    6.6169641331   10.0420643475
  14.9243159177    6.8484606067   15.3410324383
  -1.6749521698    9.1727680463   11.4038167807
  15.3403071186    2.4413332448   12.1557376043
  -1.3307658919   10.3891606317   13.1814747383
  12.8709737881    5.2257427458   10.0968860291
  14.5973495782   10.0034910214   12.5984562983
   0.6943141634    1.2391394391   18.6738683673
  12.9439541710   12.8823626030   16.4005551983
   1.7280192211    2.1526491940    4.6704174907
   5.3406424892    6.0047415711    2.3571214474
   6.0846614437   16.8546249994    8.1046792051
   9.6385176948   11.6167819470    7.3490201927
   6.0208884325    6.5555146309    0.6708360270
   4.5513930755    2.8118733927   15.5549763014
  16.4372930302    4.3670483159    5.4423078745
   0.4160475264    1.7626694960    1.2408110892
   0.6581925070   16.4442707964   18.6937512630
  -2.1632616809   19.3829149003    1.1933435185
   6.7997576170   14.8281975969    6.9012949494
  -0.2790148411    2.6639045493   17.5922914304
   0.5008678269    0.5323606701    2.6968387058
  11.4104462707   12.3111654006   12.3452305223
  -0.8340443281   19.8129167454   16.8089419620
   7.2215920064   13.9011844758    5.5096589220
  12.8450952779   15.4858818909   14.7353038921
   5.2606547083   10.4195155493    0.4324603693
  13.0329691487   12.0015316294   12.0617565754
   3.0706363576    4.9161597971   18.3599402988
   2.1165038745    6.4120427334   18.7012320520
  10.8717133916   10.1596096974   17.8444057259
  11.8287989298   10.6559086171    7.5987965501
   1.1392910348    2.1554389793    6.3016204450
  16.9335560494    3.1033975982    6.6554710809
  10.4177422571   13.7993114433    6.5259274532
   2.8349670134    3.0938290564   15.3063749483
   5.3583559319   19.6078788585    9.4329184442
  11.5836838471   14.7307504254   15.8897866737
  12.4776545101   10.6409164635   14.3559683746
   2.0825643248   15.1394549475   18.9506821791
   2.3487992380   16.5443057834   17.9102757201
  10.9658831931   15.7896349896   14.5121817220
   6.9563441276   18.0781490640    9.0653654559
   0.6977006028    4.1198928969   16.8679274429
   3.2890684647   16.7264229485    2.2440697189
  -0.7645193974    7.4344935421    6.9006987993
  13.0334470252   11.0864587728   16.7866058059
   2.2443912705    3.4830105276    5.6187828042
   7.1773396190   16.5982052797    9.6919861626
   9.1418308068   11.3190546332    5.7678124211
   3.6606017461   10.3557937354    1.1732639164
   6.6377488591   13.0306125211    6.9318910269
   3.0229870522   10.2334066234   19.0627959207
   3.8491132443    6.6664076550   18.4932927469
  12.2295119020   13.6616090198   12.2175011776
   2.4653758980    1.7850680907   19.0872963477
   3.4334740871    1.6667274206   14.7499133289
  -0.4141847350    4.4007875865   18.1401659826
   1.4409297514    1.8455910182   16.0437778933
  17.0464901858    1.2741858632    3.9462481541
  16.5693579352    2.5815615070    2.9527171362
  11.4554193625    9.7198795032   16.2261075661
   3.5641290573    7.4534278483    2.3307078884
   3.6028603345    7.5215453897    0.4696175965
   0.4597568907    8.0270178503    5.8399067803
   0.8471354876    4.3513461165    7.5299767223
   1.7338942054   17.0815896243    1.4500924216
  12.9681599438   11.2005690213    6.2421703589
   4.1777331076   19.6391285693   11.5976414421
  12.0836807067   12.4929788748    7.2163625093
   9.7809782860   10.3482835762   16.3323050243
   9.3875100727   13.8404383222    5.1395418603
  13.9937301640   11.3522305707   14.6162992384
   4.1819310941   18.5041415446    8.8216107644
   7.2384722947   14.8617300047    3.2836883030
  -0.8064959528    5.0981885863    7.6916741249
   1.0830436106    7.4926572907    7.5311728935
   6.5886691420   15.4066243290    1.0841649703
   6.2407360929    2.3368086335   10.9853282091
   1.3263147695   14.6122763009    1.4191981772
  13.1498801529   17.5633457882   17.7145980243
  14.0416753924   16.3937488748   16.5069566509
   4.5570326060   15.2895190293   18.4404346992
  14.7670590922   15.4176136003   12.6968918386
   8.6114063061   13.8533281171    3.3098648344
   4.6033424191    2.4737322700   10.4067811329
   3.1282099497   18.2654060980   11.1742876806
   5.4807290326   12.0361174523   17.1285949079
  -1.7598081625   14.4781126690   12.2700326052
  14.1103750016    0.8808887567    3.3625884746
  14.6857304056    1.9822777106    4.7087336268
   4.9307455615   17.0340230441    4.0347556289
   6.9370040301    0.6568764060    6.9845850537
   7.0175831066    0.5000305251    1.3023908143
   1.4289817720   15.0957045678    3.0974318601
   5.8688228878    1.5228921794    3.8465213494
   2.9503056194    1.3669380507    1.8659513096
  -2.0480514987   17.8373942999   11.8277695011
   1.6970872775   12.5873986064    3.1481598661
   2.2256479178   12.3393117799    1.4829220383
   7.2222966643   13.0280461158    3.7519453788
  12.5467665089   14.6587472649   17.5605908153
   4.8811543721    1.6550188925   11.8991699845
  13.4394824459   15.6612672346   18.8669997705
   6.3990126512   13.5509545704   16.7400363672
  11.9456511037   14.4987112658    7.8481519579
  13.4047085165   16.5667944259   10.9364430762
   5.4663513965   13.9766523013    1.4959171432
   2.6589082499   15.7774065215   11.6629971686
   5.8455535139   18.4401663234    4.3542350373
   3.9444617977   14.4748062070   11.8372102746
  13.1953159847   15.4203064627    8.8944156735
   3.8706074538    2.7402347047    2.1877773466
  -1.4464806387   16.0660628166   12.9300708788
   6.3440806111   15.1885500511   18.6665074442
   3.3519408344   11.9315843221    2.7091164602
   6.8480215925    0.7533795592    5.2522160401
   5.3661605583    0.4956921584    6.2364416769
   4.6031270947   13.5120530609   16.6092654357
   7.2200264503    4.0424287502   16.9899627560
  11.6914048617   19.0118131099   12.5933222645
   3.2802924575   14.7334477590   15.4033491669
   4.8917277281   14.9983752494   14.5962498335
   9.9198112524   14.4077516533    9.1639632211
   4.3257244090   16.4082583257   12.3070779092
   6.1679353514   17.6141728135    2.7917882985
   8.1614132991    0.9054846252    2.7898323411
  -2.0252388982   17.5744304348    9.7707882727
  14.2050841696   18.1899059560    4.1625325020
   6.3391671574    2.6042646340    2.4831102602
  12.8828862790   18.0925335255    3.0231367853
  12.5740611120   17.6926613316    4.8397742330
   3.3469116361    1.5558616594    3.4730721542
  11.8922095184   16.2033218739    8.4190620826
  13.5996186523   17.8573300448    9.7502464436
   9.4808804600   14.2342646223   12.2239968208
   1.4193364694   18.4756058455    9.0836561134
   2.7147647901   12.3455527897   11.0918166567
  11.6374173353   12.6888604820    3.3268936588
  13.5095254500   12.3474215218    3.5075130248
  11.4028382350   18.2892750087   10.9453676202
  11.9398475468   16.7577428500    0.5618630253
  11.9937348118   15.2987166864    1.2771424234
   1.4671306503   13.4694788926   11.6285660635
  11.9868446358   17.2624811588   12.2138088582
   0.8763008999   12.0553142836   10.7373230118
  12.8674090121   13.7028099365    2.5496363721
   4.2427930685    2.9530610933    6.0652224607
   9.9487959743   15.8548754207   10.1162040392
  -1.7432690431   13.7642436000    7.6195057602
   9.9774660171   11.1589543656    9.7966537415
   4.8239717285    2.9734917043    7.7531265262
  13.5889532469   15.8296118583    0.8405110287
   5.8259978183    4.9217540846    5.5488729686
   6.0790661781    5.1501510891    7.2255644254
  14.8262707474   11.9350940102    7.6584237187
   4.8993821822   19.5503589618   13.6453767818
   0.5977097376   19.6681116498    7.9450214965
   1.7616964297   18.4903063823    7.4163601936
   8.2499825805   14.2176508709   10.8040318174
   4.2644537838   16.9531068505   16.1263986270
   2.8658521156   17.2667930292   15.2201478823
  -0.2068969703   12.7888652352    8.2364155927
  -0.6768448231   11.0880877473    7.5481931114
  10.7436847166    2.2578505219   14.2993087799
  13.9662896044   15.2428656576    3.4512676138
   5.3791620761   19.2270150867   15.2444733618
   8.8990782898   12.6001176146    9.2020656036
  15.1176707606   10.9528482573    5.6272158835
   3.7237733344   19.3526041537   15.0091522758
  -0.8853640221   18.9464891079    6.1821352219
  -2.1417351895   17.6255333329    6.0504448089
   8.1943968225   11.3742151959   10.2593772241
   3.6251097326   12.6341976431    9.0840228714
  -0.9337374481   14.0079483982    9.3587001734
  14.0390887487   15.3783914598    5.3091603097
   3.7549816212   14.3660209461    9.6678515723
   0.9518020833   17.0690061078    6.1464738433
  10.8513326656    2.4223803193   19.1983850450
  14.5790106965   11.0084479724    9.1174976109
  -0.4257418589   15.9680496008    6.6544654608
  14.8442037392    9.2779967344    5.2802295728
   3.3021696031    5.8750213590    4.6005279880
   7.7059236172    8.5653450443    4.4993123387
   4.8529635512    6.7711331414    5.0045726401
  -1.0973855020    9.8899056103    8.7658454218
  15.4143694577   13.3692515941    5.3883020233
   0.9188932758    7.3363673968    3.6569948859
  -1.4161368131    9.9888487213    5.0896250699
  -0.1266438390   18.2248995488    2.7956698811
   1.0284787256   17.6674593781    3.8372577701
   2.8371282930   15.2433865972    7.7294390655
   0.7791989888    7.8525686008    1.9427089801
  -1.7216915357   14.6839691976    4.6563607297
   4.2321703554   14.2165600274    7.4761695637
  11.4313464312    5.8412926486    4.0706917789
   6.8993484897    7.2224340270   17.1326861144
   3.2385641522    7.2138062880    5.7496464671
   1.0796855269    9.0610654000    3.3138099233
   7.1224456116    7.1518965935    3.4010855576
   7.7558883793   16.4354484324   17.7317013092
  10.9628102678    4.4228588556    3.0524802243
   7.2781414415    6.8375804517    5.1205288653
   0.5397150178    4.2024433920   11.7453501620
   7.7806666417   18.1305568543   11.1792918967
  11.2570915185    9.1007094159    4.0918943439
   8.6642223224   15.2796854378   16.3091605100
  13.6919951162    6.4493692369    7.4531776502
  12.0801947998    7.7497375176    3.4162055938
   9.0606612627   19.2301234855   11.2902836256
   0.3143047452   19.3081775165    4.0876634002
  13.8951256487   10.5468437473    1.9720193798
  13.0407590191    6.1476053982    1.8210362117
   8.6787856994    5.2917827444    2.9642654242
  -0.3571941077   12.2779934923    4.0932528505
  12.3201588508    9.5606015928    1.7696687332
  12.0070721596    4.8368136313    1.0064902587
   9.5328306037   15.8010778981   17.7652114600
   9.1129721759    5.2625722718    4.7152605710
   9.3263648052   17.5618929503   10.5167686595
   2.7318954582   15.3505767277    5.6042601315
  -0.2870149606   14.0076295071    3.5866687952
   9.2942411313    9.3804171254   10.7827235607
  15.1016705274    7.2967823170    6.6114052872
  -0.5984271255   12.7925332091    2.3006717079
  15.2118585109    7.5074478993    3.8233296512
   3.7871845937   13.9083893514    5.0665061134
  14.7539911484    5.6697641315    6.2307757080
   7.6939505658   18.7538202018   13.4181044791
  16.5666520395    6.5225880453    4.0590492400
  11.5177644108    7.5569371510    5.8280803030
  14.1745946473    8.7889328774    1.8289797065
   1.9915225659   13.7427422184    4.7048492006
  12.8663748052    8.6976931018    6.2212129247
  12.1451901649    6.6403279999    0.5090469080
   8.7661748062   12.9245237417   16.9863266720
  -1.0431557761    8.0431407131   13.8797864362
   9.1139966206   11.0855493298   18.7097957021
   7.9326861487   17.2304363970   14.1296191706
   9.9518055581   13.5512637616   18.1312064732
  14.7048731589    6.1191657493    2.0446303168
  10.3916148608   18.1830910633   14.9860879107
  15.9493499848    7.2391656077    1.0931593438
   7.5641662700   12.0571229135   19.1668687605
   1.7599442742    9.8316002828   17.0294126828
   0.5770173226   14.0818968643   16.1285206891
  10.1984020875   17.4667645287    5.6957784839
  10.8165987860    0.8752338751    5.9574642108
   5.2241243023   10.5627133566    8.5804755069
   4.4899692742   11.2497847955    4.7702965568
  11.1725609243    1.1864986560    7.6079641047
  -1.1114075835    9.6750083412    0.9965324115
  15.5392350253   10.8098102376   18.6978356776
  14.3992585446    4.7675649059   12.1102421588
  15.9877952484   13.1815112207    0.8304401545
  14.4086524254   12.7638468705   18.8936391018
  -2.3574293254   19.8623444302   11.9250251945
   3.0069808727    1.4293597909   12.9699917380
  -0.0562620451   17.5449103643   13.1240725317
  -0.2015642812    0.8547884885    9.7505640098
   8.9717692556   18.6553774714   15.9270222265
   4.5851187972   11.5483472225    7.1756264937
  15.4410165285   12.9804398102   14.7586586455
   9.3618257360   18.0417571741    3.6421420164
   2.6038745340   10.0466152469    8.9272894612
   2.8106380387    9.2520341836   15.5527908836
   7.8998860433   18.4187894501    5.2793490008
   0.7315598442    7.3675757887    0.0820463073
   1.4222005408   13.5650185709   14.6636703537
   9.9638411369   11.2842965432    2.9422830238
   2.2401190235   11.1238396067    7.5817065166
  14.1217234283    0.8038732090   14.1445811309
   5.4893348612   10.4877333443    3.5344335906
   1.8828501006   12.4215426928   16.9585715802
   1.6906527276   18.1047459864   12.7796868166
   1.2640561138    1.3957585791    8.8912627125
   9.2707183040   16.2630359387    6.5521934007
  -1.6597566225   12.7573931786   16.2498846621
  15.8390190733    4.1439561711    0.6411016344
   3.3944572973   10.3716788625   16.6124969893
  15.2932983225   11.5363412694    1.1791188797
  12.4956386455    0.4485333719    6.5000925670
   4.2416880016    9.4922355718    4.7364378868
  10.1906629673    9.7427523773    1.6561902014
  15.7099490349    6.1478019329   19.2262742838
   6.9330414629   10.1187135548    7.2311587781
  13.1745835528    2.1301694743   14.1851471519
   0.1903680598    7.7071357781   17.9335044872
  10.6368682847   16.7881015653    3.3114516178
  -1.5714642126    8.3221879772   18.2911177079
  -0.4500139582   19.5382978126   13.8282998537
   0.6124246533    1.9052282111   12.8613485835
   0.5720833152   17.1929147844   11.5790717262
   0.2976694938    2.5828540913    9.5912651531
   1.2206408725    9.6894418193    0.6889189527
  -0.0641977177    4.1096706047    0.4861453283
   0.0293508712   11.6385520424   18.7708227345
   0.2563426148   11.7011353670   16.6725383985
  13.7074747148    1.1026293291   15.6521415860
   9.1270696477   16.7091070081    2.3830054228
   1.7562107869    9.4019098748    7.5436631340
   7.2913159442   17.2266806433    6.3873413278
   5.8855191952    8.8607707179    6.6957491154
   8.5829492775   10.6695108716    1.8039265724
  -1.7938764118   14.3867650239   15.3693593436
   5.0676486671    8.6414760468    1.3646943266
   8.4581956829   13.9003652078    7.1105822010
  12.6810318296   12.7364612917   14.0507935913
   3.3403402613    1.7559246118   16.8930426937
   1.2999618363    3.2493007982   18.7022784286
   0.6501552461    5.8770830858    6.3075190102
   4.5475279485    5.0093690998    0.8260927039
   0.1979271704    3.4890751595    4.9045518589
  10.9863280248   11.5189644426    5.8229436335
   5.4172690503   17.5295456687   10.0695914154
  16.6102396624    0.8177918404    1.9564664408
  11.1551496522   11.7647824521   16.3719747617
   3.3453355148   16.1506001687    0.4832069525
  12.0462335560   16.8752215841   16.1010993841
   5.3442901338    0.6249577386   10.0483320237
   3.0707598587   13.8786109644    2.3673870985
   7.5787761380   13.6053461529    1.6464486939
  12.7361871960   19.5789706697    4.7223005928
   5.3729484458   13.4054616119   18.6196728603
  -2.0331548700   15.9447848844   10.8938021194
   4.3746244631   18.6653810719    2.8696538252
   4.8811117068    0.9011144188    2.1646472886
  11.3735930987   16.0555286984   18.6073379052
   6.3138206425    2.5366755614    6.2363812773
  13.4222992160   18.5708363407   11.4887507895
  11.6743984601   14.6910807251   10.0716537341
   2.8902204255   15.1431533289   13.5008344081
   4.5545981151   17.6376776522   14.1746070312
   9.2895494707    3.2103891360   15.5763526137
   8.9909115782    3.1846556779   17.9448060097
  -0.1120730038   17.6190155193    7.9616212117
   9.5334871367   12.5867117850   11.1868175173
  12.8383507013   13.9425608425    4.5551753005
   1.8493262017   13.4876765298    9.5764792616
  -1.9980710699   12.4296587845    9.3122577639
  15.9472517582    9.4975567627    6.9869686155
  11.0512036528    2.4981969750   17.1226088747
   4.1472449979    5.4825476618    6.5934333134
  -0.9232381383   17.6007702205    4.4360728679
   9.0206428212    7.1271104223    3.9874277572
   7.6405389515    6.5277174513   15.3404392767
  15.7478175940   13.2190586085    3.4384510207
   2.5091937056   13.5685798175    6.7276284440
   8.9291215029    7.4490936725   11.5880014873
  13.3659745878    6.8094288317    5.3869046624
  -0.8069489360    8.3184858096    3.2314495964
   0.0727102787    6.2223983327   12.1644754655
   8.0566244002   14.4277546413   18.1632988686
  10.9361733301    6.3382768545    2.1433616002
  13.2876694679    9.4772438168    3.7589202144
   9.2934716713   17.6217360878   12.5642238504
  16.1683875601    4.9833568126   11.3778273601
  15.6927510791    6.9210219863   12.6133519129
  16.8047441915    5.4960963178    1.9209188811
   1.9386596244   11.0787589968   15.3814737017
   9.5440848590   19.9679545031   14.5188859271
   6.2549486065   10.3405980962    5.3959604100
   8.3683668083   18.7575949312    7.2411609645
  10.2043872612   11.6924578844    0.8386111550
  -0.0598891866    9.7648627773   18.1558110057
   0.1886180115   19.1187665824   11.8759472332
   1.5142658162    1.5988518814   10.8835918901
  -0.6720365146   11.5430979756    0.4355270998
   9.0334639930   16.1204160845    4.5542427541
  -0.4112507894   12.9413352276   14.5974909974
   3.7953838351    9.6509093663    7.3064782796
