B2 C140 Ca1 F48 H298 O66 
1.0
1.8924428165201171e+01 1.0208302796966298e-16 4.6721195861563440e-17 
-2.8957011197728328e+00 1.9819405906848989e+01 -5.9184284005626623e-18 
-3.6327798719965515e-01 -1.5124467680769011e-02 1.9362255700619123e+01 
B C Ca F H O 
2 140 1 48 298 66 
Cartesian
  10.6729784491    2.2212136417   16.7446992778
  -0.9466154427    5.4812248828   11.9807852002
  18.7606548339    0.2746629369    1.1801311325
   8.1402435550   14.4565440881    7.2802554827
   5.5952286882    6.6928088479    0.7293057386
  14.5350269058   12.9699125650   12.5522726023
   4.0899434158    1.9235681470   15.9599482224
  -0.0231690435   19.7982771678   18.8695838112
   1.1645371573    3.0975901256    4.1338632627
   3.5116487009    0.1243126739   17.4727815263
  -0.3072661570    3.2217742607    5.9259867832
   4.1241557992    4.8276832194    0.5492816959
   2.6432198282   15.9357312943   17.7794134552
   1.3710072096    1.9115901918   18.5567724458
  12.8090758565   14.9803212341   15.3699024933
   4.6160914488   10.1101476205    0.3569015122
   6.1478074801   16.2481640196    8.9141568907
  14.3141041953   11.4625847981   15.8443814228
   9.2235768355   11.6198779833    6.7318254968
   9.8694450931   13.0100351992    6.6535931669
  14.0278825769   11.5750036392   14.3057188113
   4.5299887461    7.8294925510    0.5688925129
  12.2408121571   10.9060918354   16.9796843161
  11.3468122784   10.4828482189    6.7488199675
   0.1818132073    4.4479238563    6.6451457372
  -0.0618960173    6.7567840188    6.6485978426
   4.8247579452   18.2420151013    9.3662348545
   2.3529882147   16.1550782136    0.7493084848
  17.4503245876    0.6970465777    3.0390883772
   3.9917677046   18.8825076577   10.4086128611
   2.2669109218   15.0449175924    1.7547039630
  13.9164224504   16.2893017112   17.2602605746
   6.0100380391    1.1448819906   10.9795609873
   7.5953368395   13.0750715090    3.5887540356
  16.0273754599    0.6565294985    3.4579176484
   6.0266818339   13.7799761265    2.0077496927
   5.9937931492   14.3877328785    0.6294044344
  -0.8571445078   15.1924354428   11.4300308883
   3.2958790062   13.8903566590    3.5568321897
  14.2944763457   15.0975329034   18.1864449294
   5.6657615816   13.7825776631   17.6920559118
   4.5625863262   17.5443824744    4.3820134067
   4.6194400413   19.7003603731    3.3549126782
   6.9887788992    1.2644989369    3.4544280353
   5.1011409100    1.8651007556    2.2789599568
  -2.1332592558   17.1183084779   10.9290682145
   6.3697713066    1.0949629907    7.1740694024
  13.4401094915   14.3523391323    8.7409310426
  15.2837911466   17.3175103558   10.5758456361
   4.2215845651   15.2866787371   11.9756218582
  13.6230726996   18.1697715236    4.2885297999
   7.6378700256    2.4500564245   17.9175095405
   8.9428255076    4.5158673989   18.8078893561
   8.7930312364    3.4933836571   17.6549376035
   4.2043155899   15.6192659094   14.5288577142
  13.3819255080   18.2099438966   11.4600116294
  11.6256762647   15.4594249886    9.9712558276
   9.8990655414    2.2974931689   13.1057396912
  14.2364908768   15.4770223199    1.0549238272
  14.0731814025   12.8447630760    5.6650871730
  11.0642955555   14.8037267183   11.1864670689
   4.8318855437    2.6929091593    6.4779656953
   1.7604389824   12.5290624262   11.8269336687
   4.1623682842   17.1134175414   14.6696025623
   0.8994869163   17.8576695234    8.1352840739
  11.0061986762    2.1865013853   14.2126866883
  12.2269053742    3.2083088266   13.9669804764
   4.8637931007    4.1845579714    6.0920911960
   5.2984599248   19.0605380667   14.2821467458
  10.3416222417   12.6402826742   10.5246142375
  -0.7978922391   13.2889323216    8.4506506000
  16.9549424164   11.2179630445    7.8024519690
  -0.9705716624   17.4059650314    6.7195515696
  -0.9494778100   10.3753122409    7.0414731145
   6.4411528620    6.1127767865   14.6630373865
  15.1549665267   14.5714989194    4.5446613095
  -0.8358735125   18.5109533875    5.6598545524
   3.0497421691   12.4805914024    9.8467226305
  16.8833550922    9.9654591274    4.9587796256
   3.9215764551    6.3265672320    6.3529051496
  12.2388732150    1.2465490237   18.2648204290
   2.5527217675    4.7154590570   13.1543175946
   9.9173570865   19.6269244394   18.2760483584
  16.4588639026   14.5553715513    3.7273342812
   7.5369437158    6.4918185139   15.6237785571
   3.5125427462   13.4106837389    8.6730337569
   8.9144964373    7.4302582091    5.5877937758
   0.1032886410   18.8658083697    3.5390154725
   8.1060635631    7.9127051153   15.5967995479
  10.7735237721    7.3509705545    9.8086691020
   1.1361010069    6.1478379075    2.6969887823
  13.2200783132    2.3586915487   18.6031549376
   2.3052977279    4.8631857084   10.7488775717
   1.4906347306    4.6195568237   12.0206093110
  10.8552091555    5.0622467869    3.5193553431
   9.4871827519    5.6002854154    4.1607759864
   9.2972639052   15.6626936414   18.4542914926
   9.7175889975    7.8319927867   10.8496801358
  13.6633521514    8.0308121234    3.4622212804
   8.6705275952   17.8968430189   12.1570494847
  -0.7877294036   13.2608141832    2.9051917961
  14.7599701717    5.0589491458    5.5199342930
   8.2570484426    8.1286424078   10.4633856419
  14.7691865830    9.5850091969    2.0979888277
  12.4338686067    5.2183950347    1.7499592665
   2.6376952741   14.8128475183    6.9467033951
  13.8667199589    7.0718731020    4.6115198890
  17.7389190213    6.4248657784    2.8556231337
   9.0046636625   17.5400868215   14.5639831394
   9.5417523699   13.4255641266   18.0251749950
  16.2962232583    7.5579549864   14.3507909640
  17.4102427956    7.4121648896   13.2872673804
  16.9420227704    5.7063367681    1.8524662728
  15.6626863077    2.8666859004   11.4344486195
   9.3611808774   12.1099390706   18.8556765745
  16.0774140365    4.3808675896   11.1032226232
  10.4397257598   17.8721487838   14.7034071908
  15.6689550336    4.6337797418    9.6033635412
  -0.9899098701    8.6193177086   12.5451233517
  10.6383495854   18.8349290498    7.0397242116
   2.9835918623   10.4894644431   15.1822671539
  -1.3716350383   10.9160377816   19.1016520511
   1.0253931394   13.4448186658   15.3536118831
  16.7423233443   12.9447911138    0.1501732663
   4.7701413517   10.3609309120    6.5741630783
   6.0055005353    9.2510140350    3.6233300394
   9.9249228571   16.7723812085    4.7429454497
   9.1082240800   17.8704104487    5.5774597593
   1.9481768742   12.4991640724   16.1910313191
   2.8799082081    0.4406347807   13.0926557608
   1.4900469851    1.1127865155   12.8214206771
   1.1289591730   18.3126677424   12.5830380608
   0.5758339943    1.3439902159   10.6447879764
  10.2875714854   11.1156745887    1.5942054515
   2.4352370052   10.0907340094    6.3844884657
   6.0846316636    9.8762896048    6.0123238892
  12.2508129897   19.4000925956   14.6234003448
  -0.5483089646    8.1070129366   18.4710517286
  17.1615664718    4.1141417547    0.0651961306
  -0.9994205279   12.2039105344   15.2282574381
   0.2605295350   10.2046840826    0.1287297245
   9.6483467302   17.7283195920    2.5269831739
   9.6799588601    5.8396322862   13.6771666114
   7.5617323590    1.7848859535   16.7464753743
  10.1056060362    5.0968760888   18.7235006889
   9.4256380022    3.5961872036   12.9361831122
   7.9841236258    1.6512961886   19.0125640616
   9.2219302966    4.0571364752    0.6663990145
   6.5123893218    2.9970421284   18.2376904293
   7.9473732186    5.4185510756   18.7974589522
   8.7925884788    1.6463751968   13.4579570022
  12.5837269562    3.0107603230   12.6948355219
  10.3215981043    1.7818317624   11.9215244551
  13.2052001742    2.8469035553   14.7787930184
   5.3880502570    6.8754557269   14.6360932744
   5.9401272730    4.9075731954   14.9045900363
  11.9418084501    4.5449844358   14.0721448540
   6.9092964199    6.2437719578   13.3463194398
   3.7346042888    3.9732003547   12.9351300348
   8.9771815141   18.7437978624   17.9535451678
   3.0621488415    5.9457353461   13.3847453238
  11.8850426494    6.8648115933   10.4250789015
   1.3619217794    4.9510195766    9.7125468348
   8.7151004426    8.1806979936   14.3962220663
   9.0981113280    8.1316859308   16.6732700086
   2.0607399109    4.2960377121   14.4134229476
  11.1108461464    8.3380346579    8.9698399193
  10.8814555557   19.4388127671    0.1256775078
  14.2910989754    2.2341826669   17.7936461391
  10.9412712636   19.5429362800   17.2982078706
   3.0553771439    3.7021186790   10.2924009623
  10.2685342652    6.3646289420    9.0941898051
   7.4352512619    8.5053208867   11.5308920099
  14.0134553180    2.5181016875    0.4873890582
  12.5833933251    3.5148637496   18.2175264388
   7.1641269620    8.8145657491   15.8291951973
   3.1120552950    5.9581894239   10.7853130420
   7.6056287656    6.9707047303    9.9604127476
  16.5014226016    8.6496760958   15.0201308815
   8.0445825801    9.0701003244    9.4778215727
  14.4378928056    2.6089218308   10.9735903360
  14.9900044932    7.6293824186   13.7315944215
  16.3179117967    3.7429994853    8.7878177854
  16.4568293569    1.9203036996   10.9220364017
  16.1269097227    5.9559354403    9.3819578204
  16.0540467287    6.4266097866   15.1599070547
   0.1252007119    8.1403560095   11.8992036401
  15.6700574573    2.7675128643   12.8337961006
  -0.6942208729    9.6560571234   13.3624638999
  14.3408957752    4.7156455607    9.3428586741
  16.9787785179    9.0312307498   11.5973101950
  -0.7878381018   18.9759366050   18.7849023176
  15.2107825009   12.1409642111   16.0843041914
   1.1187929591    3.3882991617    3.1113819646
   6.4963486541    7.0102436547    1.2807848497
   5.5940888493   16.1806626222    7.9333141479
   9.2318201027   11.4042714800    7.8027605154
   5.7005473418    6.6762593929   19.0662706928
   4.4072907277    2.9466907780   15.9189731278
  17.5517632528    3.0905872303    6.0421799410
   0.5983719977    0.7663471564    1.7610037009
   2.3566817811   16.9022474991   17.2998386359
  18.2427512944    0.8750278813    0.2951987456
   8.0262161881   15.4602065654    7.5911651162
   0.8420985726    1.1386504591   17.8153963778
  -2.5490117121   19.2041429185    0.7885107377
  13.5877389003   12.4259918607   12.1583483189
   1.4491108364   19.2958385833   17.3967701002
   7.8130863269   14.3125075017    6.2132278096
  13.7950585288   14.9364391230   14.8445115285
   5.3335688323   11.0757731762    0.2357833723
  15.5474942324   12.5645258272   12.2765001264
   3.7377167291    3.9781823992    1.1186694473
   3.3287344342    5.5366427330    0.3218040894
  12.5991539920    9.9572951438   16.5233249565
  12.1071390034   10.2969436980    6.0191390247
   1.4049339956    1.9751559465    4.3031560614
   0.2256132950    2.2903831679    6.2723266352
  10.8482944243   12.7992238466    7.0848866509
   3.1246019948    1.9402331083   15.4204374291
   5.7105404740   18.9157048024    9.1803045038
  12.5741511752   14.1086243028   15.9383149758
  13.0347379547   11.3802113606   14.0302678600
   1.7492352463   15.3893382192   17.8081516545
   3.3542629200   15.4144213182   17.1374615215
  12.0699493651   15.3017150742   14.7133225913
   7.0974450202   16.8099351175    8.6186676682
   1.9421824534    2.7443271438   17.9830762836
   2.5590753980   17.0016617048    1.3766061956
  -0.7814516422    7.5734457333    6.4396807777
  14.5111266790   10.4137710467   16.1303986397
   1.9233790907    3.7233214212    4.5319971471
   6.4016744677   15.2430801933    9.2645159403
   8.2996257536   11.5007295873    6.0998187658
   4.4259876074   10.1307501467    1.4206889819
   7.5401234931   13.7272760020    7.8362763659
   3.6353944387   10.3440594269    0.0519236746
   4.1879104215    4.3261715318   19.0452162248
  14.5880558464   14.0072012753   12.2070566306
   1.0459516692   19.6334953929    0.3404645181
   4.8585030513    1.3516540044   15.2479633678
   0.6322726588    2.4023203003   19.1851186382
  -0.1126361731   19.7306846151   16.7127625413
  18.1952106500    0.5149548691    3.9209248219
  17.6525307113    1.7507116951    2.7987520771
  11.4122563423   11.2103872199   16.1975813419
   4.3228331075    8.2354850012    1.5589881079
   3.6346492450    7.5861335351    0.1011644521
   0.6747611478    7.0529819890    5.8676003593
   1.3463671389    4.6240725672    6.2799346440
   1.3905331355   16.4037429416    0.2954881309
  11.6621414525   10.9941875101    7.6171976052
   4.4906557871   18.8543241924   11.4074354850
  11.1471401588    9.4823649671    7.1784987125
  11.9138326022   10.9586608945   18.0093931114
   9.9129826289   13.3944791253    5.6034150172
  14.5941365098   10.9464291957   13.5394051034
   4.3671483880   18.1119281499    8.3909371074
   7.6516614719   14.1227599213    3.9935502126
   0.0839200563    4.1728858914    7.7382272452
   0.1397472959    6.9665888665    7.7406467920
   5.9568428809   14.4703572839    2.8148610445
   6.8293903628    1.6461112198   11.5528936246
   1.9328303612   13.9563962397    1.4432019544
  13.8639680674   17.2452418880   17.8133406635
  14.8647790165   16.3603905657   16.6532591930
   5.1194994146   14.9787893302    0.3683192662
  -1.7022228641   14.8262651832   12.0888083217
   8.5410026251   12.5860775465    3.8111509532
   5.3880515383    1.9601603153   10.5587357754
   3.0377001954   18.2889882369   10.6088774022
   5.2131396680   14.9412320903   17.7205451618
  -0.3825796154   14.2998698060   11.0213340590
  15.3559766007    0.6600922072    2.5939034518
  15.5928698031    1.4758354648    4.1192432586
   5.6336672697   17.3991576154    4.6571107413
   6.6705071229    1.5013732966    8.0951606280
   4.3487789194   19.2068863398    2.4718943345
   1.4473218634   15.3897923357    2.3018551923
   7.3645713508    1.7819451052    4.3763341002
   4.0539856582    1.6129720164    1.9736057770
  -2.2908089577   16.9665933113   12.0170060408
   2.5821908625   14.2807671404    4.2232865925
   2.7058999318   13.0085202978    3.2196767130
   6.7468702956   12.6619590348    4.2580931105
  14.5812508081   14.2180570852   17.6097759796
   5.2190708508    0.5908137799   11.4962316888
  15.3454108706   15.3746011973   18.5028414282
   5.1122795566   13.0286320853   17.0880579245
  12.8293532510   14.2833720387    7.8650656984
  14.8957412620   16.3468187025   10.0748598485
   5.3019998679   13.0019467991    1.9779525928
   3.4678846204   15.0872171256   11.2834055084
   4.3222868077   17.2207244704    3.3826167237
   4.9616132336   14.5397354989   11.9664989905
  13.4721809012   13.3729854630    9.1051119902
   5.6263243550    1.6219505567    1.3231434238
  -0.0695771251   15.7389266827   12.0501208673
   6.9451199378   15.0315838242    0.4492913412
   4.2811715656   13.6745209838    4.0021450885
   7.1026402188    0.6260507195    6.5954889890
   5.5296062423    0.4317680089    7.4019110689
   6.6580096325   13.8931534045   17.2595994904
   8.7129810901    3.9020702566   16.6360255336
  13.0060545580   18.5132293977   12.4741763457
   3.5547856493   15.1557662321   15.2389364432
   5.1591728403   15.1201305839   14.6309079197
  11.0620176364   15.1601444168    9.0325130245
   4.7232227442   16.2925651723   11.7637402646
   3.9420491052   17.0451014633    5.1921657009
   5.7007815571   19.7223216404    3.3501237259
  -1.5481679035   17.9694248612   10.6004006475
  14.3513788073   18.2887860301    5.0777140538
   7.3676137525    1.7975657477    2.6056112500
  14.2750912823   18.3291627776    3.3698834844
  13.0822484073   17.2596339299    4.3492844469
   5.2193246453    2.9368764937    2.3710202271
  14.3327639168   14.6683548282    8.2037883522
  15.2496135093   18.0879860707    9.7423593222
  11.5372287959   15.2247146693   12.1056395697
   1.3113372512   18.7578992946    8.7384693152
   0.8911753436   13.1316893369   12.2218775328
  14.1350261228   12.2454683827    6.4699311326
  13.7731342302   12.3468225742    4.7808838832
  13.4999285066   18.9482565939   10.6159930760
  13.5498051077   15.1112370755    1.8209617331
  15.2795538611   15.5427531263    1.1493684885
   1.5078534834   11.6164932286   11.2397792439
  12.8012824657   17.3417854362   11.1821124135
   2.7314752189   12.3679084864   12.4259389323
  13.2295199794   13.5477554730    5.8594343316
   3.9439184176    2.2373848627    5.9675927152
  11.3717745388   16.4829727290    9.9639010073
  -1.3418175840   14.1447717801    8.9235189345
  10.4614178435   11.5297756807   10.8604133586
   4.5454212493    2.4457143462    7.5326548004
  13.8523794150   16.4921821899    0.9030844010
   4.7854517226    4.2767079326    5.0219349348
   5.8239025575    4.6239192919    6.5095184778
  16.1019501669   11.6604705243    7.3104596751
   6.1792254041   19.4084097442   13.8016258922
   1.3115190436   18.0917474555    7.0559058828
   1.4310454247   16.8594493647    8.4680545616
  10.0427596912   15.1702676312   11.2264475284
   3.8093157983   17.3777832946   15.7100495638
   3.3083060858   17.3948114075   14.0708655530
  -0.9677541588   13.4796682291    7.3951270916
  -0.2145485414   10.9206539872    6.4188257096
  11.3638940287    1.1396575568   14.2442446315
  14.2919525517   14.2721374280    3.8260316754
   5.1074002090   19.4503412903   15.2693511287
  10.5019582430   12.4111395465    9.4411920269
  16.8079435987   11.0417079780    4.9100869523
   4.4444691629   19.1652407109   13.5875061770
  -0.0724002886   19.1743958837    5.9887625645
  -1.7948633230   19.0482655947    5.5749496629
   9.2208777051   12.8815972173   10.5324701912
   2.5396871079   11.5544469990    9.5124523419
   0.2197843876   13.3134028501    8.5771824740
  14.9115403031   15.5080939252    4.8861665810
   3.9275223649   12.1158598988   10.4091130697
  -0.3480884599   16.4491827127    6.3565474212
  11.4494516248    1.1232518045   19.0773687074
  16.3848612704   10.4507368016    8.4146165995
  -1.9866787482   17.0347066225    6.7875825945
  15.8247554553    9.5933968518    4.7978925597
   3.1313527966    6.7552804732    6.8968321495
   9.3504754308    8.1799709385    6.2715882993
   3.7300594010    6.7020880738    5.2943992057
  -0.3317129738    9.8991932567    7.7757192602
  -1.6667896548   14.9256468845    4.3350238807
   1.0527335577    5.8142295495    3.7721538747
  -1.4281732258    9.5545858688    4.1378305300
  -0.0868967112   18.5054606280    2.5253877115
   1.1029264546   19.0327953290    3.6278636207
   3.6248319144   14.4806965837    9.1145736771
   1.1406707069    5.3038725089    1.9890505861
  16.3514864810   15.2910128386    2.9202622728
   4.5527400263   13.0907430915    8.3873764539
  11.7320383626    4.9999350715    4.2422724265
   6.9790148020    6.4974008209   16.5846761789
   4.9026486025    6.7573940994    6.6286840343
   2.0654504284    6.7032551833    2.6569190377
   8.2142425044    7.9526389443    4.9403716627
  10.4073923678   15.6305643985   18.5613600233
  10.6383165695    4.0115176851    3.0777682336
   8.3534426436    6.7154025834    6.2133010022
   1.1012310629    3.6546739935   11.9753029863
   9.0943188134   18.8599149318   12.2838238267
  13.1342236828    8.9100976777    3.6829910618
   8.7985023878   16.3845431806   19.1229269114
  13.7978268691    4.5394883416    5.9667786448
  13.0213623358    7.4891169870    2.7518299999
   9.4723868791   17.2253443816   11.6608795601
   2.4859367661    0.0079495990    3.6080155401
  15.5351617479    9.5152064354    1.2992323421
  13.4286311283    5.4373540539    2.2003102711
   8.7480840378    5.7526473353    3.3181217937
  -0.1976547766   13.5252679941    3.7877130238
  14.8697178315   10.5447548549    2.6118648152
  12.2024613836    4.1299310837    1.7412567119
   9.1475333427   15.9735531309   17.3896878408
   9.0990537134    4.7060611567    4.7562116986
   7.7372175168   17.9984489016   11.5191685619
   2.2326660939   15.6167571562    7.6312540199
  -0.6064297063   14.0294567676    2.1503400216
  10.1110335190    8.8011874334   11.2676313152
  15.3635045090    5.5726963715    6.2477054287
  -0.4484007554   12.3934859323    2.3151958412
  17.0990138647    7.1281379953    3.3219406870
   3.6536615078   15.0766511632    6.7518334488
  15.3243347726    4.1290787444    5.0947099562
   8.4001941297   18.2755697089   15.0874306513
  18.0045178062    5.6722332608    3.6982561936
  12.8788465497    6.9047302390    4.9432264362
  13.8246663157    9.6216501324    1.5929502931
   2.1651384117   14.7837594929    6.0377458266
  14.3887274077    7.6350781805    5.5362150104
  12.4676401129    5.6623256777    0.7583246952
   9.2721569728   13.2221024874   16.9887961085
  -0.6081130379    7.1104682612   13.9398128642
   9.3620828209   11.1630764450   18.2784922610
   9.0674988206   16.5677116380   15.1132292512
  10.6174650750   13.6305656304   17.9695844512
  16.0078627286    5.1664315148    2.4209010243
  11.0421448505   17.0503419148   14.1845746099
  16.4283475923    6.4460940517    1.1982427363
   8.6826529526   12.2672563508    0.0170403749
   3.3529899984   10.1668180232   16.1682484560
   0.3395166317   14.0256794960   16.1441286094
  10.9977345015   17.0140310890    4.7506902714
  13.2016714380    0.0484856616    6.9086040136
   4.9126348654   10.2765830850    7.6381677698
   6.4229592323    9.5727565449    2.6365884390
  11.3215566634   18.5608823554    7.9243423024
  16.9972529441   10.5720163581    0.1905194457
  -1.5021254494   10.6861081780   17.9542223702
  15.4743797033    5.0381067760   11.6630723665
  16.7767639274   14.0442239759    0.2733596966
  15.7804677838   12.7557972975   18.6052053762
   0.6270352141    0.3219222359   12.9221716543
   3.7755063316    1.0155481907   13.1967835238
   0.7526305713   17.6159226268   13.3124029732
  18.5244155213    0.9485049845   11.1602849995
  10.6297967554   17.7947181810   15.8231396073
   4.5545154106   11.4236523221    6.2316277810
  -1.7775901844   11.8564724718   14.5434077940
   9.2222964540   17.4711659273    1.5085506015
   2.3381524364   10.5641983560    7.4335719619
   2.0515436214    9.9757641549   14.7730696610
   9.3440394882   18.7391274063    4.8917509829
  17.3422036690    8.2828547086   18.2179601704
   1.6302886601   14.1474942976   14.6668967763
  10.8043890109   11.4633268485    2.4472222359
   2.3213652878   11.0402065571    5.7395002028
  15.3965612507    0.3937463737   13.9695619243
   6.4839522161    8.2111553200    3.7262912758
   2.4648449519   12.8001839434   17.1157115123
   2.1363868774   18.8181831676   12.8716719431
   1.0841344363    0.6398440695    9.9394188483
   9.8167865352   15.6817221958    5.0701328097
  -0.6056727130   11.1549423645   15.7535070475
  16.8512961435    3.0931799463    0.4235116059
   3.8292706266   10.1032291735   14.5128814895
  16.2560800692   12.5469256562    1.0224949260
  11.2617489302   18.6273539570    6.0973302473
   4.8243968305    9.2271032560    3.5868187638
  10.7313034829   10.0400708070    1.4436527829
  15.7970345295    4.4522191840   19.0804248725
   6.9064603401   10.3725598694    6.5367604884
  12.4257428387   19.5877787670   15.7023485961
  -0.1920539683    7.4117322606    0.0374824093
   9.2123442628   18.7138195996    2.6441745887
  -0.1225832782    7.6400560323   17.6847545700
  -0.0771774062   19.7913547390   14.0915930622
   1.2372925689    1.7804210496   13.5251947623
   1.2913921895   17.6842969057   11.7481572034
   0.1963935143    2.2304724000   10.0125409956
   0.2084538284    9.7483950580    1.1549073667
  17.3571076245    4.0604751282   18.4704866118
   1.1261083034   10.8876907621    0.1126175842
   1.3031839033   11.7345441864   16.5330551071
  12.9183686718   18.5581700438   14.2237949582
  10.7308555781   18.0706795515    2.5196959084
   1.6185038274    9.3718901155    6.2145761150
   8.0669167624   17.5796724712    5.5872506765
   6.2914401171    8.7887064777    6.1040901610
   9.2521615952   11.0368343874    1.7071806768
  -1.4684180055   12.9011366236   16.0223540805
   4.8405361360    8.8436281547   19.2299894181
   9.5004011975   14.0773735397    7.5192364920
  14.4423694566   12.9542686217   14.0028579277
   4.0847925666    1.5055391938   17.2729265564
   2.6614009588    1.2103468328    0.0384769186
  -0.7046713742    5.4979492076    6.4102649534
   5.1174369726    5.4655011387    1.3215587836
  -0.1554892204    3.3789685586    4.5161782100
  10.2545144237   10.9057300837    5.9825048901
   5.3125646232   16.9625968552    9.8478812356
  14.7421030921   19.7059028631    1.9168531989
  13.2268736342   11.9141217993   16.6521112353
   3.0617759467   15.8713351071   19.1899434315
  12.6774530873   16.0146975221   16.4876782691
   6.4642297586    0.2787657256   10.0376586500
   3.3920617417   14.9257484669    2.5492875054
   7.3273700668   13.1657849837    2.2379100190
  12.6332066118   19.3212609014    4.2550744439
   5.6811030970   13.2813560758   19.0201063431
  -1.4591014133   15.9874905904   10.3718432681
   4.2753620057   18.8934923864    4.5496886065
   5.5500399057    1.1989696544    3.4104199887
  13.4827926488   14.7380427451   19.2750197854
   6.0340089796    2.1686914028    6.2410349931
  14.7830818799   17.8866976840   11.7099973447
  13.0697086743   15.3293585081    9.8158152572
   3.5165655218   15.3175028437   13.2594668750
   5.4184753314   17.6224479624   14.4092573647
  10.3404634673    2.5166110408   15.3854527858
   9.8752615055    2.6131782442   17.8045679557
  -0.4971072426   17.8429343639    8.0496789543
  11.1033582882   13.4215942836   11.4169210263
  15.2785552212   13.5493889989    5.6440652215
   2.1508878405   13.2673565312   10.6394553351
  -1.3395272301   11.9823651611    8.8832259704
  17.3751848914    9.4558250571    6.2287616309
  11.6566947961    1.3460527303   16.9614173858
   3.7408859994    4.9696425488    6.6167223544
  -0.3313195324   17.8986266040    4.4936756292
   9.9286984192    6.7460651923    4.8586661821
   8.6918527153    5.7378789636   15.5027931919
  16.8079382304   13.2853666179    3.1701624420
   2.5609500254   13.5818099510    7.5981271337
   9.7561055641    6.9043781004   11.9225773190
  14.5818216782    5.8566198276    4.3037210257
   0.0357745260    6.9618236470    2.2643373609
   0.3992082271    5.6035257903   12.2077768532
   8.7087051492   14.4311861254   18.6359010102
  11.3515173952    5.9108904764    2.4920172213
  14.9080358036    8.4431718840    2.9520522577
   8.2914002410   17.2310703586   13.3979062447
  17.4701008808    4.4634652513   11.2014896781
  17.0905082777    6.3884786491   12.4036342747
  17.8386205957    4.9019430427    1.0404840779
   2.9332804378   11.8728904267   15.2126791764
  10.8550775271   19.2020693103   14.2193820603
   6.4074954731   10.1908369849    4.6761705865
   9.5450145446   17.9849349890    6.8674202747
  10.6468917673   11.9980134760    0.5414194211
   0.3591212286    9.2103051281   18.5698331660
   0.2456501594   19.2776005276   12.1841914883
   1.4315047650    1.9121461192   11.5970009603
  -0.8652011387   12.3314221150    0.2054367843
   9.3898407308   16.6624699562    3.4072166297
  -0.0112743823   12.7907352725   14.5071251327
   3.7062892049    9.4705104609    6.2248994419
