B2 C140 Ca1 F48 H298 O66 
1.0
1.7929579956236562e+01 -2.2852098306461308e-16 5.0880966200027571e-17 
-2.5013895514077356e+00 1.9443029841952143e+01 -1.2722291619096061e-16 
-1.0784203212805157e+00 8.1407687274291141e-01 1.9449422239837602e+01 
B C Ca F H O 
2 140 1 48 298 66 
Cartesian
   9.7594454513    2.9855097472   16.8332487463
  -1.2808358196    6.0236578472   12.1000053089
   0.0678888369    0.8197200639    1.7178279003
   7.1656496859   13.8543942092    6.5678872681
   5.1233245207    6.2298033904    1.3383017317
  12.3720707583   12.6587943252   12.6727475605
   3.5748682126    2.3098842288   15.5346329837
   1.6466786915    1.8738408114   18.4069705689
   1.3359965231    2.8056968474    5.4199384049
   1.9129874399    1.4380870491   16.9919739703
  -0.6577545345    3.8958710583    5.9600337866
   3.0963144988    5.9171138801   18.8448199661
   1.7741423095   16.2000422213   18.7943555249
   0.1961105244    3.6881311250   17.7308715184
  11.8510518747   15.6475068515   15.3225943120
   4.4468784775    9.7790786115    0.6305012430
   6.4242230615   17.1582136585    9.1267662015
  12.6138260382   11.8316414721   16.0954880710
   9.7439061652   11.9213374289    6.3128335973
   9.4699644740   13.4118199615    6.1996227726
  12.9473120648   11.5375001209   14.6505722928
   4.1950735944    7.4247397259    1.3877702042
  10.8295004311   10.4105454655   16.7323194590
  12.0339766633   11.4663190748    6.7555106894
   0.0269310054    4.8304053991    6.9564906008
   0.3365528170    7.2082813072    6.6935856175
   4.7273966725   18.7564890193    9.7217216196
   2.5677068696   16.2758871023    1.6730160723
  16.2867553765    1.5542327531    3.2139674253
   3.6460738269   19.0868510217   10.7531648834
   2.0535338655   14.9106730483    2.1527336560
  13.0837817582   16.6865551487   17.0624090634
   5.2777259130    1.8388628863   10.8768231495
   7.5696052840   13.7602557694    3.0380350620
  14.9665003033    1.2306927934    3.9280853402
   6.4300286440   14.2380155399    0.9920117189
   5.3656403369   14.7781174353   18.9673350451
  -2.2227984164   15.4780048413   12.2848554168
   2.4903131337   12.5581931848    2.4475915499
  12.6843233233   15.6570896869   18.0469264237
   5.4736892038   13.1115470611   17.2452894579
   5.4453385916   17.8483555695    3.5154807065
   7.1367925647    0.5324378338    2.4118723602
   6.0895009686    1.5327755414    2.7965277075
   3.7308987713    1.6714590363    2.4970729260
  -2.4401337294   17.2675494739   10.7990879719
   6.3419278244    1.0690861140    6.1448129006
  12.1552515957   15.2145476174    8.8029429192
  13.9302447707   17.4893027064   10.6979882271
   3.6122232966   15.4998234410   12.2000895285
  13.1470476555   18.3397188380    4.0971352895
   6.6618098879    2.2872101302   18.3160991160
   7.4118180430    4.5558591796   19.2052145276
   7.5616224054    3.5013280300   17.9817614858
   3.8192986224   15.3322261614   14.6337234249
  12.0248986387   18.2360455460   11.7884471153
  10.1481585580   14.7548888518   10.0694208483
   9.0485481863    2.8325795444   13.0675071441
  12.5192151531   15.8070929605    0.4754199194
  12.6986156783   13.0876742011    3.4062710183
   9.3390855523   14.0210834122   11.1286750317
   5.1302528976    3.2009110808    6.6594924080
   1.7409842540   12.7788651579   10.8074900019
   3.8391740247   16.7950579402   15.0671136865
   0.8907385009   18.5167759982    8.1144850924
  10.0341139712    3.0660305668   14.2632902051
  11.0335359775    4.2062547578   14.0286375394
   5.3425131401    4.6784166121    6.4928387644
   4.6014175252   18.9663736845   14.5476231243
   9.0653345749   11.8469415526   10.0641854841
  -1.1922413910   13.2860333587    8.5344186849
  15.3263729617   11.4238070465    8.4671272750
  -0.0787931135   16.9439419910    6.6993580840
  -1.5362788811   10.4619874382    7.9573503327
   5.2770186268    6.7699130981   15.7392774363
  14.0466852664   14.7075974684    4.4616051678
  -1.0341393712   17.8585549611    5.8659499777
   3.1490320100   13.6275482853    9.0308258036
  15.5811257339    9.8972538383    5.7239547283
   3.9148362583    6.3372583525    5.4538742497
  11.5265561752    2.1923499687   18.3972843155
   1.8572749007    5.0443849796   13.3309067329
   9.2599934353   20.1310948089   18.4860243849
  15.3661724406   13.9745776346    4.5204404568
   6.7620655755    7.1718579294   16.0996044803
   3.1051308415   14.2582906916    7.7079296447
   7.6669122476    7.3953853952    4.2946670977
   0.1542341517   18.2300969758    3.8061571649
   6.8289757058    8.8076804569   15.9099249629
   9.7331376477    7.7816309258    9.4410750456
   0.5684174217    8.1067682396    3.0443698237
  12.6969164613    3.1885515109   18.7922144938
   1.9045159774    5.6804575187   10.7377451422
   1.0631393356    5.1412247727   11.9563611896
  10.7057865352    5.5077197880    3.2863655921
   9.2904545712    5.6892699412    3.7757136944
   8.4743376215   15.5657369384   17.3737607192
   8.8581627269    8.3730457952   10.5943347830
  12.2422551035    8.5018178738    4.1656883540
   8.8351656493   18.1457572913   11.3112124341
  -0.7505591672   13.0905328325    3.4282254411
  14.1939746883    6.5653872046    6.4753660683
   7.4299450036    8.6217808151   10.0688546578
  13.4109727184    9.5663906649    2.2079057590
  12.0903443911    5.9124156466    1.2903635687
   2.7821678466   14.2351308886    5.3335732058
  12.5196491235    7.9303719595    5.5013647377
  16.2025715622    7.1463926186    3.2871236044
   8.5312080776   18.0842660009   13.7353556819
   8.9005013508   13.1611873933   18.0445194613
  14.8623404445    8.0294014003   14.6434655290
  15.8669152234    8.0414640830   13.4994482356
  15.8224252849    6.5239450839    1.9841337283
  14.9077138306    2.9867970001   11.0382729568
   8.6671637279   12.1364950725   19.0270515667
  14.9201434390    4.5299955580   11.1847958444
   9.3930709731   18.5547689431   14.8789124417
  14.1904031075    5.2350109801    9.9744223638
  15.8112861975    9.3819668250   12.7172270353
  11.3979030228    0.5230556992    6.8256163405
   2.4621276893   10.0074010054   16.2125093759
  -0.7372581279   10.1928257134    0.1155710579
   0.7273052426   13.2305894291   15.4238672694
  15.9452491697   12.0896375205    0.4874909699
   4.9097167534   10.5094601753    7.5305262466
   5.0913486973   10.2751671991    4.5517035603
   9.1760294517   16.8627724932    5.7266005636
   8.0965944446   17.8585565527    6.2080808798
   1.2322063461   12.0408587931   16.1573668428
   2.2954189840    0.5381352153   12.8091482259
   1.0247780036    1.1671207224   12.1524613016
   0.6792146189   17.8770735039   12.3462510805
   0.6505617914    1.5581769881    9.7257281188
   9.7186600044   10.7591753645    1.8752236125
   2.5639794722   10.0794572243    7.8326052094
   6.0538327731    9.9394361267    6.6690722630
  13.2907542645    1.1591618924   14.5876002936
  -0.4658950829    8.4011365207   18.5012319084
  16.8395891039    4.6664999481    0.6537167397
  -1.5702968140   13.2997813072   15.3212014839
  -0.3003847188   10.7082152123   19.1999739557
   9.5361229487   16.9377035808    3.4643505071
   8.5204443771    6.4108973311   13.2604552140
   6.3610288748    1.6298000455   17.1900746440
   8.3298858503    5.5960858777   18.9734642470
   8.7369422481    4.1149808555   12.5134815533
   7.3160080377    1.4193374521   19.1160774426
   8.6836703815    3.2968424526    1.0632548295
   5.4516587884    2.6806383280   18.8744955743
   6.2887495631    5.2650242319   19.2916994478
   7.8669283335    2.3803021627   13.5163411625
  11.4953796494    4.1252735728   12.8049731426
   9.6571974012    1.9646021314   12.2326393999
  12.0636698786    4.2380947014   15.0281121890
   4.2618109146    7.3351760200   16.3970609495
   5.1723014643    5.4362649497   16.1651161022
  10.4945200450    5.5053262889   14.1257024273
   5.0414714523    6.7977358636   14.3727007052
   2.6465534078    3.9803897023   13.4850832821
   8.1375896865   19.4283423370   18.1125854554
   2.5273298284    6.1544485043   13.5726703267
  11.0055685617    7.8419039780    9.9087261430
   1.0789680119    5.4471916316    9.6871847768
   7.0107400527    9.1892422139   14.5394615656
   7.8798539115    9.3486582887   16.5449113790
   0.8277847110    4.9205383178   14.3270679273
   9.8225622648    8.3325923126    8.2362288232
  10.4689344852   19.1167388170    0.3958834825
  13.7810821858    3.1677276999   17.9292486735
  10.3001261289   19.6187599601   17.7190269369
   2.9910246582    4.9517919035   10.4932021579
   9.2158861478    6.4397654508    9.3115023917
   6.6562089588    9.1354641022   11.1200546499
  14.2195968352    2.0475479524    0.5752109885
  12.1905591771    4.4653177055   18.7868609725
   5.6915633481    9.4336843588   16.2536574412
   2.2938644623    6.9854502028   10.7773963824
   6.7685851754    7.5202896308    9.5021227055
  15.1124451967    9.0016192295   15.5474781272
   7.4647165624    9.5224246281    9.1403586795
  13.7202982512    2.4360594573   10.8303384553
  13.6155821717    8.2812457295   14.1538590969
  14.7897764671    4.7654772655    8.7878787411
  15.6765333976    2.6685553637    9.9883332899
  14.5515625365    6.6028337438   10.0555505836
  14.9300548256    6.8357441806   15.3376419170
  -1.6865875443    9.1686123638   11.4006108392
  15.3622017007    2.4332714006   12.1333082412
  -1.3283611625   10.3923370008   13.1852297025
  12.8722258359    5.2124000663   10.0947019124
  14.5989004601   10.0003584786   12.5997813903
   0.7080345142    1.2374032253   18.7216516937
  12.9514596078   12.8777770941   16.4400004721
   1.6845011637    2.1562147738    4.7019185836
   5.3464810542    5.9906380534    2.3761674132
   6.0985278600   16.8933819551    8.0944767187
   9.6228610578   11.6435369622    7.3505329021
   6.0741819805    6.5647008582    0.6967712169
   4.5724405078    2.7426910499   15.5405048711
  16.4751065629    4.3775890290    5.4473755529
   0.4435979692    1.7729828907    1.2434253023
   0.6818252599   16.4716273467   18.6665775915
  -2.1775607505   19.3941956920    1.1606074017
   6.7892066106   14.7995498941    6.9022632525
  -0.2351654527    2.6834987915   17.5673014545
   0.4977822656    0.5656160108    2.7461999929
  11.4395005424   12.2489744032   12.3442255722
  -0.8160262778   19.8064322247   16.8687160795
   7.1730533625   13.8848170323    5.5308028339
  12.8446746284   15.4549473418   14.7558232835
   5.2701866925   10.4418775286    0.3963332757
  13.0549002146   12.0188228701   12.0582524177
   3.0511637373    4.9678772784   18.3917388752
   2.1080042412    6.3981680097   18.7135101091
  10.8805935380   10.1995248816   17.8042643526
  11.8899598605   10.6616422664    7.6039241632
   1.1017419600    2.1625942910    6.3090517138
  16.9092291552    3.1368504521    6.6296189294
  10.4630182084   13.8206163477    6.5568821888
   2.8440116951    3.1183291940   15.2986920130
   5.3633760742   19.5598822696    9.3843329559
  11.6316634067   14.7182634117   15.8435125522
  12.5006167413   10.5720481412   14.3821712648
   2.0601547944   15.1428942254   18.9554951983
   2.3665037071   16.5268955275   17.9060777130
  10.9696444220   15.8128079834   14.4476640808
   7.0005443822   18.0713338885    9.1086535961
   0.7363454497    4.0973369363   16.8371786913
   3.2846506352   16.6480234150    2.2887449554
  -0.7302818251    7.4624349210    6.9130099201
  13.0697363518   11.0942248011   16.7704303888
   2.2566038168    3.5171566857    5.6274425792
   7.1445263143   16.5910962894    9.6687726112
   9.1184680563   11.3701751405    5.7757406562
   3.6661944497   10.3375889909    1.1719394287
   6.6007588012   12.9904906793    6.9607481448
   3.0247878800   10.2467589933   19.0230558039
   3.8618485268    6.6872784114   18.4809613338
  12.2789224250   13.6383175799   12.2105633965
   2.4309506243    1.6946527918   19.0579291553
   3.3881354399    1.5945843890   14.7403318207
  -0.4048962222    4.4446425243   18.1671880065
   1.4319133040    1.8505359362   16.0436515801
  17.0665948198    1.2407868696    3.9427840382
  16.5509599645    2.5459344150    2.9609343000
  11.4842088442    9.6976274821   16.2398882410
   3.5551855181    7.4596825403    2.3182235695
   3.6029212937    7.5155139115    0.4112174191
   0.4927631795    7.9871834144    5.9067910148
   0.8297109734    4.3411018554    7.5624437425
   1.7671779895   17.0670646964    1.4507551378
  12.9817097919   11.1720417889    6.2153926760
   4.1965969844   19.6415628308   11.6140743682
  12.0810430319   12.4483470983    7.1981734691
   9.7684596355   10.3176963911   16.3384187733
   9.3116704234   13.8312422820    5.1174817299
  14.0223393569   11.3132770506   14.6043578745
   4.1768924327   18.4442265641    8.8233595447
   7.2116226200   14.8428382956    3.2725737912
  -0.7567107835    5.1483643816    7.6972888696
   1.0696724558    7.4732907600    7.5220238392
   6.5942230170   15.4150762992    1.1079440333
   6.2418578543    2.3552382664   11.0013812488
   1.3268785045   14.5775649557    1.4490163779
  13.1441748400   17.5130758836   17.6967732168
  14.0312826738   16.3635049389   16.4891599690
   4.5281089798   15.3124439157   18.4669836251
  14.7619498902   15.3938610189   12.6902196348
   8.6069707419   13.8385298338    3.3155950155
   4.6321302038    2.4796191772   10.3934853610
   3.1163086326   18.2335052161   11.1540671989
   5.5078098356   12.0055148496   17.0883423111
  -1.8089074668   14.4641519404   12.3226942924
  14.1420016984    0.8774826002    3.3511200954
  14.6711198227    1.9505306721    4.6565610790
   4.9183788710   17.0054238899    4.0219171118
   6.9638604381    0.7166984474    7.0070418578
   7.0014207219    0.4951460995    1.3157860101
   1.4164690914   15.0883457148    3.0626841413
   5.8292775168    1.5095348097    3.8614246262
   2.9474659460    1.3564757333    1.8714760833
  -2.0476440207   17.8149082135   11.8022751125
   1.7163134900   12.5274268738    3.1309462264
   2.2720430613   12.3577161033    1.4699985513
   7.1973739037   13.0184026037    3.7389271106
  12.5703505459   14.6479826279   17.5072502073
   4.8925424138    1.6082636353   11.8990237024
  13.4234544876   15.6382099454   18.8510626561
   6.4150594187   13.5609943086   16.7207022740
  11.9461649437   14.4662939639    7.8933741148
  13.4178866582   16.5181448291   10.9172258881
   5.4813778019   13.9461755924    1.5013986686
   2.7079159723   15.7641890091   11.6354822948
   5.8875060500   18.4546906947    4.3255487915
   3.9615687256   14.4654828953   11.8227453005
  13.2142174230   15.4128937200    8.8976142643
   3.8520716690    2.7506009843    2.2062160765
  -1.4248145625   16.0633695268   12.9259244418
   6.3566357532   15.2094847996   18.6785748081
   3.2997893478   11.9297823355    2.6916935151
   6.8536486495    0.7471720256    5.2781961884
   5.3727675590    0.5154096400    6.2153432735
   4.6267430781   13.4818202905   16.5818853302
   7.2503394169    4.0137180257   16.9944641395
  11.6926296718   18.9843765976   12.5858985056
   3.2975016483   14.7208307384   15.3851164935
   4.9159430359   15.0111618472   14.6195253709
   9.9493228345   14.4019725049    9.1244063480
   4.2749104310   16.3781214644   12.3197695061
   6.1601790185   17.5938060640    2.7937148238
   8.1627404385    0.9037050312    2.7537613767
  -2.0458189534   17.5545749451    9.7928848704
  14.2069812723   18.2041897359    4.1593732925
   6.2714452511    2.6023904345    2.4422276313
  12.8560136029   18.0797629509    3.0616818574
  12.6243454517   17.6768826517    4.7767937345
   3.3294207487    1.5907006975    3.4598927072
  11.9244927922   16.1911326682    8.3944387141
  13.6099161448   17.7627435773    9.7043025981
   9.5005365255   14.2702936066   12.1533434515
   1.4029602753   18.4451790935    9.0782450764
   2.7032087513   12.3095973899   11.0627829177
  11.6577223012   12.7566113756    3.3110195867
  13.4681915780   12.3246828269    3.5329530712
  11.4004286612   18.2461819741   10.8697829648
  11.9292513111   16.7589743824    0.5117176369
  11.9946204735   15.3411209506    1.2425037429
   1.4789672242   13.4395403157   11.6468682385
  12.0082220388   17.3120816093   12.1994634757
   0.8543007924   12.0539918079   10.7859896225
  12.8838370377   13.6861545039    2.5647330982
   4.2754001897    2.9333169242    6.0306585001
   9.9348789303   15.8269660626   10.1540418766
  -1.7222346104   13.7995528137    7.6225678271
   9.9903095112   11.1585800894    9.8002779263
   4.8245300165    2.9113345702    7.7363823750
  13.6024997770   15.7785111517    0.9173268337
   5.7907351402    4.8813601335    5.5708207934
   6.0777677275    5.1207111535    7.2065666415
  14.8491907705   11.9579087009    7.6406133832
   4.9617373343   19.5480949543   13.6204344533
   0.6068916506   19.6107270557    7.9403271785
   1.7227889415   18.4570608589    7.4227794578
   8.2183495294   14.1872288165   10.8250550039
   4.2514488220   16.9179157568   16.1477466665
   2.8764440638   17.2948555003   15.1786099613
  -0.1907342543   12.7915358002    8.2612372628
  -0.6782033973   11.0729272870    7.5682884460
  10.7519448380    2.2749398685   14.3085074480
  13.9915235449   15.2000463117    3.4314846234
   5.4029507712   19.2178222970   15.2844615729
   8.9164849544   12.5598628149    9.2137287491
  15.0996533954   10.9371044158    5.6168154732
   3.6964594561   19.3055878742   15.0272453803
  -0.8574837014   18.9848019407    6.0962483202
  -2.1593375245   17.6336846593    6.0608488453
   8.1823313185   11.3566321626   10.2766068062
   3.6179581147   12.6614075825    9.0628426560
  -0.9338127804   13.9859452627    9.3325273238
  14.0346226602   15.3391092010    5.3276111662
   3.6754909883   14.4209561647    9.5936606244
   0.9674906937   17.0401688341    6.2073914144
  10.8750338375    2.4125031728   19.2079826504
  14.5798583421   11.0037589759    9.1142798503
  -0.4690018031   16.0038399991    6.6742079537
  14.8047532555    9.1883007679    5.2414228046
   3.3318556313    5.9152390286    4.6171970402
   7.6888386625    8.5123082964    4.4506373418
   4.8805786437    6.7538038889    4.9907868911
  -1.0576343023    9.8813735127    8.7703347248
  15.4234063532   13.2965847586    5.3816569724
   0.8787574504    7.3305362730    3.6584043512
  -1.4405265699    9.9469394849    5.1068388642
  -0.1387574883   18.2232860743    2.7744843574
   0.9856552436   17.6594255444    3.9142049169
   2.7889155547   15.2076962919    7.7772723521
   0.7972630074    7.8690030806    1.9882768547
  -1.7094043984   14.6713360765    4.7180219065
   4.2670632444   14.2497860844    7.4655030951
  11.4563735154    5.8727264369    4.0583989518
   6.8488397199    7.2002978416   17.1220752976
   3.2219137529    7.1471235659    5.7589731783
   1.1280045110    9.0269898543    3.3075915189
   7.1242978498    7.1454241347    3.3732044830
   7.8242125770   16.3968516135   17.7310150763
  10.9550858548    4.4277817360    3.0366081273
   7.3057408265    6.8344079469    5.1345425524
   0.5345308385    4.1793589621   11.7118869975
   7.7738505249   18.1416738201   11.1895146310
  11.2501515851    9.1381529687    4.0474462702
   8.6597841121   15.2496977108   16.3228479933
  13.7224528921    6.5084731155    7.4957943319
  12.0608819123    7.7649326726    3.4242520703
   9.0911363278   19.2292656918   11.2778987352
   0.2967187104   19.3016163704    4.1164027695
  13.9349369444   10.5223423304    1.9642863968
  13.0505647402    6.1158194401    1.8271046558
   8.6469854848    5.2648381440    2.9672191185
  -0.3596609457   12.2422596331    4.1061777757
  12.3404039636    9.4875290957    1.7657279070
  11.9969280399    4.8140323641    1.0092839707
   9.5329384356   15.8170795347   17.7686308015
   9.1190782637    5.2934825051    4.7128938779
   9.3022441837   17.4843796358   10.4947113307
   2.7460117461   15.2979234077    5.5850305027
  -0.3098689850   14.0270381359    3.6219734805
   9.3044303281    9.4094222362   10.7928626606
  15.0827862621    7.3102444524    6.6137206986
  -0.5354431689   12.7556392954    2.3575937138
  15.1990592981    7.5069226861    3.8282823325
   3.7861283880   13.8497433172    5.0576549740
  14.7198833309    5.6748366630    6.2603545836
   7.6826760003   18.7380127821   13.4305595258
  16.5748190108    6.5031943033    4.0457352366
  11.5477449176    7.5756112408    5.8309604304
  14.2223882319    8.7845579326    1.8247229048
   1.9764401520   13.7441005427    4.6485211079
  12.8931255506    8.7164822941    6.2286475898
  12.1730189945    6.6867208093    0.4860412042
   8.7897875224   12.9246978591   16.9673902235
  -1.0228883836    8.1041005387   13.8703804330
   9.1334686429   11.0588208185   18.7106427837
   7.9298881467   17.2602519277   14.0841198871
   9.9386995836   13.5816242011   18.1024602498
  14.6967944532    6.0364868736    2.0565085339
  10.3741172088   18.1039435608   14.9840754113
  15.9436099147    7.2643241140    1.1047075270
   7.5584463243   12.0280651977   19.1262599439
   1.8266607531    9.8314510090   16.9801818149
   0.5209755830   14.1194826994   16.1352186146
  10.1443930895   17.4535164112    5.7178769709
  10.8173288716    0.8557177969    5.9497559631
   5.2153716357   10.5496047961    8.6034869211
   4.5289937208   11.2397881812    4.7960367072
  11.2302092975    1.1884899689    7.6114846035
  -1.1051664176    9.6747328644    1.0219531164
  15.5664400271   10.7988650752   18.6772611108
  14.3662461889    4.7380623461   12.0626904687
  15.9852669950   13.1640187143    0.8386576172
  14.4327080717   12.7555220242   18.9605197380
  -2.3828043864   19.8540000479   11.9916682051
   3.0228928871    1.3974975313   12.9987005006
  -0.0386632984   17.5128676771   13.1030094953
  -0.1587809078    0.8591562595    9.7506278541
   8.8844972371   18.6110302843   15.8937019610
   4.5620659861   11.5434931169    7.2188603502
  15.4478937400   12.9668993764   14.7903706451
   9.4038798748   18.0050208655    3.6365132442
   2.6174308494   10.0771320141    8.9230408391
   2.7858953092    9.2491798890   15.5671363740
   7.8893093555   18.4233110709    5.2892542153
   0.7303166484    7.3876943778    0.1107064701
   1.3937040945   13.5756649212   14.6778659974
   9.9385931072   11.2444967868    2.9272437537
   2.1804443905   11.1062217034    7.5450057696
  14.1444739073    0.7682293404   14.0750742374
   5.4839896432   10.5082701754    3.5168705909
   1.9014704085   12.4204791902   16.9158190393
   1.6836400144   18.1085700196   12.7894293361
   1.2943132712    1.3826794799    8.8663683218
   9.2489290656   16.2585868796    6.5826794042
  -1.6427961097   12.7422446144   16.2839062472
  15.8402449647    4.1667335877    0.6917784074
   3.4513737394   10.3502994467   16.6092948114
  15.3114752141   11.5297797346    1.1966766686
  12.4579459445    0.4325989039    6.5284742546
   4.2517756484    9.4763754630    4.6363207037
  10.1477822622    9.7948607469    1.6948518187
  15.7333354608    6.1322007157   19.2198661481
   6.9314440521   10.1419171854    7.2001788850
  13.1687149076    2.1293043214   14.1829881798
   0.1979194897    7.7249203467   17.9499604088
  10.6393442839   16.7543615622    3.2784126487
  -1.5841311949    8.3500064268   18.2309627893
  -0.5009982926   19.5359815446   13.8557196867
   0.6265281661    1.9717941662   12.8694669876
   0.5676256030   17.1328132281   11.5772164356
   0.2956063645    2.5327308643    9.6043392633
   1.2328583564    9.6407106838    0.7333254663
  -0.0296420142    4.1561936711    0.5148646060
   0.0686619483   11.6403888317   18.7535506944
   0.2969860558   11.6915261182   16.6631787302
  13.7582969695    1.0908314265   15.6855150752
   9.0939252166   16.7127101271    2.3998157946
   1.7432745177    9.4036084521    7.5681932536
   7.2817717441   17.2080712805    6.3860890190
   5.9147958786    8.8222086719    6.7032340425
   8.6399419740   10.6648838489    1.7895364478
  -1.7785662894   14.3724353039   15.3875416044
   5.0665436058    8.6323574379    1.3682933267
   8.4522018262   13.8823558841    7.1075117027
  12.6748542724   12.7297372657   14.0340467125
   3.3729330515    1.7491127169   16.8700192931
   1.3111345224    3.2599892417   18.6902020116
   0.6648747560    5.8787360022    6.3049076509
   4.5357022182    5.0140554678    0.8166677832
   0.2009766950    3.4955443512    4.8954598139
  11.0141699674   11.5175846175    5.8029900723
   5.4202452234   17.5321099895   10.0697572581
  16.6154246005    0.8093468825    1.9609376367
  11.1366947549   11.7430889355   16.3689068633
   3.3475490166   16.1416089197    0.4645033472
  12.0565513740   16.8515706520   16.0898699966
   5.3466869592    0.6328487827   10.0544279051
   3.0765849663   13.8806191514    2.3665573080
   7.5706148066   13.6008363953    1.6667904082
  12.7253324079   19.5633491207    4.7248445638
   5.3702903519   13.4000451776   18.6241390826
  -2.0316214530   15.9327006035   10.8882861555
   4.3563211495   18.6648415073    2.8633719674
   4.8919181723    0.8998912759    2.1595091675
  11.3798355765   16.0408400515   18.5932999287
   6.3198138233    2.5419028562    6.2273901083
  13.4376036058   18.5500206082   11.4969284989
  11.6644042285   14.6871613488   10.0758841464
   2.9063957372   15.1257379690   13.4819696690
   4.5416832007   17.6458506688   14.1734783898
   9.2880545655    3.2015639191   15.5870362576
   9.0108385634    3.1752397401   17.9458030766
  -0.1019835352   17.6042578466    7.9695075809
   9.5287371512   12.5602722140   11.2093562693
  12.8350123469   13.9369441338    4.5518284899
   1.8324446814   13.4766314077    9.5771151018
  -1.9948533982   12.4260510041    9.3438381056
  15.9411725204    9.4909836916    6.9973863203
  11.0569401709    2.4987048110   17.1261395082
   4.1627528644    5.4764726422    6.5898213873
  -0.9331343888   17.5826342810    4.4406911720
   9.0163982375    7.1175355598    3.9958760110
   7.6582700888    6.5167499778   15.3447364951
  15.7304882931   13.1883444157    3.4367460694
   2.5098684094   13.5579776164    6.7160501801
   8.9297150160    7.4432436848   11.5936297214
  13.3814958957    6.8117419937    5.3701403922
  -0.8276907845    8.3369111417    3.2492783308
   0.0829924539    6.2191828926   12.1733263039
   8.0522688690   14.4073383450   18.1550123242
  10.9260374643    6.3535390988    2.1431221053
  13.2799267351    9.4628770898    3.7474010018
   9.2905226183   17.6038029568   12.5726928415
  16.1741994540    4.9924670661   11.3823370996
  15.6967365351    6.9129408955   12.6161029709
  16.8004455174    5.4746471644    1.9086043392
   1.9373260311   11.0735166423   15.3747098349
   9.5435053579   19.9542597025   14.4962471040
   6.2507179904   10.3381977281    5.3967931574
   8.3634930823   18.7379340173    7.2459007444
  10.1892877576   11.6945900207    0.8462531667
  -0.0611630121    9.7434118948   18.1573451147
   0.1896734717   19.1172567923   11.8828438861
   1.5095701277    1.5941614843   10.8951827668
  -0.6762425040   11.5245793543    0.4223557610
   9.0355112625   16.1143159933    4.5527074709
  -0.4215294095   12.9314536127   14.5740276485
   3.7868693693    9.6524290325    7.3103633019
