B2 C140 Ca1 F48 H298 O66 
1.0
1.7923205872862738e+01 4.8116324662821514e-16 9.6633240255111565e-17 
-2.5141000637095030e+00 1.9416968347602214e+01 -3.0185105676016889e-17 
-1.0588347866817800e+00 8.0182170987049672e-01 1.9453140195963528e+01 
B C Ca F H O 
2 140 1 48 298 66 
Cartesian
   9.7682142553    2.9922679068   16.8164288864
  -1.2632423734    6.0178640216   12.1214866516
   0.0302006323    0.8501064117    1.6949484005
   7.1671411210   13.8051948813    6.5447704141
   5.1188558628    6.2288883644    1.3382138107
  12.3893911220   12.6562067527   12.6560108410
   3.6032752229    2.3168300450   15.5564396063
   1.6288330167    1.8659852444   18.3967872726
   1.3600561753    2.8174679930    5.4550151222
   1.8750561414    1.4092061561   16.9778562172
  -0.6185665628    3.8774190744    5.9490886510
   3.1009042163    5.9318058509   18.9054913763
   1.7960168591   16.2043957988   18.8046337339
   0.2284749267    3.6236621386   17.7116014865
  11.8383580567   15.6090057687   15.3215227368
   4.4355069592    9.7425557174    0.5938462425
   6.4313998773   17.1605709006    9.1514604452
  12.6165776748   11.7928724758   16.1503865003
   9.7545306588   11.9598715680    6.3631772707
   9.5001850557   13.3919405368    6.2056694734
  12.9521542975   11.4781844995   14.7050732601
   4.1753259318    7.4061311662    1.3516569449
  10.8239245873   10.3357104545   16.7242939489
  12.0443250670   11.4472058552    6.7318997919
   0.0280396313    4.8319738460    6.9661404003
   0.3517936151    7.1830494144    6.7121195874
   4.7034243514   18.6700170084    9.7350185579
   2.5745031357   16.2735046683    1.6615688622
  16.2752958168    1.5289095565    3.2349784622
   3.6801172742   19.0531175147   10.7521076552
   2.0262038292   14.8743011191    2.1711965058
  13.0792896337   16.6492852382   17.0841650438
   5.2787085748    1.8168171083   10.8644354401
   7.5647314807   13.7877357422    3.0274694584
  14.9751929935    1.2239241411    3.9318986388
   6.4405623157   14.2119386440    0.9981754334
   5.4130684108   14.7487821769   18.9703157552
  -2.1996911720   15.4353598088   12.2732467975
   2.4319892593   12.5759329306    2.4255472461
  12.6748799055   15.5978527954   18.0650498059
   5.4845040715   13.0886225811   17.2564138601
   5.4195007898   17.8390612995    3.5312557091
   7.1471508423    0.5146567883    2.4167654141
   6.0708218241    1.5219851259    2.7692318034
   3.7479937756    1.6683027936    2.5152069427
  -2.4740091863   17.2579831885   10.8062924988
   6.3496263244    1.0843686112    6.1585098706
  12.1444318730   15.1866806826    8.8037119817
  13.8925744370   17.4809511196   10.6996401591
   3.6025094369   15.4591434901   12.1953181132
  13.1593692261   18.3559754526    4.0632472983
   6.6609473310    2.2889708749   18.3237453506
   7.4441510126    4.5752854881   19.2099658287
   7.5997156947    3.4876033996   17.9991092110
   3.7695275120   15.3234597099   14.6317765055
  12.0235703026   18.2310808935   11.7948732514
  10.1770679505   14.7286898854   10.0726780955
   9.0454358466    2.8263535516   13.0439199468
  12.5400338590   15.7530022098    0.4774870944
  12.6816146822   13.0672547736    3.3985744589
   9.3408043188   13.9733642983   11.1507206850
   5.1668405714    3.1895644023    6.7041269819
   1.7271561311   12.7813414167   10.8175672182
   3.8155247075   16.7674433826   15.0999817617
   0.8704531787   18.4835238093    8.1035140479
  10.0338231251    3.0615854008   14.2708594042
  11.0346748154    4.2204540300   14.0696765387
   5.3703145213    4.6362687499    6.4978954224
   4.6000304484   18.9459186075   14.6022831811
   9.0340426477   11.8369066737   10.0403796897
  -1.1820784327   13.2508826070    8.5301638033
  15.3116906250   11.4158564493    8.4861531927
  -0.0724307349   16.9202744857    6.6841498833
  -1.5328014852   10.4288074338    7.9283709554
   5.3243725784    6.7466469881   15.7429700307
  14.0163924878   14.6876213833    4.4633073840
  -1.0489017074   17.8492900915    5.8406214367
   3.1212605543   13.6253044840    9.0285009379
  15.5745705474    9.8763396160    5.7434868197
   3.9111232734    6.3124812804    5.4548034973
  11.5533387918    2.1831333793   18.4357121515
   1.8712710502    5.0327910045   13.3348487769
   9.2380410642   20.0566419874   18.4841244598
  15.3623524405   13.9479187152    4.5386311328
   6.7674270521    7.1911277772   16.0561122959
   3.0829932225   14.2486449369    7.7045746094
   7.6987649932    7.3516110923    4.2477910944
   0.1356455574   18.2264762715    3.8060902918
   6.8855462210    8.7639582458   15.9074928726
   9.7387475791    7.7698435382    9.4473175185
   0.5659969801    8.1177504466    3.0554713129
  12.7058242773    3.1821106740   18.7828923203
   1.9093911353    5.6353633189   10.7094016014
   1.0952031768    5.1189868490   11.9111641836
  10.7121787373    5.5125811362    3.2931081730
   9.3196536463    5.6926218053    3.7572734519
   8.5176405860   15.5673421827   17.3705884299
   8.8495599243    8.3495650251   10.5766950691
  12.2269347076    8.5354044479    4.1770823661
   8.8159797374   18.0634218749   11.3066100150
  -0.7977250332   13.0660699912    3.4088003097
  14.2277216121    6.5771931940    6.4869335951
   7.4252815031    8.6262301052   10.0490790292
  13.3486044969    9.5735830903    2.2043887953
  12.0565211365    5.9188327957    1.2846397719
   2.7730376479   14.2289239986    5.3246260615
  12.4847761744    7.9119661592    5.5202109834
  16.2340501208    7.1317468708    3.2987247501
   8.5364663025   18.0424158163   13.7386039506
   8.9156870784   13.1820969752   18.0320671284
  14.8396007459    8.0101550440   14.6476586470
  15.8798754922    8.0438755321   13.4879189562
  15.7908882097    6.5077777707    1.9820403431
  14.9068649025    3.0119236432   11.0204757624
   8.6653809861   12.0785802260   19.0487953548
  14.9142157084    4.5568138906   11.1709548920
   9.3739048500   18.5342243598   14.8930469209
  14.2068135789    5.1788005023   10.0001033519
  15.8172680832    9.3647366028   12.7208405386
  11.3711488696    0.5673030312    6.8162773406
   2.4950590254   10.0013165497   16.2295385184
  -0.7512426453   10.1710981249    0.1013905958
   0.7135546672   13.2263710175   15.4031651355
  15.9313175694   12.0907590826    0.4740681942
   4.9088455701   10.4746461553    7.5261262803
   5.0752329566   10.2981377320    4.5835154676
   9.1842171462   16.8360166579    5.7499542131
   8.0514714648   17.8337358068    6.1683452480
   1.2026319092   11.9988000790   16.1415795099
   2.2757227884    0.5448612183   12.8559940798
   1.0162705231    1.1400247556   12.1643302519
   0.6800613227   17.8619369917   12.3650443092
   0.6880033589    1.5877644051    9.7589651947
   9.7014914297   10.8166751885    1.8915619478
   2.5704355711   10.0722501606    7.9077360381
   6.0687551125    9.9224457492    6.6938382083
  13.3191574864    1.1410596326   14.6224280333
  -0.4894776383    8.4053903853   18.5095313746
  16.8454264510    4.6661963743    0.6832791809
  -1.5557185517   13.2545117475   15.3146426173
  -0.2573149078   10.6758564500   19.2037942245
   9.5672195974   16.9133779087    3.4413692813
   8.5163175195    6.3987847032   13.2866237803
   6.4024151764    1.6093151090   17.2029820299
   8.3260842661    5.5721322591   18.9566468937
   8.7500378037    4.0938669150   12.5156385901
   7.3407495057    1.4140015379   19.1364896023
   8.6655578557    3.2625379843    1.0583859141
   5.4859751504    2.6290604043   18.8719381130
   6.2933097862    5.2219054434   19.3121878897
   7.8751276095    2.3912756358   13.5077968681
  11.4891428162    4.1027544135   12.8385864666
   9.6434271246    1.9577241646   12.2422912150
  12.0739326010    4.2308493505   15.0304560603
   4.3116979465    7.2926185910   16.3851580930
   5.1988755629    5.4263015575   16.1728092043
  10.5379326913    5.5105614024   14.1260904047
   5.0616050238    6.7965534085   14.3716333847
   2.6571545245    3.9505252356   13.5004149703
   8.1277111270   19.3796497598   18.0994456010
   2.5130817456    6.1623061237   13.5571193196
  11.0368220514    7.8244305589    9.8845784923
   1.0782116756    5.4659522418    9.6723935338
   7.0080486595    9.1444114231   14.5683797489
   7.8874358543    9.3293526935   16.5397271865
   0.8330297601    4.9169032076   14.3645056682
   9.7934525741    8.3241817798    8.2205832009
  10.4501108420   19.0538606751    0.3926706152
  13.7573324318    3.1819390784   17.9324247017
  10.3081883772   19.5828567352   17.7482112046
   3.0242261754    4.9354791098   10.5115024019
   9.2055155074    6.4272370752    9.2936854319
   6.6494757146    9.1140341751   11.0924737764
  14.2422660933    2.0588783539    0.5551497228
  12.1882195236    4.4596966727   18.7864854945
   5.6831046954    9.3510828321   16.2643608994
   2.3013028315    6.9505420626   10.7983070382
   6.7846860276    7.4900133255    9.5038699884
  15.0834060452    8.9719199791   15.5770868401
   7.4632563429    9.4975298225    9.1223688498
  13.7128015912    2.4083715861   10.8345013694
  13.6084365813    8.2661773342   14.1389321604
  14.7623453887    4.7777860519    8.7704152435
  15.7289980415    2.6686133288    9.9733461556
  14.5588551180    6.5604422758   10.0778847407
  14.9276679259    6.8098049913   15.3272306744
  -1.7091011373    9.1502978670   11.4024116258
  15.4126631381    2.4036390357   12.1055969043
  -1.3226029896   10.3879121055   13.1958618065
  12.8711516301    5.1746604415   10.0897305275
  14.5954864401    9.9831894958   12.6053428870
   0.8053975413    1.2728809498   18.7978130705
  12.9377439760   12.7935994836   16.4783865464
   1.6267303856    2.0672198144    4.6725611020
   5.3722279013    5.9499710546    2.4080574519
   6.1261578289   16.9596861815    8.1179550770
   9.6030971059   11.6714003454    7.4041242749
   6.1003522719    6.5467360784    0.8015955591
   4.6425495430    2.6075928766   15.5008499648
  16.4844010984    4.4248709200    5.4399863076
   0.4881652287    1.7641958408    1.2659215110
   0.7603544886   16.4598666271   18.5841458562
  -2.2137433265   19.3874106985    1.0506697320
   6.6843859967   14.7533597783    6.9018536651
  -0.2231293573    2.7230905843   17.4878516968
   0.5262556152    0.6602488493    2.7627033987
  11.4269464663   12.0819839653   12.3852912502
  -0.7424038382   19.7574778395   17.0029324409
   7.0765432349   13.8573381706    5.4640161396
  12.7859088600   15.3920587601   14.8185312500
   5.2836641842   10.5141960986    0.3413661179
  13.1113560341   12.0835499118   12.0883566730
   3.0316961127    4.9605561369   18.4379172064
   2.0794779173    6.3671539142   18.7528271206
  10.8843067353   10.3024426078   17.7834410109
  11.9729038371   10.7130034203    7.5466759611
   1.0462307801    2.2114309797    6.3178089356
  16.8333646208    3.1214302523    6.5868005217
  10.4955049124   13.8629096778    6.5968601548
   2.8941980398    3.1385952737   15.3281610122
   5.3888448324   19.4929788452    9.3261776091
  11.6781624313   14.6793413138   15.7855713780
  12.4930731332   10.4795899844   14.4128092505
   1.9852336578   15.1395278347   18.9717569584
   2.4013000150   16.4799414769   17.9374074189
  11.0964009586   15.8455632690   14.4585495962
   7.1057788496   18.0756393718    9.1356751949
   0.7817696410    4.0476131318   16.8033138614
   3.3568276627   16.5700427682    2.4579472645
  -0.6504670778    7.5065771866    6.9920592019
  13.1455288543   11.0868521062   16.7547474133
   2.1948719027    3.5215335464    5.6547797557
   7.0967860426   16.4788301808    9.6454053726
   8.9495481786   11.3616621739    5.7209218762
   3.6847687077   10.2870655638    1.1697545576
   6.5622623996   12.9322265460    7.0061134005
   3.0303547601   10.2802222999   19.0371689127
   3.8317100387    6.6632068499   18.4322205652
  12.3960570708   13.6300747793   12.2135373420
   2.4352887371    1.4773488230   19.0591808884
   3.3303173016    1.4566331703   14.7514305847
  -0.3927993014    4.5141365581   18.2687497050
   1.4089428583    1.8435897355   16.1173730928
  17.0935022799    1.1881392428    3.9418150435
  16.4874965457    2.5655315792    2.9707797196
  11.5386138365    9.6366386216   16.2609053449
   3.5598292581    7.4520340212    2.2439581421
   3.6271486305    7.4690474429    0.3698713225
   0.5837282388    7.8895486035    6.0000977597
   0.7648658918    4.3005603716    7.6059818366
   1.8460618954   16.9954635833    1.4865867928
  12.9679408370   11.1381698112    6.2126577221
   4.2017648492   19.5704756071   11.6122678623
  12.1192162545   12.3970736622    7.2272964708
   9.7992931596   10.2110932871   16.3919754679
   9.1667644274   13.7791226369    5.1737949901
  14.0819272419   11.2323309728   14.5707420691
   4.1269215672   18.3471140350    8.8254382729
   7.1671058104   14.7283409246    3.2645577104
  -0.6487469985    5.2368849610    7.6852076960
   1.0128464781    7.4258034276    7.5003452957
   6.5739771788   15.3145433582    1.1351467526
   6.2430909689    2.3723979328   11.0144765635
   1.2970295872   14.4681882664    1.4464968148
  13.1442496629   17.5437872103   17.6856355735
  13.9773926532   16.3374486228   16.5244286513
   4.5054211957   15.3459938273   18.5372927188
  14.6478176438   15.3924881871   12.7141241061
   8.6263657226   13.8243091082    3.3398215204
   4.6129581716    2.5446115727   10.3212224609
   3.0855929118   18.1583788250   11.1187682541
   5.5837945769   11.9918604055   17.0405758395
  -1.9227828154   14.4110741053   12.4138916497
  14.1478206523    0.9111129843    3.2642321193
  14.6293487972    1.9800984383    4.5718788293
   4.9215860193   16.9606384323    3.9758726772
   6.9797721826    0.8310929825    7.0331759066
   7.0100033793    0.4823774586    1.3546683232
   1.4052441440   15.0632744774    3.0170597832
   5.7851252699    1.5162224114    3.8756743222
   2.8993886766    1.3041161150    1.8520906603
  -2.0738647311   17.7354569915   11.6413665196
   1.6580405815   12.3836787477    3.1545582450
   2.3108989939   12.3491601275    1.3132635861
   7.1044424032   12.9644606620    3.6879431913
  12.6193156913   14.6648858758   17.4789269202
   4.8907527334    1.5250674050   11.8773581615
  13.4047728011   15.5813131186   18.8624578757
   6.3875730714   13.5478026183   16.7588555201
  11.9694467344   14.4505920504    8.0510511959
  13.4561336046   16.4481401460   10.9108219979
   5.5099720906   13.8948516221    1.4979311733
   2.8101624638   15.7495452806   11.5441062660
   5.9592630779   18.4684533876    4.2797030349
   4.0041438945   14.5284741505   11.8125305569
  13.2608988180   15.3437587299    8.9227672545
   3.8255486105    2.7618952122    2.2675922049
  -1.4759392906   16.0178390201   12.8891868191
   6.3505829518   15.2365069296   18.6802259849
   3.2370384027   11.8841140306    2.7021259458
   6.8928977376    0.7376572425    5.2804596430
   5.3885724933    0.6006310126    6.1688376188
   4.6922657935   13.4135877058   16.5887383495
   7.3057936325    3.9333357008   17.0788010494
  11.7107611522   18.8899847094   12.5292967170
   3.3547934550   14.7113069887   15.3752850486
   4.8921827976   15.0340864142   14.6142898267
   9.9479040580   14.3567720520    8.9792681948
   4.1941176021   16.2910078620   12.3516494294
   6.1992030529   17.5132018100    2.7584815689
   8.1312493346    0.8548325632    2.6773819895
  -2.0479784058   17.5547913981    9.8681430388
  14.2577536041   18.2269485879    4.1571374866
   6.1338721112    2.5503952497    2.3807025704
  12.7786350597   18.0832603723    3.1245665173
  12.7077554732   17.5986680045    4.6615349495
   3.2933793667    1.6612413291    3.5444908087
  11.9033644401   16.2067304582    8.3653260600
  13.6157420338   17.5687552094    9.5726287841
   9.5527692941   14.3791268629   12.0968026538
   1.3431671731   18.3905795984    9.0857375785
   2.6654282812   12.2072201273   11.0147860746
  11.6816252308   12.8503438929    3.2862504355
  13.3682048934   12.2405075946    3.5489859401
  11.4255572627   18.1574994193   10.7680799434
  11.9811793584   16.7623624049    0.3815792340
  11.8956345173   15.2834917700    1.2092709647
   1.5138586593   13.4054363057   11.7017638239
  12.0098070577   17.2328756567   12.2406698641
   0.8686958908   12.0849959493   10.8680824500
  12.9320921620   13.6910534881    2.5057805424
   4.3272712941    2.8951031599    5.9603367230
   9.8933341339   15.7771298887   10.2319158402
  -1.6247112718   13.8178954406    7.6888261899
   9.9141363670   11.1789888307    9.8087591122
   4.8544984434    2.8037244865    7.6586192988
  13.5274431891   15.7442973819    1.0014519287
   5.7726391371    4.7933899877    5.5124029308
   6.0576486173    5.0286070653    7.2121351899
  14.8760106406   11.9976729195    7.6031576263
   5.0100780605   19.4935145414   13.6548211606
   0.6009370274   19.4710832234    7.9529578708
   1.6875082425   18.3409618902    7.3938973610
   8.2413269121   14.1087955067   10.9038624864
   4.2313341195   16.8280448334   16.1353344073
   2.8486824628   17.3125915464   15.1031783876
  -0.2103869831   12.8287628185    8.3023595999
  -0.7081270010   11.0397017635    7.5909085078
  10.7733097909    2.2115758538   14.3247658083
  14.0390680009   15.1274114355    3.4388841444
   5.4409382468   19.1409815495   15.3823178043
   8.9419185182   12.4613348467    9.2179688651
  15.0945326446   10.8556908194    5.6049540217
   3.6093074288   19.2389527291   15.0449312210
  -0.8069699044   18.9548895871    5.9192870390
  -2.1169831490   17.6547707458    6.0961132924
   8.0818638239   11.2669719015   10.3341623854
   3.6646606141   12.6667934753    9.0322143906
  -0.9177690127   14.0071270784    9.2654459981
  14.0071207675   15.3261871633    5.3758139990
   3.5473111098   14.4957872884    9.5070622303
   0.9529125010   16.9451192841    6.3440581128
  10.8327106605    2.3758446995   19.2697919911
  14.5453302426   10.9518999961    9.1111276646
  -0.5769491892   15.9279802917    6.7289222029
  14.8176982902    9.0817867461    5.2097401228
   3.3888841875    5.9141336588    4.6393109235
   7.6201407710    8.3855288753    4.3712811862
   4.8781233621    6.7090504999    5.0177721347
  -1.0147140234    9.8765515517    8.7885429311
  15.4096284613   13.1769113896    5.3915550986
   0.8516862013    7.2603524182    3.7192151623
  -1.4651631999    9.8414280894    5.1159761477
  -0.1410407203   18.2090111970    2.7059481783
   1.0397045949   17.5928522721    4.0703739149
   2.6348734313   15.2979241290    7.8824143012
   0.8353818713    7.9018416526    2.0620912773
  -1.7228287469   14.6552926440    4.8450371329
   4.2689371171   14.3452443947    7.4745890497
  11.4687099060    5.8849826021    4.0020832127
   6.7623133085    7.0759770224   17.2182591488
   3.2430273861    7.0513297485    5.8000622028
   1.2069461107    8.9599545932    3.3069979315
   7.1036530734    7.1411820642    3.3433069071
   7.9321396618   16.3280485928   17.7019111198
  10.9222066282    4.4681880111    3.0010329776
   7.3277806651    6.8239732798    5.2062792765
   0.5561991591    4.1930749162   11.6492416682
   7.7004756115   18.1265867373   11.2241350786
  11.2936400487    9.1596235147    4.0227232143
   8.6126223341   15.2279645248   16.3521267533
  13.7716940006    6.6278838078    7.5043482483
  12.0429288085    7.7368086461    3.4069916802
   9.1597266937   19.1841395819   11.2371788707
   0.2516937725   19.2590374003    4.1728826950
  13.9554271054   10.4769244245    1.9768353732
  13.0412737300    6.0255474317    1.8365388952
   8.5779624922    5.2423835712    3.0160802793
  -0.3857239216   12.2456481424    4.1266183968
  12.4317772306    9.3697509442    1.7609137970
  11.9685048362    4.8406833899    1.0293031749
   9.4984336505   15.8370864734   17.7395234057
   9.1083393620    5.2560744912    4.7882748576
   9.2283281240   17.3927306942   10.5089196648
   2.7591681070   15.2396652471    5.5143294306
  -0.3315230874   14.1142137587    3.7233050781
   9.2698219384    9.4047776263   10.8247601297
  14.9813356662    7.3189453393    6.6001378730
  -0.4047897834   12.7231943918    2.4946246446
  15.2757778780    7.5045249319    3.7826716468
   3.7805797996   13.8041565122    5.0291203119
  14.6535827663    5.5983457467    6.3320221131
   7.7056247582   18.7286664155   13.4637275665
  16.6332383432    6.4098329054    4.0201946549
  11.5517675279    7.5996386940    5.8956609497
  14.2024903810    8.8299382666    1.8544254650
   2.0162971888   13.8203195638    4.6234765847
  12.9283864623    8.6857823847    6.2049097797
  12.1678066179    6.7195734091    0.4461871746
   8.8235215314   12.8741453753   16.9549541392
  -1.0114871930    8.1774632151   13.8865496587
   9.1080433065   11.1156034646   18.7351749690
   7.9194883999   17.2404474432   14.0405499956
   9.9036443014   13.6035807529   18.0438517157
  14.7910226854    5.9601087859    2.0510658222
  10.3343297292   17.9337739558   14.9860794764
  15.8963715995    7.2635550953    1.1831535666
   7.5666724512   11.9300013305   19.0420056773
   1.8028030023    9.7560715429   17.0162488469
   0.4310087519   14.1174356959   16.1196332931
  10.0431209728   17.4102047702    5.7619115731
  10.8161082435    0.8321526723    5.9327733102
   5.1745735948   10.5087790072    8.6163348303
   4.5806931850   11.1774956530    4.8157382675
  11.3257328974    1.2575221454    7.6884333641
  -1.1043117864    9.6439874647    1.0499368675
  15.5558493933   10.7640079772   18.5811848021
  14.2320528702    4.6923753901   12.0288489842
  15.9896227152   13.0879592951    0.8172642597
  14.4318560083   12.7348027353   19.0223588542
  -2.3478794116   19.8888283518   12.1548975492
   3.0269452899    1.3128626375   13.0562312032
   0.0021706516   17.4559066287   13.0999763404
  -0.0970426780    0.8272475454    9.7706156922
   8.7115866558   18.4781867852   15.7718462136
   4.5586549982   11.5140700722    7.3072978270
  15.4665948009   12.9277386141   14.8447417151
   9.4556909120   17.9635656396    3.6620592460
   2.6440255742   10.1359467081    8.9599067240
   2.7261138433    9.1664036287   15.5526069455
   7.8285246596   18.4616041508    5.3114888081
   0.7170976231    7.4056322477    0.1786086324
   1.4228197486   13.6214595899   14.6891153024
   9.8826411849   11.1340571531    2.8195328938
   2.1361396343   11.0288648242    7.4763018628
  14.1660279753    0.6636239655   13.9061457534
   5.4453817616   10.4877646178    3.5232252744
   1.9695809854   12.4193514345   16.8786254409
   1.6594974158   18.0526917118   12.7811734516
   1.3495585681    1.3365945589    8.8360952070
   9.2214004717   16.1639695587    6.6837985804
  -1.6004365562   12.7379689541   16.3552727686
  15.9085455785    4.1385284695    0.7738023932
   3.5163910658   10.3147060381   16.6362378260
  15.3463359693   11.5316635892    1.2129190260
  12.4044520847    0.4271520126    6.5857272741
   4.3767532166    9.4780071496    4.4468538052
  10.1064357299    9.8446906698    1.8053118627
  15.7656691669    6.1047170497   19.2033249060
   6.9963407216   10.2309149623    7.1743906167
  13.1476185133    2.1677869963   14.2089710602
   0.1841142977    7.7322373625   17.9660391418
  10.6122507312   16.6827648979    3.2432113310
  -1.5385653945    8.3469253658   18.1459719312
  -0.5684016542   19.5507166281   13.8599738653
   0.6576837698    2.0491483681   12.8309507129
   0.5905797995   17.0207885491   11.5387459511
   0.2292006479    2.5325717795    9.6094505612
   1.2783379996    9.5577182105    0.7730477963
  -0.0942654546    4.2526436058    0.6347766087
   0.1663805595   11.6296492284   18.7478912780
   0.3846117497   11.6092860816   16.6512696528
  13.7794952201    1.1121719362   15.6604549447
   9.0359837752   16.6956419574    2.5378064137
   1.7303151295    9.4005125645    7.6077912524
   7.1822337243   17.1636230281    6.4014906606
   5.9534814095    8.7814309490    6.7091752943
   8.6936866877   10.6464952849    1.7559577652
  -1.6984107183   14.3548554885   15.4513527016
   5.0544795356    8.6200282474    1.3698921691
   8.4485814620   13.8424953697    7.0978880539
  12.6522295576   12.7155019895   14.0019316722
   3.4323758144    1.7264373801   16.8160832302
   1.3315195920    3.2732895080   18.6527749622
   0.6984955634    5.8901466875    6.2921485312
   4.5100118474    5.0239255556    0.7980577247
   0.2128504214    3.4969778953    4.8891303029
  11.0552327892   11.5145084772    5.7627598956
   5.4245004002   17.5343141025   10.0786364911
  16.5993564010    0.7896273722    1.9709111555
  11.1127593041   11.6930456230   16.3621507289
   3.3627517967   16.1205370591    0.4267258672
  12.0648547693   16.7971881535   16.0694887124
   5.3539875985    0.6415474242   10.0804924087
   3.0754527960   13.8981655771    2.3709394464
   7.5448577781   13.5847659242    1.6897497747
  12.6980444316   19.5215273863    4.7364189886
   5.3588045105   13.3725701599   18.6322068256
  -2.0270275272   15.8973928321   10.8927968392
   4.3272648003   18.6533847432    2.8664423148
   4.9060252963    0.9031002300    2.1597736148
  11.3929425781   16.0012677313   18.5818269170
   6.3326138624    2.5443616403    6.2084636761
  13.4518138281   18.5077267831   11.5243473344
  11.6330753915   14.6834004380   10.0789114233
   2.9569932446   15.0989056682   13.4469852982
   4.5222280997   17.6435403051   14.1680665856
   9.2957483044    3.1783311901   15.5891102749
   9.0288840776    3.1465621324   17.9555213813
  -0.0870542683   17.5538793342    7.9932811060
   9.5046917209   12.5147541382   11.2573796087
  12.8236720148   13.9234202446    4.5550271738
   1.8017650123   13.4577090565    9.5723927842
  -1.9860933908   12.4075348625    9.4014470598
  15.9251332509    9.4710146467    7.0263812920
  11.0658540086    2.5002662861   17.1217468179
   4.1844230172    5.4609268462    6.5827323962
  -0.9544446064   17.5451256378    4.4621570544
   9.0187042988    7.0861999703    4.0079558251
   7.6918948508    6.4928120139   15.3578287484
  15.6994246751   13.1304328269    3.4265593621
   2.5105912763   13.5242172959    6.6750200032
   8.9234990112    7.4333039410   11.6093174938
  13.4065352213    6.8124069055    5.3496962556
  -0.8737431854    8.3671002959    3.2775902934
   0.1026871910    6.2082845231   12.1998028979
   8.0404401983   14.3561254737   18.1426661178
  10.9098232606    6.3737845576    2.1304157081
  13.2640405799    9.4257352012    3.7153559939
   9.2777816761   17.5722968684   12.5962190749
  16.1878333517    4.9925222486   11.3884847958
  15.7020874154    6.8966786816   12.6306587585
  16.7860291330    5.4216355614    1.8750864045
   1.9294344842   11.0520578273   15.3620492086
   9.5407161940   19.9286298519   14.4483512316
   6.2440762706   10.3373950834    5.3840528857
   8.3543228657   18.6896663737    7.2624043997
  10.1668959676   11.6966572617    0.8699853563
  -0.0588452412    9.6957397105   18.1795475911
   0.2000113889   19.0965523002   11.8860329746
   1.5007712185    1.5791157041   10.9173977154
  -0.6904393767   11.5118734116    0.4018143493
   9.0348247239   16.1072972217    4.5412709788
  -0.4349331243   12.9113200864   14.5419434337
   3.7756429548    9.6517444179    7.3125428957
