B2 C140 Ca1 F48 H298 O66 
1.0
1.9036171796240250e+01 6.0814941609176815e-16 -5.9195236673003315e-17 
-2.7084154938440772e+00 1.9782197172260819e+01 3.4296326880111110e-18 
-1.0398103960264573e+00 5.5555839670336497e-02 1.9169573705081071e+01 
B C Ca F H O 
2 140 1 48 298 66 
Cartesian
  10.4091823190    2.2413391557   16.6673710980
  -1.1575313664    5.6085625814   12.0103846049
  18.7199550281    0.1531752547    1.2553517710
   8.0139248472   14.3968303057    6.8542950810
   5.7425833275    6.6806743874    0.9344476166
  14.2396841001   13.3377785149   12.5890470238
   3.9980750291    1.7005348069   16.0637934293
   1.9554375137    0.2830606275   18.7302054018
   1.2091798549    2.5537727631    4.6399027388
   2.6996834586    0.2060468081   17.3800111932
  -0.6911093476    3.3735149844    5.8706470999
   4.3274852120    4.8775123388    0.4475731779
   1.7671038391   15.7737830684   17.6246091994
   0.8378742222    2.4653001998   18.4812834041
  12.0065115122   15.2390125755   15.4965701231
   4.4891159007   10.0580806211    0.1715093387
   6.4031185485   16.7457014142    9.2115819528
  14.0619849231   11.7263764970   15.7463432870
   9.4946822227   11.6090662341    6.4386026607
   9.9975078468   13.0892742554    6.2452490083
  13.8783187743   11.8372952564   14.2423003399
   4.7831977781    7.8079353897    0.7040632330
  12.1337878425   10.8456525233   16.7872174829
  11.5005309534   10.1931341687    6.6585265001
  -0.2057038679    4.4104451221    6.8089886526
   0.0935797918    6.7763870029    6.7436258004
   4.7246765509   18.3246459381    9.2668347587
   2.5105004036   16.2927929165    0.6985953150
  17.1553609389    1.0842701176    2.8903712397
   3.8384127540   18.7928644633   10.4693974514
   2.2101524473   15.1993738574    1.6427416594
  13.6475166646   16.4040015196   16.9973196314
   6.1049556095    1.4118138191   11.0774534159
   7.7203267486   12.9803722987    3.6657081302
  15.8050504748    0.8316276382    3.5721792969
   6.5142692091   13.8035829298    1.8292388689
   6.5179339055   14.1042225281    0.2813787759
  -1.5344308565   15.0724116251   11.6237344037
   3.3914449363   13.4862771033    3.0286915785
  13.6292858669   15.2516337905   17.9582114994
   5.3381862872   12.8872532496   17.3169296657
   4.7544031058   17.4208443273    4.1201539812
   4.5837143579   19.5802900065    3.1940866048
   6.7782877320    1.1880636504    3.2286865206
   4.9432486953    2.4565999187    2.4417661078
  -2.3893270759   17.2380786762   10.8232151794
   6.2922865948    0.7220060402    6.7600504471
  12.9978538042   14.1972909915    8.5034742923
  15.1806464083   17.3398827864   10.5868633676
   3.6127788857   15.8588390137   12.0303449653
  13.4811499323   18.1008580981    3.8759124927
   7.2434024135    2.3470970565   17.7840911296
   8.4670298014    4.4183669591   18.7713256623
   8.3066842398    3.3644465823   17.7271737034
   3.9647585306   15.4186966713   14.3386208821
  13.1887914844   18.0096172308   11.5230787948
  11.2296841649   15.0957602128    9.7539959210
   9.4712352089    2.4182211974   13.0268281175
  14.0156793592   16.2460168949    0.9372158087
  13.9356845093   12.8438957596    5.1820470506
  10.6367638638   14.5458457431   11.0314635484
   4.8914548937    2.7181536333    6.6918704016
   1.3142238420   12.8046420036   11.3626240360
   4.2431304024   16.9028248427   14.8195814641
   0.9990258975   18.3886844057    7.8995246043
  10.5489778141    2.4271622441   14.1421076902
  11.7937076905    3.3708682434   13.7951641889
   4.9679326264    4.0543081268    5.8557852290
   5.3920853970   18.7679691251   13.9433348275
   9.8160436787   12.6543256008    9.8147636764
  -0.5866370404   13.5379096726    8.5039977953
  16.8097310545   11.9166985865    7.8917558357
  -0.5186957992   16.9131569878    6.7183215384
  -1.3305532760   10.9562817618    7.1930962506
   5.9131314006    6.3189924142   14.6518247367
  15.4087586580   14.5704364400    4.1289163592
  -0.9294640991   17.9698347055    5.6348903608
   2.6802756209   12.8277169180    9.4231715565
  16.7933042867    9.9805306441    5.0224152120
   4.0029077504    6.2249953373    6.1212157536
  12.0292281968    1.1826048823   18.0124613913
   2.1524315976    4.7800817374   12.9507836498
   9.8193195979   19.6051216179   18.3360004286
  -2.1308067469   14.4739283564    4.0808511501
   7.1105680103    6.7139580466   15.5734250714
   3.2465160260   13.7294026498    8.2890619264
   8.9864601770    7.8233588010    5.2071584016
   0.3407094477   18.6190366141    3.6696449452
   7.5953092528    8.1179969317   15.4140323325
  10.3795859642    7.4607737131    9.7403366090
   1.2967202103    6.4741777615    2.6300203674
  13.0080673858    2.3203703569   18.4010376427
   1.8758550380    5.0415261102   10.4672809617
   1.1624082913    4.7651795573   11.8740291715
  10.8846968530    5.1131555064    3.4418166284
   9.6711047252    5.6863253928    4.1772789454
   8.7131934073   15.6813878827   17.8107910102
   9.5670892929    7.9260136931   10.9108361632
  13.2082512387    8.2724984205    3.5201997643
   8.6976936334   18.3350247535   12.2118401377
  -0.5689081307   12.8452761514    3.4790753378
  14.8256290445    5.6263241454    5.6376263170
   7.9776290633    8.2378227092   10.4079036984
  14.5094200722    9.7996999549    2.1458121258
  12.3145398754    5.3387428166    1.4814724709
   2.3721458937   14.7184258527    6.3038289866
  13.6795857990    7.4507695133    4.7330419808
  -0.9293548701    6.7123768661    2.8472701790
   9.0815995976   17.7114158725   14.4653956502
   9.1223664929   13.3108763033   17.8928036685
  15.9239675359    7.6929079350   14.1127611934
  17.2704608138    7.6174710812   13.3908968359
  17.1258562993    5.8741751847    1.8712716729
  15.5340231804    2.9203151177   11.2258521274
   8.5816163619   12.0154349796   18.4642751506
  16.0030779541    4.3489376424   11.1141287954
  10.5850762887   18.0032323934   14.2796904594
  15.5501444467    4.7863982573    9.6423440676
  -1.5786826479    8.9103283855   12.5789659806
  10.5088058372   19.1021763680    7.0103181387
   2.6097828763   10.0256378776   15.5686288972
  -1.9244147957   11.1223887340   18.6666903534
   0.5788429065   12.9812566806   15.1898565684
  16.6491557733   12.8763318473    0.1256392190
   4.6644525793   10.2991372346    6.4713523746
   5.7244139674    9.2514397823    3.9351713842
  10.1750826783   16.9362699920    4.8808758430
   9.2029783851   17.9349957024    5.5003455923
   1.5709157833   12.1449859798   16.0046896629
   2.2798652261    0.5616552803   12.7079759266
   0.9401428960    0.8299220025   12.1706854182
   0.9410830548   18.2147646697   12.5528396060
   0.6874028591    0.8104921599    9.9230037434
   9.8330393268   10.6000064839    1.2268570305
   2.3859165656    9.9082143059    6.3578344239
   6.0449210829    9.6708141789    6.2545717128
  12.2219263261   19.7082758626   14.6712091955
  -1.1484341328    8.3368348384   18.1083688247
  17.4567703950    3.9927325982    0.3475665542
  -1.5937971091   12.0330772472   15.3043024554
   0.3790658794   10.4413433451    0.0349569841
   9.7740155071   16.9604217920    2.4046377678
   9.3245228123    5.8861720520   13.7156099277
   6.9465500167    1.9394533685   16.5173576727
   9.3680813066    5.3402626737   18.5402512281
   9.1503095865    3.6673267635   12.6292859045
   7.5904336989    1.2801810626   18.3927007783
   9.6492962629    3.9027138717    0.8752584169
   6.1680553724    2.9111818410   18.2157903287
   7.3003827865    5.1930669578   18.6665205215
   8.3383842747    1.8090507273   13.3861314025
  12.1095808927    3.4906052578   12.5243755924
  10.0264660682    1.6366611084   12.0703747801
  12.8677310657    2.9718887791   14.5578036674
   4.7151218082    7.0188512365   14.8750704048
   5.5458981143    5.0313796106   14.6472136998
  11.5163437211    4.6121244063   14.2886157311
   6.1936332953    6.5572235812   13.3251751902
   3.1462435776    3.7960042680   12.9235390650
   8.9666694375   18.6216485915   17.9681729842
   2.6933443905    6.0697209893   13.2312518923
  11.6947689318    7.0015164675   10.0487738035
   0.8529850836    5.0654953848    9.5964781025
   8.2075090143    8.4116516252   14.2619050274
   8.6330770337    8.3561337737   16.2207793074
   1.5056864202    4.3362395053   14.1553016199
  10.6496067123    8.4831526514    8.8297326122
  11.0482833891   19.4935268617    0.5363951577
  14.1858210678    2.2001350745   17.8391189525
  11.0390484304   19.3921686448   17.7472540537
   2.9186081067    4.2453826885   10.1487745525
   9.8226212874    6.3836046323    9.0960985926
   7.3147696655    8.5460415189   11.5617979943
  14.2496655876    2.5038658170    0.5781384480
  12.2783024463    3.3978508072   17.9703193276
   6.5933167865    8.9336904252   15.6622464029
   2.5225522714    6.2573367770   10.3428964700
   7.3085988166    7.2227904880    9.9199461278
  15.8136056396    8.8248451016   14.8696522103
   7.7310217563    9.3038849943    9.4813277021
  14.1289571293    2.7769379320   11.2022698733
  14.8879824831    7.7209119642   13.2164086953
  16.0135642228    4.0205619949    8.5763311926
  16.0819772524    2.0554242310   10.4116251744
  16.1271096930    6.0729201820    9.4963963179
  15.7794084581    6.6415050445   14.9560855083
  -0.7099265770    8.6747985359   11.6184179153
  15.9508268369    2.3749243288   12.4531323622
  -1.1669392890   10.0148573806   13.4621409479
  14.1980217846    4.7949321470    9.3263693464
  16.3274364146    9.3166983747   11.9900804592
  -1.6686185300   19.3499820557   18.5472997677
  14.7430739261   12.6194747630   15.9265638409
   1.3757306434    2.2116415575    3.6567664364
   6.3760450548    6.9931292880    1.8338074706
   6.5882013263   16.4969951500    8.1323475739
   9.3088994429   11.4051786623    7.5084149985
   6.4428803996    6.3171665232    0.1259495035
   4.6004621950    2.7561983898   16.3752940771
  17.3184225283    3.5851736563    5.5271574262
   0.5286261102    0.6354455651    1.8313389115
   1.4228888951   16.7643843641   17.2746837401
  18.5673687177    0.5501082541    0.2080068092
   7.7867565173   15.2951161952    7.4674240473
  -0.0412952817    2.1229685039   18.0254546771
  -2.6460939512   18.8921007250    1.2287576180
  13.3774718207   13.0162715654   11.9677028333
   0.2744453406   18.9688207352   17.1947937721
   7.9583366723   14.7401307310    5.8694510312
  12.6931068765   14.4709774558   15.4669070389
   3.9718105729   11.0007146799   19.0507144429
  15.1232508388   12.7350189045   12.3947418299
   4.1565367320    3.8315184117    0.7167873771
   3.3607675740    5.3231453180    0.2679288965
  12.5139731061   10.5818381808   17.8348150092
  12.0480579325    9.5693010995    5.9877199534
   1.1572891533    1.6060456928    5.3440413259
  -0.6487640326    2.4667519439    6.4840977388
  11.1393351459   13.2668084769    6.2821342255
   3.0192123119    2.0890619117   15.5911452663
   5.7125355797   19.0440796586    9.2668581630
  11.0548940789   14.9478957897   16.0682718050
  12.8703318636   11.5199724779   14.0415375939
   0.9766134419   15.0190379512   17.5225878897
   2.7048284094   15.3894692138   17.1425315752
  11.7021758217   15.6374859322   14.4303537370
   7.0046524059   17.6382590444    9.4488891700
   1.4486245967    2.9989558208   17.6922876259
   3.0233486845   17.1118932869    1.2233147330
  -0.3638025345    7.7465606804    6.3720981819
  14.4585277035   10.7385942789   16.0917181169
   2.0576884664    3.2657959557    4.7893499293
   6.7709720426   15.8281088550    9.8666156114
   8.5657330548   11.4079935724    5.9152996112
   3.9392030534   10.3091090135    1.1732226257
   7.1963282812   13.6169545850    6.8251356055
   2.6238349855    9.7209170332   18.6423165356
   3.7343700531    4.7364150259   18.5319583292
  14.4592915472   14.3530998832   12.2283023573
   0.9621831899   19.6305103167    0.3220808183
   4.5516280031    1.1036773394   15.2305060194
   1.5334685498    3.0822019042    0.2304468808
   2.0138087357    0.5340931025   16.5793242332
  17.8061654513    1.1947390094    3.7214344102
  16.9013641126    2.0181128711    2.4038053608
  12.3414541683    9.9844841654   16.1593831711
   4.2376892636    7.8655401809    1.6346801526
   3.1027056009    7.6828189420   19.0657448476
   0.9501677824    6.7325264324    6.0454302166
   0.9304624345    4.6057577385    6.6683444680
   1.6192524971   16.6385550505    0.1899233501
  12.0275145314   11.0657016443    7.1572084713
   4.6092080230   18.8378792130   11.3444438312
  11.0943783328    9.5789930598    7.4853124299
  11.0463783605   11.0966449737   16.7232296993
   9.6815035152   13.4958057270    5.2369024848
  14.7018196490   11.3230342794   13.6879356654
   4.1086002965   18.4543935053    8.4730022251
   7.8011276623   13.9552280158    4.0648209726
  -0.4021408572    4.0541988587    7.8087517141
   0.1483419106    6.8824437324    7.8133196379
   6.5111393666   14.6469536665    2.3799694708
   7.1528608705    1.6754818120   11.3220380343
   1.8401912438   14.2976460044    1.0631497555
  13.6861878613   17.3588561863   17.5743904549
  14.6416230907   16.1891835879   16.3922843110
   5.7709783203   15.0498466306    0.0302653322
  -2.4952679692   14.7971935611   12.1863873919
   8.4559428635   12.2544052890    3.9769903117
   5.5332671427    2.2125129739   10.7148382006
   3.0062299674   18.1545574059   10.7151429463
   4.2301100596   12.6251434426   16.9951779078
  -1.0126592033   14.2009082365   11.1571402140
  15.0287637853    0.5081560156    2.8238578502
  15.3891186474    1.6029710046    4.1274564760
   5.3454842805   17.2272921523    3.1943659302
   5.9208316139    0.6838251326    7.8007538575
   4.3536981332   18.9677764209    2.2871256677
   1.3811261291   15.4687170248    2.3056355815
   6.8529527295    1.3786376163    4.3316227101
   3.8605809223    2.3867109865    2.3029435718
  -2.2427131446   17.3570724105   11.9682574586
   2.3186642072   13.3219142906    3.3988572193
   3.5696631472   12.6435223330    2.3608801355
   6.7212587491   12.6421760121    4.0643812813
  13.4781064518   14.3682488803   17.2782586303
   5.4738117918    1.1797282039   11.9345421631
  14.7058654886   15.0997450114   18.2225007741
   6.0485660944   12.1969396091   16.9677996197
  12.2575702222   13.8213436574    7.7761456388
  14.7094670137   16.3069973671   10.7785140757
   5.6624589297   13.0775740929    2.0728819836
   3.0548975854   15.3556019218   11.2394204889
   3.8350582649   16.8147077734    4.0883869086
   4.6668043200   15.8527566897   11.8366865605
  13.6018468220   13.3460191677    8.5993428935
   5.3441832649    2.6957193238    1.4807752529
  -0.7496728760   15.5419877120   12.2860552744
   6.4005953700   14.6597885584   19.1542480352
   4.1126079915   13.5742848121    3.8117599190
   7.3706327940    0.4226286643    6.6843917854
   3.0243916147   19.7371776796    6.2437945675
   5.4880242695   13.8966548326   16.8660505284
   8.2036867269    4.0303717927   16.8516491225
  12.5466506603   18.7490358206   11.8989821717
   3.5252567204   14.8204769139   15.1026620837
   4.9618284892   15.0149375728   14.1415033323
  10.6522901303   14.9524775992    8.8397013098
   3.4726434243   16.8922396195   11.8778297912
   5.4828656076   17.0842646279    4.8739432761
   5.6411931686   19.6948936584    2.8961725239
  -1.7358320654   17.9437774707   10.2393286433
  14.5201531928   17.8777053790    4.0744860117
   7.3594238762    1.8422355965    2.5647921518
  13.3133219125   18.1247898085    2.8057378020
  12.8833901527   17.2080785399    4.4014032329
   5.2165157335    3.2553573690    3.0872858082
  13.4492238146   15.0217997836    7.8717057742
  14.8723494413   17.6786277326    9.5743242902
  11.2818815326   14.6505354030   11.8833460750
   0.9595331564   18.9990459394    8.8583006579
   1.3362559313   13.5426137197   12.0960514355
  13.6527902560   12.5986399692    6.1972488721
  14.3266981350   11.9643854438    4.7323486699
  12.8776575902   17.8729322001   10.3612220812
  13.1529177619   16.2024233222    1.6232822370
  15.0063594741   15.8823754159    1.3480610418
   0.2988537815   12.4344991985   11.3407375713
  12.9581193780   17.0566793227   11.9635409889
   2.0249743613   11.9728645873   11.4498357755
  13.0925218198   13.0814249331    4.5124558455
   3.9949161791    2.1201607384    6.5529873250
  11.2525474588   16.1949175362    9.8318080018
  -1.1519619896   14.3880203102    8.1635568991
   9.6663761412   11.6325258471    9.7051428229
   5.0006711712    2.9898747532    7.7331423855
  14.1529746337   17.2584535371    0.5874774262
   5.2133858128    3.7906401126    4.8461764783
   5.9062931782    4.3406762171    6.3209956763
  16.4439463821   12.6637594013    7.1956572745
   5.9813163849   19.0401318913   13.0676225669
   0.9530670556   19.1922027282    7.0542457522
   2.0368282282   17.8738360365    7.7281025404
   9.7668940524   15.1494485323   11.3664552695
   4.6977570494   16.9676674123   15.8259491710
   3.3038872459   17.4836792036   14.7402115807
   0.0487460611   13.2048316853    7.7767953674
  -0.7988008394   11.5371155720    6.4380050983
  10.9967433860    1.4997584129   14.2003595002
  14.9797375078   14.1733495892    3.1715591360
   5.8941696786   18.9313573085   14.9374898222
  10.5231130760   12.7648384108    9.0400904157
  16.7859987652   11.1270326999    4.9966938438
   4.4359795363   19.2688950538   13.7567751207
  -0.5293672516   18.8905225421    6.1256388464
  -2.0036468835   17.9057293236    5.4180157607
   8.8452224047   13.1798368676    9.6523913995
   2.3202511802   11.9505088222    8.8838962490
   0.0840400867   13.7468250382    9.3501546531
  15.1122630387   15.6168884924    4.2710582554
   3.4922865923   12.4849506695   10.1566741182
   0.3468083390   16.3402703757    6.2051621944
  11.1433363964    1.2789446854   18.6718608172
  15.8644564221   11.3780413727    8.1070827970
  -1.2127515680   15.9738019451    6.9059139778
  15.8164258769    9.5820604464    4.8587167836
   3.3170650848    6.7641232841    6.7236251602
   9.4946644313    8.7554551811    5.5565311667
   3.9119223019    6.8078399313    5.1430010364
  -0.7355453649   10.4317541665    7.9150042208
  -1.6552331766   14.7310487584    5.0592758437
   1.1969238628    6.1914337627    3.7443336883
  17.4779156291    9.5285706777    4.2916278788
   0.5281977573   18.3385978644    2.6575815673
   1.3433468101   18.7558732183    4.1018609637
   3.2443802557   14.8159657991    8.7942756008
   1.4151664249    5.4446347396    2.0327258453
  -1.7077132311   15.1792649244    3.3232707576
   4.1547804352   13.2921318554    7.9443841680
  11.7605992290    5.0175514899    4.1499771755
   6.6142512821    6.5868666767   16.5149268690
   5.0450628682    6.4404611446    6.4284606589
   2.3006096046    6.9329543601    2.6144133187
   8.1958612236    8.1209039386    4.4367020415
   8.8616344377   16.4195683682   18.5284312405
  10.6394281022    4.0426358258    3.1199362614
   8.3757000694    7.5069391157    6.1338276688
   0.8128682833    3.7739672290   11.6455992330
   8.5736621243   19.3209897498   12.5922990532
  12.6262493188    9.1075266605    3.7925012474
   7.7871273424   15.9934787463   17.2592875815
  13.9417665245    5.1074977339    6.0903315888
  12.8581598129    7.6834973789    2.6404872759
   9.9269101523   18.2547928473   11.9432548703
  -0.1407209417   19.6032600239    3.6205888600
  15.1095367444    9.5574390165    1.2552863287
  13.2021374149    5.1995821442    2.0685442565
   8.7555189718    5.6528263431    3.4934885123
  -0.0258605091   12.8232874627    4.4475677031
  14.9352920298   10.7144522672    2.6666581487
  11.8789040558    4.5059171475    0.9302658314
   9.6493186068   15.7381225975   17.2324286879
   9.3651390031    5.1069137944    5.0505391998
   8.1757116826   18.0627277018   11.3013657791
   2.2221707626   15.6139261496    6.8553162801
  -0.1096251565   13.6453255151    2.8205467981
   9.7819642298    8.9836808938   11.1535209240
  15.3628906083    6.1794489726    6.4396759776
  -0.4515144573   11.8525018139    3.0319684920
  17.3985804423    7.5831216108    3.1275871499
   3.3152230538   14.6806825344    5.7562419125
  15.4730149005    4.8665629672    5.3603911423
   8.6619182653   18.5956232781   15.0039985867
  -0.7276851725    6.0802438374    3.7718135013
  12.8016482050    6.9953829125    5.1606876882
  13.5202025200   10.0239311317    1.8092388775
   1.5627517976   14.4963152608    5.5770026648
  13.9785293882    8.1217907728    5.6053058340
  12.7322997922    6.0379759686    0.7310914557
   8.9498063438   13.2669352243   16.7934461267
  -1.0451752953    7.5761045237   14.2419213472
   8.8079524880   11.1482138671   17.7551398836
   9.0607961148   16.8160717865   15.0411073674
  10.2821393918   13.3361527689   18.0004456436
  16.3077394724    5.4477562897    2.5576344705
  10.9983145226   17.5162460558   13.3870478690
  16.7895026297    6.4760338236    1.0379653941
   7.4475854296   12.0202968113   18.5441562681
   1.9864091976    9.5819448831   16.4545432935
   0.0730683112   13.7148874674   15.9032695261
  11.2140933132   17.1987950580    4.5136013041
  12.6673088171    0.3207212870    6.9579827749
   4.6224771729   10.4977551154    7.5387854400
   6.2516475472    9.5108425862    2.9617642750
  10.9440657914   18.9614973813    7.9637336901
  16.2517358289   10.5216761345   18.9603841082
  -2.0319536901   11.3479168306   17.5496987867
  15.3918366986    5.0435990105   11.8362149126
  16.7739213043   13.7061548174    0.7860276358
  15.2927590496   13.1788422070   18.3685424400
  -2.4579594226   19.7405339607   12.0353704883
   2.7247875042    1.5406891654   12.8900991209
   0.2079026490   17.7320634166   13.2011296336
  -0.2466230408    0.2988117229    9.8724705341
  10.9618090825   17.4718724362   15.1633338757
   4.6629471648   11.3332245363    5.9346482616
  16.5780568455   11.5452234167   14.7321422859
   9.3705389116   16.2896872745    1.6987061284
   2.0226751076    9.6764595094    7.3447436889
   2.3324569711    9.5056320706   14.6544471966
   9.2539036656   18.8883132074    4.9814412170
  -1.2031260508    8.2799857768   16.9959735294
   1.2282054150   13.5380265564   14.4866114779
  10.5451163217   10.4167913869    2.0977273759
   2.1908157453   10.9915483677    6.2061889465
  13.0227984193   19.7959751719   13.8332093581
   5.7939231053    8.1167990388    4.0009164739
   2.1026850966   12.8490779348   16.6260589936
   1.8631742347   18.4988456610   13.2976670943
   1.6065562325    0.0580206668    9.9474112328
  10.2120527780   16.0598297860    5.5266251409
  -1.5080685045   11.1942599892   16.0822884429
  16.5738000315    3.4034654455    0.5530300336
   3.6282771689    9.6617711344   15.7627121877
  15.9672615251   12.1787155809    0.6384195063
  11.1937996989   19.1119848837    6.2039439608
   4.8196311033    9.7850123757    3.9429230469
   9.8881714327    9.6531013558    0.5099179637
  15.9494946711    4.7483967170   18.7992236701
   6.7853878192   10.1091993469    6.9179154091
  14.7776179786    1.0100439102   15.1204141939
  16.8583625017    8.3978822297   18.3989202098
   9.2565154321   17.9755517644    2.4374090610
  -0.6843794175    7.2711921033   18.3837926406
   2.2895864714    0.1138140528   13.7192671493
   0.5247724843    1.4073168986   13.0449939047
   1.2576801602   17.5100231554   11.8287208854
   0.9051535002    1.4223475431    9.0666565139
   0.1768113621   10.0643115282    1.0790403449
  17.1460317088    3.2891523087   19.0912242835
   0.1882932884   11.0999106081   19.1267029752
   1.0869707864   11.4813913043   16.7003121605
  12.6586777484   19.0163580732   15.5101522240
  10.8309118303   17.1786534458    2.2401787093
   1.7308425688    9.2120073551    5.8022305478
   8.1861928119   17.4290939744    5.3857188053
   5.9971688936    8.5919847842    6.4956922455
   8.8801881505   10.7021868621    1.5786900780
  -1.9154408854   12.9734212829   15.8305647724
   5.4661621381    9.0538735429    0.4953617680
   9.3154396803   13.9435053742    7.2278506620
  13.8447655751   13.2937812954   13.9530222944
   3.8498120674    1.1149640137   17.3333365067
   2.5433753240    1.4018230407    0.0408900987
  -0.8568037549    5.6647408395    6.5172239373
   5.1334234576    5.4789962806    1.4559990048
  -0.0385006076    3.2508323418    4.6589355714
  10.4392601079   10.7391402073    5.8113778570
   5.0791857862   16.9824435016    9.5687245587
  17.4675675677    0.0131301604    1.9940014564
  12.7464241333   12.0505149473   16.3328540789
   2.3918427307   15.9550631251   18.8899749912
  12.5235566830   16.4468963781   16.0773342746
   6.2159815456    0.3421735747   10.0482772612
   3.3597601689   14.8854592117    2.4111673574
   7.6261583710   13.0028503863    2.2130041519
  13.1743996310   19.4533028780    4.4814756591
   5.2389567952   12.9046725308   18.7723371768
  -1.7578025556   15.9692696205   10.4762413611
   4.4473759123   18.7661864097    4.3718017124
   5.4083932241    1.1711079605    2.8437314433
  12.6917047885   15.3565402714   19.0765420769
   6.0572065848    2.0333592761    6.1150434574
  14.6077658625   18.1548526689   11.6027515564
  12.5182179210   14.5745426306    9.6850935472
   3.0990799772   15.3494784619   13.2389046577
   5.1393210425   17.3861774182   13.8215337873
  10.0485743607    2.7814619682   15.3713185916
   9.5841707053    2.5771843915   17.6897391954
  -0.0734861819   17.4871811361    7.9804722248
  10.4567261656   13.0512066086   11.0349325671
  14.9264177003   13.8219410725    5.2888148787
   1.7349113067   13.6166655289   10.2303530129
  -1.5238406089   12.5106621426    9.0246653066
  17.0770154084    9.8606095131    6.4592540067
  11.5023203880    1.3875519653   16.6724768828
   3.8370574256    4.8244393724    6.0873259430
  -0.3769257179   17.5561420140    4.4008980746
   9.9758231406    7.0672376227    4.6157226368
   8.2502024006    5.9114826123   15.4174436094
  -1.8854285133   13.1547520332    3.6804997086
   2.2663828278   13.6328814273    7.2228348162
   9.6812956654    7.1453248158   11.9510924568
  14.4496567556    6.3393120274    4.4255850580
   0.1618968442    7.2805206632    2.2351803629
   0.1572789696    5.6750352562   12.1837914525
   8.5563868300   14.4336695788   18.4922818424
  11.2602275846    5.8943537007    2.3242105778
  14.4684798938    8.7268931213    3.0425192647
   8.3944387136   17.3784600071   13.2143388948
  17.3600116033    4.4582175013   11.3749519697
  16.9595221270    6.5322608499   12.4912415759
  17.9130944943    4.7279527791    1.4771776455
   2.5431095324   11.3761912729   15.2939249772
  10.9266237738   19.3929058489   14.3058466458
   6.5662704030    9.8541393621    4.9261334185
   9.4946628920   18.0076636956    6.8377825953
  10.2379420719   11.7554194150    0.5451606225
  -0.2410600915    9.4359728050   18.3159196149
   0.3989460230   19.3674268395   11.8701452682
   0.7626636456    1.6815761149   11.0254321546
  -1.0604263596   12.4062305138    0.0805909785
   9.5631830162   16.3313180681    3.7145372842
  -0.4749037836   12.2435642538   14.5144230772
   3.6731358716    9.4153151203    6.0472431206
