B2 C140 Ca1 F48 H298 O66 
1.0
1.8703390385895332e+01 1.3004583152209894e-18 1.7539203539552293e-16 
-7.2157912786629597e-01 2.0171357408576796e+01 7.3419314998074827e-18 
-9.0516260432841911e-01 1.1946364273958407e-01 1.9970943395223909e+01 
B C Ca F H O 
2 140 1 48 298 66 
Cartesian
  10.3689601050    2.6901577683   17.1482190180
  -0.6061839962    5.2728730424   12.5374666887
  17.0768758094   18.7488508719    0.7194688378
   9.8421246153   14.8282625200    7.2294136535
   6.0533616249    6.9027251997    0.2344025959
  16.0201963705   13.1755599362   13.1131212086
   3.8013778780    2.5779456574   16.6813040129
   2.4162136802    0.5758676734   19.4823245962
   1.3995108423    2.8573942331    3.6923330155
   3.0767037681    0.6131458053   18.0419137324
   0.2190684798    3.1915586068    5.8394599378
   4.2822630561    5.2729348819    0.2565152171
   3.3352887520   16.4532179347   18.6734360947
   1.0863330042    2.5264544109   18.8472734122
  14.3704238782   15.8434668614   15.6927641138
   6.5221678833   10.5754875819    0.0754656835
   7.6059627949   16.7047347272    8.9513912369
  15.2185580446   11.2508060502   16.1914191582
  10.9158232296   12.1866689047    7.0503655435
  11.8172422823   13.4051307336    6.7940302768
  15.3385871614   11.5573930001   14.6861610607
   5.5192116142    8.3524560528    0.3521378389
  13.0352159805   12.1303067106   16.5460891478
  12.4930922300   10.4259333305    6.3056235117
   0.6696480899    4.5934542660    6.4187579108
  -0.0363060542    6.8299963408    6.7736501846
   6.0226569462   18.3644314715    9.1793244791
   3.9048555365   17.0408907637    0.9675283507
  16.4225124892   19.9451916114    2.4873271043
   5.3925279641   19.2965050740   10.3073215358
   3.4260499225   15.9003589618    1.7244047314
  14.9810251176   16.8992760997   17.7800488358
   4.8789643900    1.2087998462   10.6212220570
   9.2105184716   12.8331690901    3.8359378515
  16.2352530492    0.1102716993    3.6515395116
   7.7873501139   13.8668680252    2.2258445469
   7.9055234353   14.5003177115    0.7751961931
   1.0663910029   15.6202684048   10.8954298435
   4.2020758865   14.5608866238    3.5297384726
  15.4045636872   15.6475956329   18.5863761524
   6.5994381624   14.3418079731   18.5311545212
   6.5271031063   17.4396947154    4.8179394011
   6.6406446282   19.2980491134    3.2888799425
   6.8732777386    0.5647781190    2.9087092557
   5.1323793109    2.1415433029    2.7730133902
  -0.7868459083   17.0768038167   11.2657040353
   5.8316013909    1.3490399100    5.9775311123
  14.5263797388   15.1128855221    9.3620455699
  16.4924223290   17.3024064360   10.8118504050
   5.5301646819   15.5156873830   12.4857489876
  15.4691432517   18.0179470441    4.6125756641
   7.0472662921    2.8306787578   18.2876328730
   8.5542571257    4.5578681999   19.4506468535
   8.2607161814    3.6567654309   18.2191059752
   5.6191414217   16.0278810415   14.9066928621
  14.9182818041   19.0697310622   11.1496100697
  12.5172856557   16.2365834679   10.2294006272
   9.7407101554    2.2155488990   13.5461917180
  14.8576268178   15.2356795383    0.3923306790
  15.2377488220   12.3204961189    6.4639364442
  11.9660819811   15.4322610091   11.4468305364
   4.9411510212    3.5382126206    6.2498869526
   2.9955029330   13.2401160245   12.5154969132
   5.2810986791   17.4525032825   15.2676510083
   2.2445886317   18.6825710988    8.8853482433
  10.8092383462    2.3013446765   14.7022646836
  11.9974897928    3.2136131291   14.3643708391
   5.1703475520    4.9311819949    5.7066435274
   6.3183374592   19.5904209711   14.9366629879
  11.1539027693   13.3701814188   10.8322086904
   0.4898395705   12.6488096039    9.0812789841
  17.8999255803   10.7731757355    8.3174611511
   0.6840881399   18.3967321157    7.0787470328
  -0.1848502118   10.4482409470    6.8793235595
   7.0330771150    6.3900745076   15.1111965427
  16.0759793209   14.3816149525    5.4706258505
   1.3260205384   19.0854034112    5.8655705464
   4.3925347823   12.6935936288   10.5467315190
  18.0751798604   10.8496205102    4.5021384181
   4.1776249031    7.0616182461    5.9754661184
  11.9628119808    1.7824643686   18.8202319505
   2.6707346015    4.0824911012   13.6153126037
  11.9471440109    0.1793378184   18.8030242958
  17.3377422011   14.7823337473    4.7612295713
   8.1670674574    6.6780574786   16.1705743310
   4.7759879051   13.3808254771    9.2627967204
   9.4766209407    7.8976277928    5.9596449150
   2.2850954948   19.0516139240    3.7640535004
   8.5582404970    8.1884212640   16.2461488269
  11.3133515017    7.3763726834   10.0391373115
   1.8346272117    6.6819563129    2.5249214075
  13.1747437462    2.5033809542   19.2597848990
   2.5353305711    4.8487265601   11.2028861211
   1.7495666309    4.2224068786   12.3795797356
  10.9912229409    5.3334834862    3.6662505587
  10.2160549379    5.9410064671    4.7847001622
  10.3599030659   16.6979399193   18.7804366385
  10.4638271692    7.8701958921   11.2034175537
  14.3693178448    8.0567490980    4.0726603185
   9.5661773027   18.1685576782   12.0937647044
   0.1525176392   14.1876137625    2.9052168110
  15.3225668983    4.5696887147    5.0861150919
   9.2985675281    8.6647055716   10.6240662718
  15.4303316018    9.0428659966    2.1093783719
  12.3817942129    6.2421179002    1.7978819230
   4.2656965845   14.6506595666    7.3267142747
  15.0578755927    7.0701590839    5.0890819527
  18.1611869773    6.6790496561    2.7308662060
   9.5826569333   18.0573662882   14.4356688001
  10.5028833207   14.3350778198   19.0145141373
  16.9916257329    7.4597474304   15.0781802194
  -0.8108959572    7.2073475926   13.9214223045
  17.6737448892    5.9809644092    1.5401856014
  15.4768604410    3.0246926712   12.1276503702
  11.0310047866   13.2003831832    0.0042611819
  16.0071814082    4.2300175212   11.4217524449
  11.0944653817   17.9471630473   14.7100432921
  15.6908367472    4.1850124933    9.9309028058
  -0.4515702531    8.4744797577   13.0679789953
  12.7315418081   18.6960241236    7.2715785704
   4.6367546645   11.4881695952   15.9325716750
  -0.9821364825   10.6209752511   19.4474162740
   2.0679172670   14.0862660595   16.5401819325
  16.9010075931   12.9042766308   19.5194868351
   5.5071423773   10.7326408840    6.3883864239
   6.4949296179    9.1506235682    3.8913483320
  11.0455650468   17.4184727354    5.2435112427
  10.5140405330   18.3933223393    6.3262299267
   3.0196535029   13.0142409485   16.9226084429
   1.3176097759   20.0263524124   13.4709723528
   0.6294716875    0.4625926035   13.1049796840
   2.8319738078   18.4004027117   12.9457758328
   1.0046799350    0.7622957780   10.7432527583
  11.6321581392   11.5748060013    1.5398354638
   3.2622886478   10.4746543240    6.8441640678
   6.7509074204    9.9241593350    6.3225424724
  13.0473186394   19.3267442489   14.4188443172
   0.5805137143    7.5286398056   19.0615139101
  17.3916126544    3.7418293689    0.8547866971
   0.0095446304   13.1908942358   15.9105991504
   0.9012500242    9.5398661836    0.2333623797
  11.0123919357   18.4416317770    3.0045591580
   9.7988664536    5.9641365737   13.8416329242
   6.7481921342    2.3383368140   17.0044850191
   9.8400396895    4.6373559743   19.6801172661
   9.4328425179    3.4253829597   13.1045721884
   7.0036574582    1.8377108548   19.1880114635
   8.8729390273    3.9073023866    0.6101152781
   6.0962930841    3.7195463801   18.5218187574
   7.9037017522    5.7924631040   19.3384773406
   8.6427004488    1.6294120829   14.0690555626
  12.4293055592    3.0689728204   13.1016688563
  10.0775966218    1.5183120952   12.4242105903
  13.0596029974    3.1738780105   15.3118858750
   6.1105221605    7.4312600897   14.9381239871
   6.4850051878    5.1867756279   15.4258304168
  11.5003285358    4.5569148874   14.3582775904
   7.4858289221    6.2198279778   13.6373952294
   3.7518821175    3.3513409182   13.2538553262
  10.0169207771   20.0733118668   18.1398191456
   3.0547732463    5.3224651565   14.0641292634
  12.2074093316    6.4575792274   10.4642111766
   1.6957276365    5.5967633439   10.4306059015
   9.1271990859    8.5932089099   15.0680913549
   9.4151282104    8.4201963820   17.2844742376
   2.0126159710    3.4801742664   14.6769520969
  12.0982338306    8.3812156597    9.5042014670
  12.0173565390   19.7302172348    0.0739127146
  14.1441466899    2.0616229965   18.3759538578
  12.2624130698   19.8730603123   18.1851515278
   3.0538413564    3.7840771930   10.4458946887
  10.7069425733    6.7569632579    8.9970151488
   8.5875717138    9.3511215729   11.5656854412
  14.3169984189    1.9187474061    0.5470212955
  13.1302221954    3.8759964783   19.3101293951
   7.3717853859    8.9391478576   16.5182178774
   3.5043271856    5.5991346539   11.5822707614
   8.4076522102    7.8790039057   10.0092721721
  17.5852595003    8.1144309957   16.1761314312
   9.7081646952    9.6276396656    9.8209293526
  14.3010053372    2.5717729158   11.5804470821
  15.9396651679    8.2354225044   14.7291115671
  15.8715872058    2.9148926893    9.4130560407
  16.3320946178    1.9528858612   12.1744460895
  16.4248744053    5.0985619021    9.2187955613
  16.4965368712    6.2638635052   15.5555684981
   0.6086121496    8.0822285994   12.3318664406
  15.4156255890    3.3602473754   13.4441663442
  -0.1156146486    9.5167152146   13.8548729729
  14.3929040123    4.6454375246    9.6485407673
  17.1933479619    8.6948454975   12.1987086380
   0.8943003985   19.9886393790   19.5716470341
  16.2114579334   11.3981364405   16.7107858852
   1.2343882163    3.2622075813    2.7460204237
   7.1081089464    6.9393220108    0.5927732915
   6.7545988044   16.1115960150    8.5550251101
  10.8338342198   11.8791909157    8.1247317082
   5.1257000974    6.8036301516   19.1214698426
   4.4404330515    3.5027463684   16.9196407239
  17.8953910550    2.9284264357    6.3769684868
  17.7403425509   17.9716331544    1.1679407109
   2.1854397937   16.5947692299   18.5733544601
  17.8205199295   19.5774641671    0.6666820157
   9.9096914474   15.8367007516    7.6573032555
   0.2486884571    1.8843053774   18.6521613099
  15.8769076407   18.4765777391   19.7604423740
  15.0442167135   13.0286240732   12.6748828645
   2.8255604775   19.8050256512   17.9227248366
   9.0285414884   14.6452879781    6.5979718541
  15.1403666578   16.4233493631   15.2260324265
   4.8440183818   11.0892255619   19.3546904286
  16.7301034521   12.4899339857   12.5180896493
   3.5100195911    4.8387298629    0.8885446917
   2.7634644694    5.9258990757   19.4411541896
  13.1344750203   12.0161859803   15.4554072077
  13.1100365441   11.0312861659    5.6200840580
   1.8352714824    1.7923305575    3.7102459320
   0.9184655139    2.4128873863    6.2675260099
  12.3448848272   13.5838486087    7.7130210951
   2.7969614355    3.0415970888   16.6959019845
   6.5549232834   19.0434420441    8.4684144643
  14.6540534018   14.7336585420   15.7965560198
  14.4170095674   11.6912863690   14.1277623560
   3.7914979860   15.4140085239   18.5348470680
   3.7510001394   16.9198977419   17.7601364974
  13.5175363155   15.9800705618   14.9650926532
   8.0548352586   17.4029949905    8.1758329414
   1.5819238010    2.9296409352   17.8693624878
   4.3446033984   17.7850319704    1.6510651576
  17.7178041987    7.4736271185    6.7841823803
  15.0997153362   10.0902388251   16.3353936972
   2.2131107561    3.3905540933    4.2228977427
   8.3168820984   16.0317664055    9.4052542739
   9.8384236174   12.4753640626    6.8147334662
   6.6270981765   10.9978607040   19.6344902781
   9.7409551518   14.1358317231    8.2297645002
   6.2082747318   11.1092104953    1.0694213910
   4.0631072199    4.7580358390   19.6872732264
  16.2743494981   14.2542784189   13.0725400546
   4.1547539907    0.2370727323    0.2228894000
   4.0440296752    2.0046108916   15.7765725341
   0.6554787651    3.3638416158   19.3541206803
   2.3203048126    0.5401796599   17.1666993240
  17.3385865196   19.4091749659    2.8855324225
  17.4625001517    0.8175741680    2.0499475354
  12.5772853626   12.9320351248   16.9544608227
   5.2175499527    8.5343877156    1.3588027833
   3.6937389297    8.6625819014   19.5980842671
   0.7541470170    7.3833400917    6.1621746973
   1.7422867220    4.9596771069    6.0658267785
   3.0504865105   17.4794893409    0.5694591071
  12.7555592336   10.4175472729    7.3931319532
   6.1358526146   19.1918788049   11.1320225048
  12.4680538698    9.3935762259    5.8343471192
  12.3303242482   11.3134498309   16.8977921831
  12.4265991663   13.3331806759    5.7959284781
  15.9293908880   10.6511853447   14.2995024247
   5.0935574522   17.7491109576    8.5910911045
  10.1567742365   13.4789184916    4.0630193520
   0.6955144187    4.5237547504    7.5173518104
   0.3373102630    6.7183515495    7.8589858679
   7.7966886250   14.6809640717    2.9553337659
   5.5298456085    1.8014356169   11.3124516502
   3.0029316013   15.2454408268    1.0258019712
  14.7037387563   17.6726662647   18.5120865323
  15.8948846063   17.3354475808   17.2088129461
   7.3075348900   15.4749965273    0.8718077344
   1.4286682327   15.2358103523   11.8709277586
   9.4540820435   11.7589001064    4.0207879090
   4.3329354041    1.9771963936    9.9072130303
   4.4748125969   18.8520414835   10.5607107575
   5.9676482714   15.2099114429   18.4248507852
   1.5001116608   14.8843808337   10.3149389941
  15.4192327069    0.7789955776    3.3690720429
  16.7983628768    0.6852802525    4.3786478762
   7.4623708096   17.5288659277    5.3227390723
   6.5061504035    0.9975017571    5.1992710929
   6.0508764343   18.6992471493    2.5454297052
   2.6678630897   16.1829553115    2.4742802622
   7.3230247215    1.2682976510    3.6517135775
   4.0088599628    2.1848046867    2.7154355654
  -0.5991958535   17.0414905694   12.3795233725
   3.8893533641   15.2531293075    4.4068980629
   3.6235520335   13.6750977460    3.2970752185
   8.3692365460   13.2063268321    4.5454778646
  16.0993131637   14.8609924780   17.9380260775
   4.0987950265    0.6820516146   11.2767401850
  16.0099715146   15.7882323599   19.4816807701
   6.1585836168   13.6838191273   17.7005793745
  14.0213170321   15.1220254500    8.3395465237
  15.7036688576   16.5436956833   11.2225405451
   6.8010991598   13.2333590768    2.1924311231
   4.8418651342   14.9832081888   11.8897350898
   6.6157858963   16.8474314576    3.9403081013
   6.5262402298   15.0133872957   12.5030676194
  14.4113201855   14.0684899424    9.8636103039
   5.6136116297    2.6736198434    1.9288116728
   1.6149175060   16.6290418179   10.7385235345
   8.9753376219   14.7855448028    0.7516148195
   5.1628428079   14.0959579432    3.7787769025
   4.8271286648    1.1318409043    5.6595380255
   6.0175096871    0.8731886211    6.9030976608
   7.6713222157   14.5456683602   18.2706358644
   8.1851530526    4.3205586538   17.3043136604
  14.4875830076   18.2310515564   11.6323147424
   5.3601066694   15.4628636997   15.8476227165
   6.6796982838   15.9252137310   14.9513915041
  12.2470097607   15.9068740159    9.1976371228
   5.8678003099   16.4318070776   11.9667100582
   5.7812098661   17.0420480078    5.4725670463
   7.7300720498   19.2889172777    3.2138218616
  -0.2044272460   17.7948605036   10.8204986593
  16.4210997049   18.0112161749    5.2597926186
   7.5258839658    0.6912728971    2.0086420990
  15.6208068884   17.6876772903    3.5479051976
  14.8416835463   17.1655334416    4.9728459780
   5.4801757097    2.6056983858    3.7180929238
  15.6309457773   15.2948828135    9.1917414196
  16.3464438235   17.2136796698    9.7370497465
  12.2428147874   15.8719648157   12.3616971339
   2.2440292236   18.9030492481   10.0041227345
   1.9551295982   13.5889629332   12.6295166408
  15.5011589455   11.3350226826    6.5676298005
  14.5754903019   12.3662053294    5.4996122667
  14.7445720728   19.9023481549   11.8276771424
  13.8758603542   14.7006937720    0.6938610361
  15.5306247895   14.9099322808    1.3191153393
   2.8880282385   12.2161251178   12.5993673165
  14.4921971534   19.2887823803   10.1017060280
   3.5953790901   13.6267040236   13.2941997002
  14.6040872393   12.6641684482    7.3479150198
   3.9136454320    3.1894868341    5.9707975611
  12.4524761826   17.2708572378   10.3731758434
  -0.2725725672   13.3558766699    9.2946669620
  11.3722692058   12.3218244440   10.4377386090
   5.0508974559    3.6938349156    7.4202370950
  14.7621486285   16.3475016239    0.4310442972
   5.1011562350    5.1210606317    4.6178500954
   6.1904360461    5.2026247452    6.0002740843
  17.1854350297   11.5320556873    7.9574609790
   7.3612814645   19.9289344335   14.7486049890
   2.9992715076   19.0900814283    8.1721585194
   2.3794233411   17.5624615991    8.8089867992
  10.7863066213   15.4258070362   11.4458417506
   4.8949510362   17.5718528043   16.3402935153
   4.5523781120   17.9052409653   14.5479306139
   0.6976902060   12.7703525555    7.9555489037
   0.5506191882   11.2946970795    6.8688141026
  11.1184344527    1.2630828167   14.9477344495
  15.5217228646   14.1638694498    4.6123365924
   5.9955237547   20.1127186653   15.8327809926
  10.7936298970   13.9200807684    9.9228919624
  17.2882031171   11.3067830765    3.8173203521
   5.6325780524   19.7649728776   14.1266758850
   2.4226538040   19.2723997814    6.1484902419
   0.9518619572   20.1075337773    5.7373682462
  10.4348419825   13.2345623060   11.5957290572
   3.9723179653   11.7186152865   10.2776508491
   1.4099637019   12.8678866649    9.5685184130
  15.4864320152   15.1395979836    6.0944145274
   5.2718550352   12.6648010317   11.2446644961
   0.9978380512   17.3402422942    7.0027965374
  11.2377836003    2.0478145946   19.5583896164
  17.3070972174    9.9351800144    8.7914419457
  -0.4184394413   18.4554969545    7.0449117754
  -0.3702685743    9.9037623516    4.0905622745
   3.7361884926    7.6508848857    6.7970853670
   9.8986723266    8.9032122587    6.1444678438
   3.5752451906    7.2497541020    5.0221034028
   0.3890971533    9.5281331015    6.8389460911
  -0.4793532397   14.7390345669    5.4164228644
   2.0743815222    6.5646103894    3.5868158721
   0.1412852153   11.6171417972    4.3903580149
   2.8264237092   18.2710952417    3.1279234106
   3.3127201957   19.4497898299    4.3376901160
   5.1145980176   14.3916043806    9.5881272685
   1.8626738656    5.6780263860    2.0020748506
  17.2707192179   15.8143727413    4.3425510641
   5.6074918209   12.8051535186    8.9534817316
  11.9176129496    4.8395387171    4.0115763705
   7.6814440721    6.5761074057   17.2244457251
   5.1982114830    7.4231114941    5.7183464725
   2.4928951165    7.2993915606    2.0017701829
   8.7198061275    7.8764198672    5.1436441727
  10.9582828680   16.5279489752   17.9171243278
  10.4373184575    4.6693957302    3.0226584259
   9.1995496604    7.5543326211    6.9527176104
   1.5072850619    3.2329362646   12.0151625119
   9.0582648054   19.1562961138   12.1338976223
  14.5910838751    9.0871850376    4.3730971165
  10.6984769838   17.5619536300   19.2498228684
  15.4889851893    4.6710654274    6.2160331135
  13.2524697898    8.0322572049    3.9722146886
  10.5711400486   18.4502965447   12.0543914397
   1.8836912411   19.8246678038    3.1006275498
  16.5158948169    8.9491749158    2.0136190279
  13.4733234499    6.0957470457    1.9320574068
   9.2541082752    6.2638588856    4.3627268747
   0.8652881901   14.4218206166    3.6946728756
  15.2088021441   10.0072765504    2.5210748489
  12.1174738270    5.3204486674    1.1785757506
   9.3815807393   16.7541590589   18.3744719205
   9.8394030513    5.2227910099    5.6539954151
   9.2886903052   17.5757099218   11.1938246656
   5.3202578422   15.1234086037    7.4625781001
   0.3004138034   15.1303882713    2.3183170225
  11.1767110542    8.6682119102   11.6915852734
  16.3093500619    4.5040736959    4.6798015137
   0.4026872814   13.2646419285    2.2281125210
  17.3924289091    7.3532588769    2.9690991304
   4.2695942254   14.2847065979    6.1897912956
  14.6875483980    3.7285137048    4.6615571308
   9.2989090233   19.1636930623   14.3905535609
  -0.3294319197    5.9659906148    3.5623507659
  14.7352408531    7.3631421456    6.0840314796
  15.0628054990    9.0643922007    1.0695244039
   3.3936296609   15.2724055025    7.3960069474
  16.1772714342    7.0567833568    5.0229654320
  12.2635973227    7.1098787936    1.1037807235
   9.8684911000   14.4182235111   18.0693479361
   0.2592374582    6.9459749350   14.2931341072
  10.1014713992   12.3149816979   19.3958287438
   8.9191276085   17.6036029360   15.1923574321
  11.5640559471   14.0790461215   18.6338232619
  16.5915549981    5.8585062802    1.6943802770
  11.4290908690   17.0361872206   14.1447478593
  17.9492976631    6.4665171567    0.4664098697
  10.0640556182   13.3633724248    0.3615297322
   5.5216129835   11.8048568869   16.5233191009
   1.3628028407   14.4132462048   17.3184848456
  12.1196176943   17.5354203963    5.0393689535
  12.7544453393   19.4814281671    6.4760922808
   5.3965431921   11.2650456057    7.3578989822
   6.6853972674    9.8836749539    3.0521760494
  13.1891731306   18.9904544987    8.1688754220
  16.7775864285   10.1225254186   19.2706318011
  -0.5469766287   10.9708421142   18.5229135808
  15.4131178308    5.0520928607   11.8530227767
  -1.0889967051   13.7742647320   19.7553764234
  16.6210616253   12.6541294611   18.5144279302
  -0.8135865490   19.7938765123   13.1644482090
   2.8260949039    0.6045641009   13.7950571566
   2.4995179673   17.8867639564   13.7831163200
  -0.0017450618   19.8340804846   10.5219683276
  11.3770158195   17.7994595289   15.7359392690
   5.8064309306   11.5282432487    5.6068375334
  -0.6700682159   12.9722033364   15.0725809701
  11.2511509527   17.8465276265    2.0619419833
   3.6009281528   10.9477751087    7.7950514917
   4.2500512952   10.7158256207   16.5833272606
  10.5449964808   19.4506732576    5.9901324903
  -0.4113269437    7.3545341870   18.6944440451
   2.6448198678   14.9824541526   16.2123348102
  12.1286749338   11.1082787497    2.4205928659
   2.8805048364   11.3685251775    6.3565379356
  14.1201681033    0.1712285440   14.0034222417
   7.1728781618    8.3065743026    3.7502601141
   3.6213728745   13.6202715638   17.5448301059
   3.7468233448   18.9556939671   13.2036079927
   2.1377280781    0.8342260995   10.7782501121
  10.8050490192   16.3987039596    5.5423370271
   0.1889338003   12.1461382461   16.4443813162
  16.3438924682    3.5043575168    1.2966394653
   4.9491401074   11.1431666478   14.9649374461
  17.0281299875   13.1416761887    0.1429466613
  13.0043754048   17.6125562988    6.9316613108
   5.4160308975    9.0116055815    4.0263509518
  11.9387052934   10.9699476016    0.6396801034
  16.2562711089    3.9995773059   19.7658936010
   7.5910087571   10.4509548731    6.8084685516
  13.3979273909   19.1634487901   15.4669681131
   1.9181006591    7.0246291209    0.0274773200
  10.2577656590   19.3253269843    2.8508811971
   1.3945336215    7.2509011968   18.4207911766
   1.2230260785   19.3679467777   14.3802830692
   0.3712328912    1.1830357338   13.8690996575
   3.1096314329   17.7584328020   12.1479209540
   0.6950837727    1.3424671832    9.8587154638
   0.4477188077    8.8811543774    1.0006748117
  17.9989417603    2.7422913605    0.8355073022
   1.6882180996   10.1253895070    0.7958517105
   2.4175735458   12.1167934907   17.4170069211
  13.7035075862   18.6147352817   13.8154094659
  11.9734454381   18.9468283347    3.3747798927
   2.6278019028    9.6442822708    6.8728785672
   9.4535800905   17.9919947459    6.4770012891
   6.7013703485    8.9217502187    6.8186973070
  10.5353438531   11.3096886378    1.6890352626
  -0.5014370056   13.7728762301   16.7206811140
   5.6656817851    9.2956391078   19.9688712661
  11.0880100889   14.6574674422    6.6430720480
  16.1134047769   12.8154985355   14.5498720588
   4.0724179035    1.6727247510   17.8953818277
   1.9308906291    1.9062955468   19.9345624888
  -0.3571475070    5.5903884575    6.1201991834
   5.2395159041    6.0794024052    0.9799020757
   0.1364422366    3.0610184630    4.3955223683
  11.1378068358   11.0326748047    6.2502472358
   7.0156344303   17.5854552709    9.9041743847
  15.9493374628   19.1369329776    1.4725343398
  14.4214627738   11.9985110717   17.0588363673
   3.8878254683   16.9637244966   19.8535037961
  13.9665120082   16.6114895217   16.8559705771
   5.7908523591    0.3953334525    9.8365315628
   4.5370190418   15.3226025289    2.4347593681
   8.7925692268   13.0190321262    2.4827919894
  14.7846504111   19.2821133946    4.4283576927
   6.4855357284   13.7681241953   19.7675655751
  -0.3549068259   15.7579198921   10.7826779870
   6.1375167312   18.7776854781    4.5274618001
   5.5459384157    0.7296935382    2.6494757728
  14.2421105159   14.9647596711   19.0348624441
   5.9923409655    2.8179569057    5.8433311388
  16.2498050299   18.6375119027   11.2378518839
  13.9888720747   16.1613396107   10.1926204396
   4.9621551124   15.5810194697   13.7808923318
   6.5271161971   18.2250528112   14.9623815689
  10.1455006277    2.9504421116   15.7589666209
   9.4509133383    2.9687563774   18.0754755866
   1.0550425006   19.1579926975    8.2072310512
  12.4081655035   13.9972897455   11.4398341734
  16.3384356036   13.2320782195    6.2400510181
   3.3867270627   13.5632082593   11.1832995676
   0.1216298135   11.3207244566    9.2689396159
  17.5296478786   10.7160358669    5.8484314950
  11.6412226332    2.1898769336   17.4832318934
   4.1797164488    5.6338857672    6.4040395879
   1.3356988572   18.4277826147    4.5926502988
  10.5930589668    7.1005642695    5.3819537329
   9.2071743483    5.8957822764   15.9201101830
  17.6012670169   14.0189989876    3.5881985832
   3.9895956594   13.6014194084    8.1435454833
  10.0743066157    6.9041244089   12.0809098049
  14.6587104821    5.6921506854    4.5956587171
   0.6068638158    7.4287842709    2.4496910846
   0.6813590995    5.0332131257   12.9738898533
  10.3447090897   15.5457712078   19.6316918302
  11.3620434145    6.4489653629    2.7972676871
  14.7982930773    7.9104078796    2.7190650528
   9.2167185114   17.3451998679   13.2576468308
  17.4156218185    4.3807066117   11.6685890454
  17.3484012573    6.2607129199   13.0630062140
  18.2699179306    4.6512622249    1.4453852386
   3.7009138810   12.6144876591   15.7353736886
  11.5966881847   19.1892424890   14.2277268252
   7.2355944348    9.8101208599    4.9411175852
  11.2814368019   18.4877215766    7.4888941024
  11.8766912012   12.9816045708    1.2085349263
   0.6187429766    8.9666880431   19.0683186583
   1.7108082106   19.1675524668   12.4200704494
   0.4477488727    1.2092782104   11.9668924928
  -0.2441263868   11.6578702718    0.2214146518
  10.5239943184   17.5298734025    3.9398703556
   1.1883367719   13.8690635406   15.4895291251
   4.3720132851   10.0101419217    6.1333728478
