B2 C140 Ca1 F48 H298 O66 
1.0
1.8998381100738460e+01 -5.2938053916666828e-16 -4.1692585310077478e-17 
-2.7319751229832709e+00 1.9770609269049274e+01 -7.7790371840648261e-18 
-6.1051767550779046e-01 -1.8101564016089039e-01 1.9282107272896074e+01 
B C Ca F H O 
2 140 1 48 298 66 
Cartesian
  10.4822997977    2.0853148503   16.6225067697
  -0.9563791013    5.4054899399   11.8352216879
  18.7673173735    0.3204846432    1.0661423246
   8.1934489875   14.4759980334    7.1820391865
   5.6991221872    6.7053589425    0.7691325576
  14.4457724473   13.0147879292   12.4451225573
   4.0536061817    1.5504604586   15.9536470599
   2.4928731534   -0.1337971737   18.7279863263
   1.2103193526    2.7047784174    4.2657729853
   3.2659791100    0.0456086010   17.3503340279
  -0.3322122550    3.2121287365    5.9435037874
   4.2949953748    4.7715594255    0.6132296795
   2.5875665217   15.7415799934   17.6265056428
   1.3895380845    2.0504003957   18.4263603162
  12.5960817264   14.9454476350   15.5690656627
   4.6418755440   10.1807050340    0.1842750747
   6.3981825776   16.2623903053    9.0686667683
  14.2548279461   11.4910960816   15.8584236595
   9.4777275449   11.4355855080    6.6919262279
  10.0281078287   12.9278720195    6.6266791211
  14.1135186334   11.4920105360   14.2936879041
   4.5829605284    7.7289953649    0.6831090003
  12.2151891287   10.7107268582   16.8849163867
  11.4861128415   10.2727072746    6.6162997947
   0.1889216752    4.3636740128    6.7581435508
  -0.0656141568    6.7370206756    6.7344840867
   4.8908776782   18.1235289203    9.3187065184
   2.6194764253   16.2622242004    0.8033839889
  17.3765639602    0.7468391840    2.9939824931
   4.0412017515   18.8120892880   10.3899826243
   2.4246688537   15.1234659850    1.8040799730
  13.9995478399   16.0796062379   17.0991736597
   6.1668309250    1.1654213635   11.0023298363
   7.7182989692   12.9366862248    3.6667848263
  15.8949883151    0.6768645171    3.4347014105
   6.2366003418   13.6814190584    2.0071595359
   6.2497344835   14.1266026328    0.5720902331
  -0.9181739116   15.0299610050   11.4800500898
   3.4550720467   13.6675714769    3.3320396426
  14.2293484650   14.8428657740   18.0385036619
   5.6176552796   13.4293842558   17.5984034265
   4.7065707203   17.4523884871    4.2385289807
   4.7356270273   19.6258364500    3.3931305098
   6.8709738936    1.1591339562    3.4246947001
   5.0007676314    2.0851208633    2.3288828783
  -2.0042368273   17.1119153274   10.9595420853
   6.4722816653    0.8482520677    7.1036256859
  13.3047785965   14.1797558654    8.6112371358
  15.5138212889   17.1710472623   10.6150106080
   4.1168854646   15.3457159579   11.9903559241
  13.7575402544   18.0903313043    4.1264627199
   7.5415065661    2.2717739028   17.8949177304
   8.8303687403    4.3535156866   18.7482611476
   8.6699790752    3.3321848049   17.6378077612
   4.1672223134   15.3918765516   14.3600631381
  13.3328829840   17.9629041562   11.3840432365
  11.6370153010   15.3034715260    9.9715451406
   9.7662442658    2.2791199569   13.0310386001
  14.2477516963   15.7357719495    1.0064835632
  14.1004950030   12.7204099488    5.4228479149
  10.9844569714   14.6422019916   11.0793540027
   4.8892075385    2.6497226268    6.5473785405
   1.5860821245   12.5822406667   11.7086561177
   4.3054433615   16.9071612651   14.6811194638
   1.0586747384   18.0393277328    7.8961507713
  10.8475471129    2.2324607916   14.1443354014
  12.1596656461    3.1376301626   13.9239403668
   4.9977034855    4.0105341400    5.9914770147
   5.5307031290   18.8890978550   14.2070704779
  10.3140392685   12.5892452689   10.2460823649
  -0.6187507244   13.1480125086    8.4665257521
  17.0316251494   11.3136366814    7.8584017689
  -0.7889133651   17.1086949380    6.7075141382
  -0.9764474036   10.4436398058    7.0521615943
   6.2574993732    6.0016718887   14.6804699533
  15.2422262639   14.4471193950    4.3538567860
  -0.7075241326   18.1998503472    5.5999741585
   2.9934344865   12.5175927759    9.6588785470
  16.9000354053    9.8525989724    4.9877950909
   4.0743697698    6.1940855796    6.3305201938
  12.1200497028    1.0499945691   18.1667609860
   2.5174503150    4.6195899461   13.0680794493
  10.0355719728   19.3443117960   18.3242921612
  16.6990194592   14.4819620216    3.7526365405
   7.4222703859    6.2926391335   15.7275998900
   3.5485312372   13.5635225071    8.5868441188
   9.0098146662    7.4158931364    5.4387409181
   0.2857623931   18.6735123863    3.6149694752
   7.9164477227    7.8780610649   15.5156381479
  10.5927164082    7.2130502763    9.7956228143
   1.2432141958    6.1738144264    2.6315822260
  13.0855883411    2.2644921396   18.4883360003
   2.1399133295    4.8187297611   10.6171052250
   1.3929910440    4.5719105847   12.0158851058
  10.8480472375    4.9146170898    3.5396787365
   9.6790601406    5.6553168605    4.2448699304
   9.2966829048   15.4899807295   18.1972869215
   9.6770778423    7.8415472678   10.9387371129
  13.7194724752    8.0652024792    3.4436338619
   8.8311849360   17.8238748739   12.2500737782
  -0.6053569227   13.0239032106    3.1061043801
  14.7700670091    5.1507663468    5.4432945401
   8.3046119053    7.9898018907   10.5296433488
  14.7680489127    9.6900979380    2.0270701688
  12.4745709084    5.2926492012    1.7817694098
   2.6594186256   14.7108462654    6.7662109325
  13.8254168510    7.2032725918    4.6323269982
  17.8711197776    6.5605488733    2.7496275664
   9.0961941788   17.4158898325   14.6327503137
   9.4151143963   13.2084626499   17.9864631752
  16.1394563970    7.4580156188   14.2842443374
  17.4215179767    7.2787263141   13.3833222636
  17.1597337176    5.7041780226    1.6732241338
  15.6024822180    2.7420073033   11.2333707818
   9.2262473804   11.8690697371   18.6692914690
  16.1210843389    4.2611061094   11.0141057003
  10.6364943540   17.6390798526   14.5468306269
  15.6457173340    4.6806317406    9.5972869144
  -1.1651172598    8.5743796801   12.5451755154
  10.8172056985   18.8541934492    7.0227805818
   2.7983801014   10.1785659365   15.2413715330
  -1.5331227111   10.6797914952   19.0000613373
   0.8672848986   13.0276869268   15.1696949642
  16.8655828256   12.9837421356    0.0413680392
   4.8575163280   10.1792646202    6.5206880827
   6.0926674808    9.2282213253    3.7295304963
  10.0409142193   16.5664378914    4.7462691388
   9.2319847876   17.7326840939    5.5253874372
   1.7854491323   12.2259269731   16.0391315116
   2.7030649005    0.4711665873   12.9389597456
   1.3272161516    0.9264272812   12.7295982871
   1.0591551015   18.1436439671   12.5766149919
   0.6162631576    1.1334348781   10.3299648606
  10.1676104117   10.9912200470    1.4681720674
   2.5238824866    9.9457605866    6.3761202540
   6.2095429331    9.6428822588    6.0648621083
  12.3501223455   19.3170176002   14.6904703738
  -0.9555213055    8.1382573128   18.4293823761
  17.3280468766    4.0472119986    0.1305531576
  -1.2384248035   11.8536034009   15.0631954538
   0.4076789306   10.3372993893    0.0841780498
   9.7869789569   17.4147218075    2.4781666338
   9.7318374428    5.7298989188   13.5806066418
   7.3077726644    1.5890267944   16.7327820035
   9.9422345899    5.0020145105   18.5385066396
   9.4574093369    3.5337810623   12.6073666571
   7.7864724523    1.2496693149   18.8483791898
   9.3969807278    3.9110174204    0.7275608729
   6.4183110200    2.9429756311   18.2486644370
   7.7463539185    5.2389311900   18.5192100731
   8.6686298447    1.5916780290   13.5327778021
  12.5443433002    2.9623166159   12.6062406636
  10.1897434284    1.6098377473   11.8912095974
  13.1228773012    2.8849651643   14.7703518590
   5.1435653472    6.8552100355   14.7288441492
   6.0123370942    4.7514303767   14.7758031406
  11.8176910857    4.4442796145   14.1618179636
   6.7810558336    6.1460259866   13.3596427109
   3.5062970426    3.7297689491   12.9083957698
   9.1476081861   18.4324553753   17.9742760893
   3.0806981025    5.8386946482   13.3746889854
  11.7331023070    6.8019585648   10.3981416599
   1.3320949511    5.0505442006    9.4922538275
   8.5756319711    8.0066436863   14.2934286222
   9.0140078811    7.9897741364   16.3873737431
   2.0056040069    4.1617024303   14.3135444281
  10.9692761072    8.2076793624    8.9975765091
  11.1198193176   19.2496961425    0.3200255413
  14.1817155986    2.0040523534   17.7614234160
  11.1396537471   19.2506206686   17.4898672603
   2.9556119340    3.7993262428   10.4735151918
  10.0809513488    6.2009588009    9.0228307762
   7.5036740385    8.2567281378   11.6009257411
  13.9877141167    2.4031625976    0.5565544515
  12.5834784837    3.4559743343   18.2371090206
   7.0724623747    8.9005860775   15.6938111743
   2.8977078763    5.9371903597   10.6766022689
   7.8003647852    6.8004968920   10.0087937634
  16.2539543245    8.5763920670   15.0241641228
   8.0598809323    8.9653616890    9.6603084487
  14.2559961222    2.5742607916   11.0170492658
  14.9185312536    7.5185749989   13.5715578711
  16.2861654455    3.8198687189    8.8149014584
  16.2621032314    1.7562554678   10.6335488041
  16.0233783901    5.9255249607    9.1663936510
  16.0120360794    6.3929834261   15.1610170227
  -0.1779648252    8.2636586961   11.7340067283
  15.8163761677    2.5061365814   12.5992606332
  -0.7248151558    9.6550646569   13.2698034427
  14.2670398043    4.5395221277    9.4743475017
  16.8292277681    8.9943369815   11.7116452562
  -1.0968156136   18.9016615807   18.4789572228
  15.0356348758   12.3115319575   16.1100373549
   1.3811765400    2.8343027957    3.2100898523
   6.5124963222    7.0434425349    1.4720570175
   6.1503501318   16.2484334908    7.9540658078
   9.3778367449   11.0421796121    7.7221953504
   5.7429531702    6.6094925990   19.1032899013
   4.5851802415    2.6615221723   15.7868025760
  17.5586452836    3.1357141288    6.0133035746
   0.4961131263    0.9603982003    1.6497995688
   2.3036406837   16.7934832990   17.2907174341
  18.2873231339    0.8164844268    0.1380709437
   8.1635241281   15.5675487743    7.2970264877
   0.8181378096    1.4521005227   17.7271636697
  -2.3140908602   19.2198391086    0.7492812995
  13.4502920858   12.8114304300   11.9479515154
   1.3707125208   19.1055212587   17.2592906789
   7.8295076631   14.2396251032    6.1769467627
  13.6288994679   14.7874816367   15.1663977863
   4.8521405364   10.6743341109   19.1519054300
  15.3462274302   12.5048796302   12.0239538152
   4.1984246167    3.8681048441    1.1949438582
   3.3335358822    5.3158661077    0.6143217844
  12.8041476388    9.8638589743   17.3202554130
  12.2228660043    9.9491884878    5.9062921299
   1.3166065657    1.5850261549    4.5983514434
   0.0829643105    2.2368272252    6.2729807320
  11.0768342640   12.9793167993    6.8485497970
   3.1734998768    1.5644995871   15.2968398186
   5.8424938799   18.8414734052    9.2721613994
  12.1505507694   14.1292075771   16.0413656318
  13.2065425409   11.0995029739   13.8493216379
   1.6550005623   15.1846586557   17.5397317893
   3.3665035085   15.3110423494   17.0432678454
  11.9993143802   15.3849451261   14.7308578040
   7.3380883260   16.8596456063    9.1197418781
   2.2640340082    2.6487927866   17.8665033114
   2.8553754687   17.1855029096    1.2916178618
  -0.7347479085    7.4520319860    6.2595391610
  14.7442496689   10.5529913236   16.0688142192
   1.9604153600    3.3078305916    4.6628244420
   6.4789907170   15.1912129601    9.3896083577
   8.5245506926   11.6300512010    6.1307316324
   4.4751873031   10.5835682043    1.2527222884
   7.5109997027   13.9287390341    7.8040071431
   3.0777674704   10.2220864106   18.9688721367
   3.9335480858    4.2666984126   18.8044065802
  14.7072076069   14.1175643178   12.3885118147
   0.9166143015   19.3546231871    0.2151210034
   4.8159088617    0.8275954663   15.5047032394
   0.7082372905    2.8388482649   18.9856529193
   2.6622707552   -0.1258545805   16.4814073600
  17.9654185296    0.4088282757    3.9063425662
  17.7127412341    1.7759779770    2.8596937359
  11.7743708270   10.3429126739   15.9391302288
   4.2622609568    7.9048855981    1.6875880445
   3.7962794306    7.4203127981    0.0154243057
   0.7843812670    6.9025531885    6.0905545842
   1.3168216194    4.5790867379    6.4278272636
   1.5992275700   16.3731099545    0.4294247096
  11.7918430085   11.0126428443    7.3486562571
   4.6091723436   18.8552358653   11.3691544872
  11.2026381454    9.4091383738    7.1995244277
  11.3941091822   11.1885655997   17.5065452914
   9.7926698141   13.3491313114    5.5653028595
  14.8581570630   10.7418197395   13.9267834088
   4.4510901809   18.0536688091    8.3430823174
   7.9268262635   13.9346859715    4.2122347722
   0.0809162481    4.1728521560    7.8343316773
   0.0071447219    7.0646503900    7.8043335143
   6.1615069004   14.5973001402    2.5233778462
   7.0870291708    1.4811965465   11.5373139426
   1.9968794792   14.1987413278    1.2423200742
  13.9087409295   16.9959037356   17.7392060850
  14.8054229669   16.2550427986   16.3046788513
   5.3906528086   14.8986407157    0.4804482913
  -1.6697245912   14.7553936569   12.3106335586
   8.5758162156   12.2457048658    3.8460555339
   5.7485922726    2.1387870890   10.6865352840
   3.1186994902   18.2404787151   10.5672432794
   4.6230316856   14.1110814196   17.3217938216
  -0.5425965243   14.1005266681   11.0553733498
  15.1515350658    0.3602658009    2.7156824222
  15.4926156191    1.4921158712    3.9384519568
   5.8056208940   17.3398794116    4.1360871298
   6.2708270473    1.0866977557    8.1498479333
   4.4885738336   19.1119599620    2.4667662092
   1.6425094525   15.3716037043    2.4790844055
   6.9823657448    1.5417134015    4.4670672756
   3.9143501287    1.9020404219    2.1225028140
  -2.1162790713   16.9912973258   12.0410040369
   2.4960663924   13.7656321835    3.9433149079
   3.1970270614   12.8601429252    2.6279543266
   6.7944581623   12.5618456569    4.2382941599
  14.1449890410   13.8137938605   17.5343439850
   5.2720759247    0.7719003629   11.5980174968
  15.2786277819   14.6724293376   18.3311085440
   5.6931640715   12.6002698902   16.9007134816
  12.5038409505   14.0091936514    7.8892676455
  15.3037834375   16.1323250191   10.3035882912
   5.2848372826   13.0935206791    2.0884491143
   3.6014361292   15.0201333562   11.0767918572
   4.1243525699   17.1312231486    3.3822946881
   5.1292935538   14.9870191956   12.0730632653
  13.6871527740   13.1920612860    8.6787570312
   5.3894484428    1.9456315332    1.3101388740
   0.0139505707   15.5155980278   11.9035946350
   7.2078494276   14.7426032459    0.4330838857
   4.2969701790   13.6837006016    4.0192173868
   7.5463954492    0.6321800638    6.8353026419
   5.8791931220    0.0110822980    6.9288372174
   6.4278857182   14.1432782820   17.4563841096
   8.6352682382    3.7945344881   16.6501792590
  12.9290100937   18.4912698626   12.1438040582
   3.7272916451   14.9110148940   15.1483792515
   5.1850176498   14.9322364208   14.2750324487
  11.0163284430   15.0295455562    9.1163372894
   4.2022281769   16.3943948742   11.8560027744
   4.3921007013   16.9657962048    5.1074554681
   5.8455482985   19.6502576757    3.3376830496
  -1.2953159470   17.9008929010   10.6042450855
  14.4676425838   17.9303327444    4.8826448236
   7.3156819462    1.7547440741    2.6606296247
  14.4003507097   18.2286212269    3.1966954671
  12.9456624802   17.3599215740    4.0898376073
   5.1650678431    3.1456197385    2.5800493114
  13.8967992143   14.8044523654    7.9774876998
  15.2735641848   17.7259743030    9.6916612086
  11.4918135114   14.9258339450   12.0242254229
   1.0586924198   19.0042927814    8.3746859883
   1.1743836395   13.4174861951   12.1593202208
  14.1487787051   12.0889007008    6.2313511691
  14.0398131757   12.1617402324    4.4704168810
  13.3031707253   18.4971836018   10.3691529516
  13.4486625972   15.3053898860    1.7378666675
  15.2592301302   15.6674623324    1.1413645104
   0.8334712796   11.9400277284   11.3047839309
  12.7889249816   16.9931324306   11.2984039299
   2.3957012197   11.9942597895   12.2706960581
  13.0966377253   13.2432707496    5.4003542657
   4.0451819224    1.9999239705    6.3020587372
  11.6625893136   16.3887752860    9.9179082195
  -1.0273362072   14.1126306795    8.8619821419
  10.0860948779   11.5358042956   10.5083979069
   4.8153634911    2.6466370311    7.6656721119
  14.0262176783   16.7603690354    0.8841098320
   4.9693870741    4.2212894662    4.9017946401
   5.8906676909    4.4424550473    6.5081790876
  16.4029735870   11.9594292424    7.2005087700
   6.3596927716   19.1014391227   13.5681381568
   1.3831653709   18.2517293236    6.7658563437
   2.0058547414   17.4272184640    8.3416639661
   9.9728362072   15.0453930714   11.1184053936
   4.2377065448   17.0589179068   15.8009299545
   3.3981074437   17.4126766577   14.2955196544
  -0.6440011094   13.2831455426    7.3845150459
  -0.4346748608   11.1259253381    6.3718270048
  11.2091642012    1.2453709238   14.2917776570
  14.5966166861   13.9901912161    3.5244372599
   5.7436226621   19.1708777027   15.2274381553
  10.6822521553   12.4216186445    9.2185718717
  16.9934180025   10.9590568884    4.8128463644
   4.5913327796   19.2725607395   13.8415126803
   0.0878169653   18.8852070219    5.8485387292
  -1.6484367282   18.7815823106    5.4627722680
   9.3382206537   13.0656981582   10.0868860891
   2.4322777665   11.7777115506    9.1346029626
   0.3696412405   12.9660381530    8.7701816106
  14.8241998979   15.4349354369    4.4423548217
   3.8856963204   12.0817836006   10.1345044158
  -0.2491186304   16.1151055466    6.2795303340
  11.2884570222    0.9884353309   18.9882951613
  16.2244181295   10.7993487943    8.4548371933
  -1.8055418352   16.7515331334    7.0637957947
  15.8023266221    9.6901327351    4.9937468219
   3.4457730484    6.6869150038    6.9640774090
   9.3877660245    8.2714519432    6.0735945546
   3.7173250751    6.6764054236    5.3379160526
  -0.1726511988   10.0578497012    7.6890751478
  -1.6501785299   14.8650321413    4.5053679169
   1.5333365536    6.0536350244    3.6886215416
  17.4027060362    9.3126185147    4.1502994051
   0.2111708576   18.3890217144    2.6211982638
   1.3310792693   18.8242597036    3.7881174270
   3.4335798640   14.7277205416    8.9007907746
   1.1824242689    5.1313206807    2.1102931436
  16.7385317095   15.1098753544    2.8803531105
   4.5624755997   13.3486021321    8.3333458879
  11.6313047774    4.6792838934    4.2955088179
   6.9805364817    6.2735775270   16.7468676811
   5.0935009260    6.5063515018    6.4429318716
   2.0899083808    6.6145279989    2.1038234776
   8.2017914091    7.8448778976    4.7986271351
  10.1136215340   15.7559973472   18.7862258946
  10.5241857860    3.9068085055    3.0346690269
   8.5298555230    6.6842133893    6.1772598565
   1.0380550089    3.5019328366   11.9813050503
   9.0610599085   18.8462492888   12.3300243350
  13.2422237710    8.9445063981    3.7420240329
   8.4802248052   16.2229580044   18.2574600354
  13.8415155479    4.4845720253    5.7639444514
  13.2089232671    7.5638268413    2.6296297054
   9.8247580351   17.2593889964   11.9424215426
  -0.2286279427   19.6488083463    3.7046612384
  15.3801400199    9.4908641875    1.1910950407
  13.3825045645    5.5728776413    2.2905776166
   8.9521648158    5.9500896721    3.4196633383
  -0.0367439578   13.2503065872    4.0252933199
  15.0687320155   10.6708532343    2.4315377825
  12.3541177278    4.1798797978    1.5397950954
   9.6295244132   15.3160808246   17.1307969972
   9.1816478659    4.8862664599    4.8676228490
   8.0416114042   17.7769461906   11.5224208186
   2.4812065906   15.5173926654    7.5123154514
  -0.3993374671   13.7843740507    2.2768072552
  10.0712048832    8.7836806430   11.4344891362
  15.1525399145    5.7808732339    6.2861492622
  -0.3798770137   12.0925632773    2.6286011209
  17.2075656027    7.3611365607    3.0643424034
   3.6166698587   14.7914360781    6.3377559750
  15.5508020556    4.4130028348    5.1846279039
   8.6455402302   18.2460385768   15.2104530642
  17.9363930733    5.9619062296    3.7460692366
  12.8766951897    7.1573056463    5.0432671856
  13.7484096718    9.8334374116    1.6906951610
   1.9624188788   14.6429693055    5.9693732365
  14.4063555442    7.7665445419    5.5138161613
  12.5329554531    5.9338675155    0.9592851662
   9.2396403947   13.0759422861   16.9080692975
  -0.7408974505    6.9337064316   14.1055363686
   9.5619100555   11.0807644145   17.9571691634
   8.9824935891   16.4936812091   15.1619178228
  10.5588229266   13.2865837219   17.9991058643
  16.2219516590    5.0921395050    2.1452525479
  11.0561119869   16.8904236427   13.8348671875
  16.7591643830    6.3320490836    0.8457682883
   8.1604340205   11.5776661160   18.9676420828
   2.7649763740    9.8855659473   16.3490889200
   0.3402332336   13.8151656667   15.8597409538
  11.1423455005   16.7034213167    4.6419725254
  13.3864352565    0.1766513843    6.9389739579
   4.9002955825   10.2553450099    7.6216755711
   6.4262529045    9.6452737834    2.7260231221
  11.1744962454   18.5219447899    8.0376126778
  17.2199398909   10.5445592486    0.3138041948
  -1.7797155802   10.3688277332   17.8856530001
  15.5166795336    4.9261217163   11.6710067519
  -1.9024495448   14.0046590189    0.2298425785
  15.7440261826   12.6674271688   18.4197422294
   0.5252140564    0.0648858761   12.7365690851
   3.4648161435    1.2005715643   12.8678904901
   0.5677556775   17.6488274339   13.3991400752
  -0.4000098404    0.8249195854   10.7148297729
  11.0833035191   17.3975921693   15.5786463835
   4.7358451101   11.1829359876    6.0300475269
  -1.8895725397   11.4744855960   14.2732422425
   9.2900058600   17.0947056330    1.5460893905
   2.3890101685   10.1887819974    7.4610635381
   2.1592131965    9.5624531708   14.5538196149
   9.3381015519   18.5796044315    4.7881001353
  17.1865420935    8.3209663977   17.7612708040
   1.5227300181   13.4335416420   14.4101707612
  10.6513164121   11.1734624548    2.4454214034
   2.3740584423   10.9402718094    5.9248943277
  15.4810039011    0.3014602545   13.9779832815
   6.7315984976    8.2952442334    3.8168933754
   2.3047361232   12.8629178949   16.6844526946
   2.1826022669   18.4209460167   12.8662862953
   1.2489351376    0.2865541492    9.8123378400
   9.9354180650   15.5968796948    5.2424940651
  -1.0451286298   10.8706472162   15.7022478201
  16.8082642465    3.1911663988    0.4342880945
   3.8456346481    9.7622089663   15.0117604166
  16.3797614453   12.6329550071    1.0061685381
  11.6734016044   18.6313930371    6.2969991087
   5.0007869917    9.1293475219    3.7449684980
  10.5217720185    9.9649018703    1.0906142700
  15.8364395567    4.4217308813   18.8355768672
   7.0181756331   10.1114714798    6.6301860370
  15.1136497282   -0.0224823333   15.7379478279
  -0.6978432042    8.0940618935    0.1552849064
   9.3740659119   18.4602440567    2.6170053469
  -0.5165616752    7.2013304064   17.9720032575
   2.9794724256    0.0008843192   13.9266223639
   0.9324743350    1.5680387814   13.4803657068
   1.1357162271   17.3728692231   11.8901618504
   0.5349402034    1.9158877653    9.5606937005
   0.3601887589    9.8620930993    1.1524886220
  17.4304360997    3.7023058296   18.5840719718
   1.2838383454   10.9534729859    0.0716487450
   1.2662583685   11.4782409309   16.6241651485
  13.0994734835   18.5117746473   14.5771766640
  10.8647459344   17.6749852074    2.4306587940
   1.6801113793    9.2287895029    6.1313485488
   8.2206194905   17.1769046178    5.4870270603
   6.3082910126    8.5434106118    6.0502230858
   9.1389130021   10.9835532275    1.4580813588
  -1.8741175424   12.5941980448   15.7074386281
   5.2005352066    8.8668374126    0.0985897087
   9.4785974325   13.9787721345    7.4839471028
  14.4040719172   12.8451305342   13.8543789700
   3.8349529493    1.3860602207   17.2928649431
   2.7183687884    1.2558417727    0.0165753048
  -0.7336429298    5.4878020773    6.6294960518
   5.2932026504    5.4316015482    1.2985944626
  -0.0846534796    3.2514856462    4.4960784288
  10.3459926846   10.6959119471    5.8440005014
   5.2982974928   16.7882380590    9.7863856528
  14.8778288109   19.6941147911    1.8389457223
  13.1789802686   11.7734074409   16.6426344272
   2.9978983420   15.6841465159   19.0727698041
  12.6369158693   15.9862274376   16.5687778399
   6.4194376674    0.2746308588    9.9706235000
   3.5063761639   14.8772743791    2.5832753904
   7.4426987912   13.0281516028    2.3079111926
  12.9639900631   19.3180772063    4.3751156896
   5.5187794521   12.9145661949   18.9037253706
  -1.4312869307   15.8651404766   10.4443043914
   4.4179788636   18.7881572668    4.5270967165
   5.4070964194    1.1141752783    3.2738260545
  13.3360840176   14.8302263514   19.1565567874
   6.1427034959    1.9774822287    6.2612623135
  14.7245443327   17.7435910295   11.7201079345
  13.0197357127   14.8725869325    9.8453999575
   3.3461135617   14.9789600315   13.2148007670
   5.4857709018   17.4503906863   14.1784241157
  10.2448093130    2.5682709526   15.3705605998
   9.9423578380    2.6894420538   17.7022468570
  -0.1172011787   17.4473251705    7.9638523548
  11.0412091541   13.2105156758   11.1979815778
  15.1464715155   13.6471914900    5.6317774847
   2.1991607373   13.1815980424   10.5820767874
  -1.3991526416   12.0512923921    8.9285514414
  17.4245896992    9.5132813860    6.2917915045
  11.5649209238    1.0812267259   16.8314993491
   3.8642625006    4.8444559021    6.4890045882
  -0.2628481108   17.6677218527    4.4166184474
  10.1674267215    6.7831127467    4.8588105790
   8.4436633330    5.3916346759   15.4667060632
  17.0346335913   13.1683486539    3.3305819741
   2.6594773412   13.5189890477    7.4508130483
   9.6398334740    6.8821354004   11.9194110391
  14.4512165909    5.9838355068    4.3213495413
   0.1116211526    6.9833503093    2.3123244298
   0.4355775751    5.5950322050   12.1909625943
   8.6652540228   14.2675709970   18.5399025203
  11.3309692142    5.7378449462    2.5174479331
  14.9255217587    8.6110563421    2.9420076886
   8.3752231993   17.1866112249   13.4088569805
  17.5639591952    4.2659729395   11.1578896875
  17.1149692682    6.2649517789   12.3847955378
  18.0680239790    4.7229748525    1.1242817312
   2.8323088454   11.5322315716   15.1994933477
  11.0406352739   19.0572049777   14.1690596395
   6.5418100896   10.1131087972    4.7322426063
   9.6114016000   18.0339741208    6.7899500568
  10.6094179488   12.0160422774    0.5821759091
   0.1910390989    9.0614269738   18.4532201970
   0.3530820541   19.1984162727   12.0425067345
   1.3004893919    1.7308383646   11.4363753699
  -0.8652037237   12.3042584814    0.0005171758
   9.4802328027   16.3206064623    3.4080205735
  -0.1355575963   12.3269510434   14.4710444451
   3.7692106310    9.3088911504    6.1089277392
