B2 C140 Ca1 F48 H298 O66 
1.0
1.8918065873135188e+01 -1.0880274211158868e-16 5.6984528076523649e-17 
-2.8807268133372439e+00 1.9839324893920320e+01 -1.1461761438551656e-17 
-3.5820774044216014e-01 1.8379162160056570e-02 1.9381939401837492e+01 
B C Ca F H O 
2 140 1 48 298 66 
Cartesian
  10.6761862669    2.2588261872   16.7759986670
  -0.9217541693    5.4816718387   12.0015448554
  18.7688809111    0.2628208766    1.1776205200
   8.1562571642   14.4751266106    7.2832771914
   5.6067177212    6.6994955380    0.7102727379
  14.5331393273   13.0119262264   12.5508405132
   4.0950379491    1.9746218651   15.9654305447
   0.0037779581   19.8345955771   18.8832972433
   1.1529078494    3.1153133984    4.1244662788
   3.5076090382    0.1479464849   17.4876682840
  -0.2976682801    3.2248358601    5.9260765911
   4.1309570454    4.8352310714    0.5437521061
   2.6562605061   15.9819759531   17.8046587835
   1.3766786044    1.9392598867   18.5744698924
  12.8380161527   15.0364438399   15.3825927396
   4.6384974793   10.1183043160    0.3635108832
   6.1431172178   16.2731457021    8.9010699167
  14.3259284377   11.4789238338   15.8558008084
   9.2270726173   11.6436632735    6.7243329281
   9.8762365673   13.0623333279    6.6607224817
  14.0415307069   11.6265876098   14.3222130719
   4.5404703113    7.8285188499    0.5641948025
  12.2504098563   10.9484805024   16.9935263119
  11.3314247577   10.5103954487    6.7496366836
   0.1871858641    4.4966249177    6.6509041990
  -0.0368109697    6.7713745081    6.6485480119
   4.8504636873   18.2664432843    9.3829264449
   2.3502020527   16.1642264769    0.7598026429
  17.4644450002    0.7319217132    3.0397707110
   4.0075020362   18.9027273008   10.4175837586
   2.2845069611   15.0521319765    1.7421312460
  13.9102118868   16.3241597320   17.2600856792
   5.9853581946    1.1547170022   10.9734633414
   7.6081485989   13.1087939068    3.5894321194
  16.0330073339    0.6646389142    3.4637464639
   6.0285207714   13.7907496780    1.9927032860
   6.0152708234   14.4245743950    0.6377655692
  -0.8555117647   15.2126445986   11.4304852124
   3.2885766953   13.9272835738    3.5643332158
  14.3238831257   15.1376377286   18.2126576558
   5.6742411551   13.8411284819   17.7072891798
   4.5767907022   17.5539259888    4.3906103257
   4.6411710038   19.7211890998    3.3693003489
   6.9980055119    1.2763986599    3.4593236972
   5.1143700797    1.8442099250    2.2924691125
  -2.1200706992   17.1489528694   10.9205951381
   6.3678057149    1.1083884168    7.1801748987
  13.4424902966   14.3859791105    8.7426224454
  15.3061721054   17.3591002966   10.5860169782
   4.2312261579   15.3176552077   11.9789541092
  13.6451219270   18.2082667490    4.2941213002
   7.6320317348    2.4871299178   17.9222374578
   8.9300953180    4.5630612680   18.8189488583
   8.7824093895    3.5311174560   17.6680612315
   4.2286667602   15.6755082906   14.5584391146
  13.4099765607   18.2540254416   11.4659705575
  11.6374556684   15.4933776844    9.9775798554
   9.8756186801    2.3208355707   13.1165702475
  14.2343691187   15.4663433467    1.0629360951
  14.0613550162   12.8756154211    5.6890472867
  11.0602167555   14.8329352081   11.2018691783
   4.8229703276    2.6965024522    6.4822937167
   1.7752644296   12.5439710098   11.8409180682
   4.1826007998   17.1735892312   14.6905401750
   0.9069504359   17.8761877079    8.1616377246
  10.9976929516    2.2393001539   14.2233211051
  12.2154900967    3.2006682159   13.9703192129
   4.8542108625    4.2188231149    6.0896604638
   5.3026683742   19.0825561846   14.2968098911
  10.3517829635   12.6748553260   10.5375508364
  -0.8198692793   13.3164434686    8.4726952742
  16.9554404784   11.2312841232    7.8210191951
  -0.9540280460   17.4359283372    6.7454048640
  -0.9197290904   10.3958054973    7.0579568980
   6.4449255781    6.1375690718   14.6714041970
  15.1495683088   14.5972715729    4.5460177056
  -0.8317137645   18.5529443037    5.6540191552
   3.0622125965   12.5010155219    9.8662714458
  16.9088725901    9.9795047219    4.9700174489
   3.9201894427    6.3385501965    6.3425348576
  12.2508648183    1.2963292358   18.2726248906
   2.5620538183    4.7421589538   13.1812829977
   9.9199031508   19.6906364368   18.2951567613
  16.4544953232   14.5679388904    3.7428809366
   7.5452896009    6.5235599669   15.6233841281
   3.5116034416   13.4403196175    8.6924339486
   8.9088988941    7.4511853669    5.5801526171
   0.1068101055   18.9028767298    3.5418781893
   8.1069461562    7.9403068497   15.6336711625
  10.7878210044    7.3826314943    9.8237434648
   1.1262573847    6.1527336269    2.6951093539
  13.2376747500    2.3826349784   18.6175286353
   2.3159370751    4.8970770436   10.7683952268
   1.4998450907    4.6186956958   12.0187831727
  10.8536909278    5.0867465147    3.5180879026
   9.4791303317    5.5970496068    4.1519429702
   9.2937004098   15.7090317888   18.4779618161
   9.7311572549    7.8649850098   10.8669393178
  13.6912759618    8.0243115417    3.4690383133
   8.7006822434   17.9239103808   12.1723644391
  -0.7858860372   13.2761465789    2.8951266160
  14.7599793466    5.0631271968    5.5258457988
   8.2573292084    8.1485653581   10.4674781493
  14.7804873804    9.5904252751    2.1083573862
  12.4240470874    5.2110291429    1.7429937974
   2.6438239746   14.8335772078    6.9701430241
  13.8869503174    7.0763961103    4.6253407190
  17.7361838026    6.4188467967    2.8762622337
   9.0179440155   17.5850305401   14.5513754681
   9.5470769405   13.4613550892   18.0467410003
  16.3057908482    7.5851917442   14.3604610768
  17.4240626701    7.4317942537   13.3073200541
  16.9416704302    5.7163708818    1.8600129777
  15.6617163692    2.9004607148   11.4498529671
   9.3575411368   12.1512741579   18.8968663096
  16.0795805027    4.4045775977   11.0917770585
  10.4324123620   17.9108813404   14.7098307076
  15.6600397265    4.6450642771    9.6112131721
  -0.9798245960    8.6363484384   12.5573860144
  10.6529149123   18.8685282834    7.0281822742
   3.0031571060   10.5255991850   15.1964655598
  -1.3564286496   10.9786503927   19.1236303220
   1.0470121855   13.4851620050   15.3743036958
  16.7488706862   12.9524714633    0.1669699781
   4.7982699848   10.3889017935    6.5817711609
   6.0108324545    9.2658921867    3.6234256138
   9.9183805373   16.7967500441    4.7537841859
   9.1198805121   17.9046483876    5.5895018837
   1.9481124832   12.5433333488   16.2113607926
   2.8780104264    0.4465923921   13.1282649074
   1.4849719013    1.1306723642   12.8291540619
   1.1683179926   18.3605087322   12.6025184129
   0.5691804337    1.3673986831   10.6654068892
  10.3153189086   11.1293331621    1.5894805392
   2.4291751047   10.1213357310    6.3825337491
   6.0772173250    9.9179930802    6.0143333374
  12.2555271215   19.4432407985   14.6252815714
  -0.5234658153    8.1361782783   18.4862879493
  17.1544147038    4.1141834112    0.0505934239
  -0.9699622865   12.2567329020   15.2643591713
   0.2769652223   10.2047991162    0.1398166281
   9.6637150251   17.7723140574    2.5411446737
   9.6749055342    5.8683905501   13.6891259766
   7.5575640746    1.8130360203   16.7520902098
  10.1347532003    5.1346888258   18.7497251478
   9.4410997342    3.6237227074   12.9633995624
   7.9886907678    1.6883720782   19.0445173553
   9.2146475245    4.0659027182    0.6775526652
   6.5175735263    3.0215129883   18.2447926691
   7.9566820143    5.4599314376   18.8347641634
   8.7828363852    1.6573159950   13.4704170824
  12.5833897794    3.0356501487   12.7046171744
  10.3313281192    1.8172947019   11.9363863824
  13.2107929505    2.8669460282   14.7953884203
   5.4016712170    6.9219280138   14.6475288313
   5.9492912140    4.9324899512   14.9224311962
  11.9347522885    4.5711597282   14.0886025249
   6.9295562524    6.2650824154   13.3501022885
   3.7270450059    4.0209213581   12.9411228147
   8.9728214500   18.7861975823   17.9624467885
   3.0594278739    5.9641380823   13.3963919196
  11.8941030844    6.9027863873   10.4270239574
   1.3669940165    4.9663839367    9.7344075999
   8.7358808784    8.2274692304   14.4142918407
   9.0903335619    8.1729739539   16.6937434282
   2.0644202417    4.3169085229   14.4189726049
  11.1217356694    8.3596466595    8.9854838507
  10.8959785344   19.4696967805    0.1257320998
  14.2984366898    2.2734592415   17.8046141219
  10.9371130054   19.5991417654   17.3077408408
   3.0590100999    3.7106780685   10.2930594489
  10.2621253245    6.3812642840    9.0856325114
   7.4457020902    8.5435306955   11.5256372912
  14.0071778968    2.5160786558    0.4833469004
  12.5783406072    3.5572115656   18.2224939812
   7.1650537723    8.8553080679   15.8569972560
   3.1219071261    5.9778019448   10.7879869487
   7.6022979653    7.0033466269    9.9568926226
  16.5077369600    8.6779898771   15.0325016735
   8.0609551280    9.0822730834    9.4865763109
  14.4437772127    2.6333707204   10.9806703603
  14.9894398233    7.6640126343   13.7401361482
  16.3179708027    3.7695049902    8.7973414501
  16.4661404937    1.9509464794   10.9536826998
  16.1500317431    5.9446525825    9.4100208386
  16.0755155034    6.4501649726   15.1714509178
   0.1387726314    8.1695809900   11.9229997970
  15.6691386644    2.8005520805   12.8531250670
  -0.6731930631    9.6742171422   13.3781785691
  14.3277781950    4.7329449128    9.3474166877
  16.9801843569    9.0511646993   11.5966597405
  -0.7612289441   18.9907925447   18.8554164085
  15.1895702575   12.1587768129   16.0990965723
   1.1171794383    3.4449631091    3.0699630163
   6.4603090147    7.0184413931    1.3434717077
   5.5559630871   16.1850733165    7.9616129492
   9.2135313760   11.4299635771    7.7965488684
   5.6822036431    6.6485210750   19.0190801884
   4.3877245775    2.9383319702   15.9996010692
  17.5315085026    3.0782042769    6.0087136743
   0.6146619478    0.7885541039    1.7279961294
   2.3800683334   16.9563226316   17.3613755424
  18.2541180683    0.8795075187    0.3465615991
   7.9916247407   15.4944133606    7.6333385954
   0.8438304309    1.1641239677   17.8729385449
  -2.5230240533   19.2096775312    0.7647568813
  13.6031938929   12.4177298416   12.1603431571
   1.4712454712   19.3047230329   17.4281969087
   7.8215768953   14.3173828632    6.2070381661
  13.8178683745   15.0254172296   14.8708016413
   5.3568993182   11.0785732257    0.2498458806
  15.5342815039   12.5615708502   12.2899422960
   3.6996326619    4.0108694127    1.0983184525
   3.3262409332    5.5488241333    0.2963733674
  12.5805164879   10.0204972964   16.5179745521
  12.1744037750   10.3465604947    6.0419677387
   1.4274635025    2.0122642567    4.3027559386
   0.2214110691    2.2658603000    6.2429017669
  10.8768379521   12.8666905954    7.1088941634
   3.1049591196    1.9801886591   15.4267380173
   5.6657287002   18.9481921859    9.1487947570
  12.5653480928   14.1022562085   15.9749013815
  13.0596536404   11.4477978079   14.0585339674
   1.7478706846   15.3882167380   17.8223492025
   3.3684102090   15.4238309386   17.1587867519
  12.0738576146   15.2902547603   14.7240889777
   7.0962960203   16.8437200646    8.6197039678
   1.8942791801    2.7034208939   18.0316068681
   2.5763738959   17.0250598164    1.4046561630
  -0.7687774903    7.5837702839    6.4508683993
  14.4902322885   10.3940610409   16.1463051633
   1.9399517120    3.7857774692    4.5181412831
   6.4367910179   15.2873983751    9.2738649318
   8.3010753206   11.5575603546    6.1737594004
   4.4412938428   10.1114248149    1.3950699978
   7.6003356719   13.7400015685    7.8341459496
   3.6427563892   10.3501454215    0.0585992166
   4.1796866922    4.3716393648   19.0798752609
  14.6088294180   14.0367878585   12.2160601599
   1.0986004091   19.6525447831    0.3853637251
   4.9117486647    1.4061644255   15.2155826067
   0.6189457571    2.3775481973   19.1824767763
  -0.1025039068   19.7766543299   16.7305197313
  18.1805791927    0.5379384561    3.9083262978
  17.6758279222    1.7694971046    2.8113738962
  11.3625741570   11.3060688060   16.2332913925
   4.3339438110    8.2453899307    1.5827176562
   3.6272946283    7.6203018561    0.0752145176
   0.6692642712    7.0902035775    5.9185778785
   1.3156596149    4.5857329954    6.3142344236
   1.3296609206   16.4098458155    0.3066342691
  11.6551735825   11.0231225393    7.6256028696
   4.4897273849   18.9283674078   11.3588313132
  11.1556428065    9.4978000588    7.1832827989
  11.9537826965   10.9926311698   18.0197889546
   9.9133834466   13.4180241784    5.6184232344
  14.6258613916   10.9340637335   13.5577862641
   4.3956217145   18.1597637516    8.3716197303
   7.6589039402   14.1198205398    4.0617722999
   0.0792984160    4.2107082867    7.7268258795
   0.1342858767    6.9925533051    7.6865075883
   5.9911457031   14.4818250618    2.8258900800
   6.7812267256    1.6818625274   11.5538692577
   1.9004657836   13.9798535143    1.4016231315
  13.8440623111   17.2766433272   17.8202261838
  14.8793871660   16.4503464941   16.6629325835
   5.1110487351   14.9997113715    0.4272657069
  -1.6285016248   14.8607771854   12.1007299728
   8.5406726736   12.6292227462    3.8526133685
   5.3914148089    1.9509903475   10.5365685045
   3.0224470918   18.3337502622   10.6179953159
   5.2676930600   14.9570299174   17.7397144032
  -0.3535549364   14.3468777604   11.0239417882
  15.3475124070    0.6618543788    2.6433318371
  15.5824209611    1.5028245944    4.1421118123
   5.6305934855   17.4020051829    4.6932087086
   6.6727501818    1.4946260110    8.1128432425
   4.3416022208   19.2546171431    2.4246654554
   1.4785855107   15.4046704972    2.3198638004
   7.3561982236    1.7680267702    4.3722326778
   4.0887675275    1.6185546831    1.9873493717
  -2.3168396576   17.0089316179   12.0209502936
   2.6164201543   14.3369164230    4.2281381296
   2.7230076780   13.0312195715    3.2319350842
   6.8222254010   12.6761485655    4.2256586550
  14.5905871996   14.2558855286   17.6975537183
   5.2047959724    0.6320441300   11.5419226932
  15.3493242352   15.4458855374   18.5675546286
   5.1103479148   13.0844214239   17.1495613156
  12.8819408572   14.2914958766    7.8823267184
  14.9131977845   16.3476633418   10.1434586401
   5.3200323680   13.0222793041    1.9518231720
   3.4577366158   15.1057550525   11.2539180767
   4.3783208594   17.1914039548    3.3929558485
   4.9808961725   14.5370502116   11.9868682266
  13.4752183224   13.3645508898    9.1485551128
   5.6308994762    1.6493947512    1.3313338962
  -0.0976435895   15.7974773537   12.0545117186
   6.9637536622   15.0503478978    0.4707700912
   4.2780592991   13.7045300268    4.0090145470
   7.0543334474    0.6221608325    6.6014827307
   5.5279663065    0.4658233228    7.4746756765
   6.6779942464   13.8972388633   17.2365631077
   8.7598307181    3.9633123379   16.6309667116
  13.0171457591   18.5531389352   12.5020654677
   3.5265962949   15.1452285461   15.2739212458
   5.1702910242   15.1622124192   14.6624532469
  11.0198535520   15.1293196224    9.0578753025
   4.7716015696   16.3218680962   11.7896048509
   3.9514670145   17.0964842714    5.2227515244
   5.7164475699   19.7454824243    3.3355708879
  -1.4825654692   18.0111573960   10.6544821764
  14.3944697984   18.3080623113    5.1460692465
   7.3913456321    1.7816282875    2.5859934641
  14.2619853989   18.3063048280    3.3841511977
  13.0648394273   17.2509005502    4.3394440699
   5.2055626723    2.9571212599    2.3499988991
  14.4107577592   14.7159777238    8.2951149584
  15.2319918365   18.1546631384    9.7324858604
  11.5732639756   15.2249322729   12.1038722092
   1.2535407120   18.7738637697    8.7744059564
   0.8949971707   13.1303197296   12.2384943179
  14.1562074629   12.2855260855    6.5544176097
  13.7588030445   12.3484850946    4.7996341375
  13.4904447418   19.0086862368   10.6542130196
  13.6244997741   15.1301395506    1.7782779243
  15.3029243296   15.5358098947    1.1405186611
   1.5360403515   11.6227034927   11.2482595971
  12.8540215859   17.3849290387   11.1772519871
   2.7631300487   12.4110739499   12.4349098875
  13.3015676231   13.5712732428    5.8891323623
   3.9322780500    2.2740255215    5.9832203002
  11.4184151765   16.5499531597    9.9759803338
  -1.3674909298   14.1387470962    8.9061206968
  10.4659739752   11.5879396916   10.8743090528
   4.5056457794    2.4738337578    7.5368617226
  13.8883958686   16.5061123023    0.9164021876
   4.7937428726    4.3184830316    4.9989019013
   5.8187137678    4.6144082931    6.5458159285
  16.1435856478   11.6791892455    7.3353796558
   6.1845869329   19.4309458729   13.8138433114
   1.2811546599   18.0958038769    7.1124945845
   1.4153861103   16.8615648300    8.4920413065
  10.0505309040   15.1945848697   11.1904970147
   3.7870032587   17.4186812050   15.7117026220
   3.3301248131   17.4302081579   14.0498348363
  -0.9707083494   13.4533464871    7.4032951486
  -0.1981606383   10.9169404625    6.4147260963
  11.3408558617    1.1804075958   14.2942782754
  14.3042402501   14.3220277109    3.8938167400
   5.0964143896   19.5006753975   15.3197973615
  10.5175630493   12.4471171933    9.4558749278
  16.8075965391   11.0521158968    4.9641780916
   4.4469318053   19.2551320029   13.5217209785
  -0.0500444748   19.2113039607    6.0012483713
  -1.7741831536   19.0991425628    5.5339754675
   9.2225605409   12.8917525981   10.5842170084
   2.5299828281   11.5454957198    9.5429272888
   0.2696157176   13.2903515203    8.5827807515
  14.9665476715   15.5432912178    4.9501180410
   3.9181731625   12.1732049624   10.4419875452
  -0.3779190709   16.4945797574    6.3867115002
  11.4953111194    1.1463304754   19.0792137916
  16.3831750874   10.4700052111    8.3955347894
  -1.9092907373   17.0481386159    6.8284750619
  15.8539756130    9.5980825005    4.7808739318
   3.0730339197    6.8021554677    6.9082681175
   9.4223094999    8.1213133174    6.2965268893
   3.7150601840    6.7001357854    5.3341389602
  -0.3024381252    9.9057449519    7.7766210753
  -1.6211325908   14.9610658318    4.3576755314
   1.0480857825    5.8139958315    3.7846025375
  -1.4290925592    9.5845144442    4.1122596115
  -0.1079640298   18.4840031546    2.5121903787
   1.1435872697   19.0862771638    3.6378586780
   3.6490536573   14.4651116863    9.0480430740
   1.1625262643    5.3401204260    2.0016512694
  16.4040494174   15.3190390453    2.9198657699
   4.5793588608   13.1231083687    8.4023254004
  11.7525068346    5.0410078519    4.3109056314
   7.0034033370    6.5218707621   16.5835169253
   4.9067179511    6.7811735438    6.6669301665
   2.0758933246    6.7413555213    2.7196631979
   8.2084446390    7.9443979978    4.9851098929
  10.4682250884   15.7179759436   18.5959268182
  10.6467415926    4.0360036129    3.0652325041
   8.3717574965    6.7530058449    6.2158578957
   1.0913883149    3.6636517636   11.9997477805
   9.1141221109   18.9475359732   12.2677699620
  13.1129008652    8.9369726720    3.6957144016
   8.8278743999   16.3834864524   19.2082596847
  13.8083470741    4.5920791158    5.9301070025
  12.9787997620    7.5172674190    2.7425592862
   9.4517263810   17.2538490759   11.6485181100
   2.4945679759    0.0157163912    3.6202703703
  15.5769457147    9.4969131856    1.3018952300
  13.4292778133    5.4237009425    2.2421826323
   8.7528861155    5.8085068293    3.3320323272
  -0.2004469297   13.5624161821    3.7558805090
  14.8578141470   10.5596870012    2.6313368292
  12.1755838151    4.1950235117    1.7631593311
   9.1029001310   16.0324011593   17.4785284618
   9.1210336241    4.6981982834    4.7553414270
   7.7474941379   18.0421395318   11.5125560428
   2.2315348209   15.6553761693    7.6353293225
  -0.5723051155   14.0460846123    2.1751300071
  10.0889076582    8.8243936976   11.2763104223
  15.3933045834    5.5746441915    6.2481372885
  -0.4189983960   12.4321630437    2.2679689156
  17.0646919426    7.1726696866    3.3462299204
   3.6623450684   15.0698190169    6.7725658179
  15.2696649486    4.1174819108    5.1082290268
   8.4131517296   18.3409559952   15.1189403676
  -0.8872871881    5.6884978802    3.6740000732
  12.8830505331    6.8863385199    4.9439850411
  13.8098770957    9.6448863181    1.5615068524
   2.2027477383   14.8458239246    5.9964643653
  14.3509158129    7.6745137490    5.5389433630
  12.4628495935    5.6711971441    0.7244601570
   9.2736541113   13.2626606821   16.9860253947
  -0.5836870482    7.2051595180   13.9469007657
   9.3527666423   11.2177820693   18.2897792020
   9.0831375058   16.6039167314   15.1140366521
  10.6654365963   13.7353404568   18.0139610736
  16.0779357486    5.1318055084    2.4245034398
  11.0602889516   17.1101395837   14.2099164395
  16.4475060225    6.4500389631    1.1678875559
   8.7053003443   12.2573113417    0.0456063091
   3.3794281635   10.2456847619   16.1248827529
   0.3408939133   14.0647162660   16.1929664601
  10.9980969952   17.0842150736    4.7126959940
  13.1812518799    0.0711965525    6.8964909957
   4.9258469129   10.3145715464    7.6691851988
   6.4090123848    9.6046037264    2.6594771755
  11.3257625554   18.5488834310    7.9355437796
  16.9419073420   10.5622658317    0.1606020423
  -1.4881787276   10.7179780942   18.0202240493
  15.4459774821    5.0496383450   11.6436520078
  16.7796640615   14.0578155881    0.3181468922
  15.7935222133   12.7794060249   18.6079676854
   0.6517669288    0.3229898289   12.9323812370
   3.8397596166    1.0695644912   13.2569078359
   0.7743865403   17.6450973247   13.3321823984
  18.5373098083    0.9875976160   11.1938789783
  10.6335785265   17.8689911854   15.8317196991
   4.5717975698   11.4227272066    6.2304360079
  -1.7866231985   11.9143421328   14.5626931216
   9.2643392990   17.5030595661    1.5312672663
   2.3213860507   10.5964049252    7.4490941547
   2.0600342362   10.0017241077   14.8238911029
   9.3169826160   18.7311554395    4.9387990026
  17.3506723263    8.3096226796   18.2453269843
   1.6730652510   14.2142749856   14.6890835545
  10.8172673801   11.4728096075    2.4822729091
   2.3179195044   11.0815074694    5.7645217927
  15.3655450306    0.4141412556   13.9591270464
   6.4712019203    8.2353050680    3.7242568465
   2.5056070253   12.8678858338   17.1415239019
   2.1458826405   18.8447919832   12.9172169267
   1.0600354275    0.7138804565    9.9641366345
   9.7942337657   15.7237573397    5.1437142135
  -0.5585100510   11.2457529222   15.7742479305
  16.8205737079    3.0607588341    0.4109050235
   3.8625689145   10.1986889016   14.5323123270
  16.2295581060   12.5903687391    1.0084112893
  11.2686285186   18.6558197233    6.1217061411
   4.8249466769    9.2696189274    3.5308530109
  10.7500702103   10.1101208722    1.4861226509
  15.8188303963    4.4966047120   19.1642834977
   6.9138833103   10.3875952631    6.5429488145
  12.4524042542   19.6160505739   15.7216833885
  -0.1539758125    7.4163837733    0.0371396646
   9.2162213761   18.7346863769    2.6695352797
  -0.0847875638    7.7142377655   17.6734749004
  -0.0177479497   19.8192603575   14.1143976363
   1.2553091147    1.8395258077   13.5905285456
   1.3244458781   17.7292837183   11.6922060289
   0.1771792457    2.2500343623   10.0256870110
   0.1753209753    9.7690320025    1.1315513341
  17.3826405455    4.1040561337   18.4944676520
   1.1429313823   10.8974967636    0.1514235014
   1.3177817590   11.7500736843   16.5328804457
  12.8891341272   18.5528458949   14.2377974389
  10.7676946265   18.1273723596    2.5326363170
   1.6411676478    9.3615855733    6.2473298387
   8.1263037328   17.6509330232    5.5407544186
   6.2722681043    8.8142942191    6.1303738373
   9.2484786919   11.0585909987    1.7265676219
  -1.4235169839   12.9546018838   16.0472205928
   4.8575519604    8.8846043200   19.2469409561
   9.5194031154   14.0974944215    7.5300161626
  14.4460827189   12.9744929921   14.0117974402
   4.1014466972    1.5430287056   17.2886346792
   2.6450403962    1.2186079904    0.0490990470
  -0.7005885776    5.5071865155    6.4082999402
   5.1099870200    5.4829744830    1.3243024688
  -0.1576222789    3.3924674335    4.5198447484
  10.2560055407   10.9103914916    5.9950962969
   5.3182903953   17.0054714318    9.8551674842
  14.7441450986   19.7092198680    1.9248407958
  13.2367870999   11.9422238243   16.6732559492
   3.0743982321   15.9184280874   19.2002144357
  12.6843977884   16.0627012942   16.4775685776
   6.4591574016    0.2995803739   10.0420596819
   3.3933466842   14.9494242703    2.5561575131
   7.3252028996   13.1888866118    2.2399367929
  12.6347577817   19.3403189379    4.2345779378
   5.6917484380   13.3361597952   19.0420899496
  -1.4423909522   16.0181423005   10.3740461055
   4.2773076126   18.9296720803    4.5652419201
   5.5513857680    1.2147854490    3.4021811727
  13.5036161284   14.7710546281   19.2913226813
   6.0154834165    2.2029220344    6.2371854044
  14.7960040749   17.9177543538   11.7114529129
  13.0775043241   15.3840423399    9.8089643861
   3.5320195767   15.3620504142   13.2597910935
   5.4223700964   17.6576266680   14.4336061760
  10.3524946943    2.5346966200   15.3955695112
   9.8605252916    2.6345852047   17.8292406376
  -0.4810691705   17.9012062800    8.0505566651
  11.1249410903   13.4586297395   11.4375385007
  15.2915046583   13.5664284851    5.6497567465
   2.1534614010   13.3002492502   10.6444446769
  -1.3220288327   12.0111567852    8.8682614489
  17.3655998157    9.4811470401    6.2232840565
  11.6675069778    1.3803683443   16.9742834562
   3.7338621674    4.9864692039    6.6290127853
  -0.3196173043   17.9311794475    4.4971333061
   9.9240118103    6.7704993634    4.8690538633
   8.7002118133    5.7645549339   15.5225575467
  16.8221779155   13.3190758074    3.1621897464
   2.5816040400   13.6069371808    7.6278788764
   9.7635910113    6.9279317786   11.9163167023
  14.5884879432    5.8644695402    4.3122694157
   0.0390927945    6.9713882700    2.2751022702
   0.4006996918    5.6151980678   12.2231529723
   8.7305737589   14.4837311189   18.6488871282
  11.3694591369    5.9156187554    2.4945673832
  14.8968066174    8.4362756266    2.9538557640
   8.2948898885   17.2493005269   13.4118678494
  17.4834534533    4.4745854223   11.2233044674
  17.0771196815    6.4161884274   12.4258111086
  17.8123254262    4.9178547633    1.0378475801
   2.9573798415   11.9218931551   15.2221402401
  10.8578634157   19.2451943929   14.2343558864
   6.3994674232   10.1937759615    4.6746671844
   9.5642918974   17.9970417345    6.8819675342
  10.6559614101   12.0051222125    0.5223820423
   0.3736390314    9.2432120107   18.5883028592
   0.2351141767   19.3167668277   12.1859463977
   1.4424498364    1.9320657597   11.6146306099
  -0.8565171657   12.3435367887    0.2151268897
   9.4021730635   16.6965240015    3.4141912201
   0.0036187222   12.8443207513   14.5283762658
   3.7068072847    9.4919050000    6.2385844149
