B2 C140 Ca1 F48 H298 O66 
1.0
1.8693398105978268e+01 -3.0473404113539284e-17 -1.3892885558122809e-16 
-8.4238542407129036e-01 2.0154889964434766e+01 6.0591098184340223e-18 
-9.7655614459816886e-01 6.7235046506349981e-04 1.9915392149576878e+01 
B C Ca F H O 
2 140 1 48 298 66 
Cartesian
  10.2768939298    2.5083775732   17.0467578964
  -0.6960617405    5.1542306115   12.4934285223
  17.0014983643   18.7558009778    0.7326990300
   9.6569298199   14.7833720679    7.2408226203
   5.9936776644    6.8879878023    0.2277097600
  15.9396116694   13.0756852300   13.1110479925
   3.7116697880    2.4858917367   16.6874364013
   2.3749346880    0.4941059659   19.4192634596
   1.3669105559    2.8730371539    3.7781935561
   3.0075345149    0.4797011575   17.9288378006
   0.1924885450    3.1818043445    5.7873653179
   4.2311297950    5.2650325895    0.2422787198
   3.1835532529   16.2747988019   18.5598331919
   0.9908329873    2.4547966438   18.9003663167
  14.1877195286   15.7593423067   15.6736514190
   6.4117982699   10.5687675280    0.0730580949
   7.4751688576   16.6280105568    8.8781505207
  15.1321510720   11.1291290023   16.1905827571
  10.8160921622   12.1607660570    7.0426448266
  11.7119019375   13.4232646842    6.8465805035
  15.1959855506   11.3973692683   14.6868655374
   5.4526308417    8.3048646817    0.3493193969
  12.8715644821   11.9450149028   16.5306279285
  12.4008779224   10.3509658749    6.2897394192
   0.6355298121    4.5307456157    6.3563612300
  -0.0360954122    6.7355338965    6.7357784244
   5.8179046947   18.3275775180    9.1552188788
   3.7875827604   17.0343926762    0.9287323106
  16.3382182449   19.9622377678    2.5085844538
   5.2409173630   19.2110418643   10.3502344219
   3.3514687592   15.8125250951    1.7152180516
  14.8749468086   16.8257772405   17.6669054107
   4.8732864301    1.1726885940   10.5565149824
   9.1127538847   12.8321635450    3.8110506887
  16.1939566906    0.0991508216    3.6584287094
   7.6984966343   13.9090635428    2.2107687053
   7.8000335978   14.4855637442    0.8713247616
   0.9624699772   15.5159821635   10.9400739131
   4.1504866645   14.5116017220    3.5374417251
  15.2427513206   15.5297489000   18.5230402706
   6.4265480138   14.1477838778   18.4593144946
   6.4146387346   17.3833312842    4.7905086698
   6.4300086618   19.2928601487    3.3249582895
   6.9082299696    0.5454752910    2.9819303505
   5.0788920402    2.1093639144    2.7956396693
  -0.9302545963   16.9430348397   11.2804854730
   5.7956003184    1.3393459130    5.9673937351
  14.4369182399   15.0305712784    9.3609251700
  16.3514715454   17.2373624127   10.7987241377
   5.4056846349   15.4378440833   12.4412907638
  15.3094925233   18.0293270540    4.6398339856
   6.9685373985    2.7286653216   18.2813807022
   8.3808353014    4.4835619778   19.3971898375
   8.2277625834    3.6070514607   18.1300217592
   5.4327174347   15.9456191466   14.8767803556
  14.7269509421   18.9055698173   11.1835365146
  12.4928310456   16.1798755331   10.2324979670
   9.6489183326    2.1126842362   13.5411082492
  14.7598054494   15.1378736275    0.4697854636
  15.0967877854   12.2919480769    6.4046278032
  11.8709514912   15.3288634544   11.4048861826
   4.8597969379    3.5172693281    6.2377224270
   2.8610792885   13.1462706111   12.4809299954
   5.0829183023   17.4149760928   15.1994661507
   2.0646492729   18.5607554600    8.8642809325
  10.7254634657    2.1758210329   14.6612056145
  11.8881315446    3.1195470490   14.3390404703
   5.1244827150    4.8919465676    5.6958591587
   6.1653091417   19.4774112657   14.8820172534
  11.0493832248   13.2055305152   10.8169447573
   0.2966444917   12.6229410358    8.9958385226
  17.7202089021   10.7017045770    8.2854842973
   0.5746284853   18.3565337068    7.0083647454
  -0.2835961870   10.3714500723    6.9247709281
   6.8898275414    6.3283548208   15.0912059803
  16.0422362588   14.3148355073    5.4810058485
   1.1871902277   19.0818431017    5.8527645623
   4.2275036169   12.6279290666   10.5679343001
  17.9355949258   10.8224047534    4.4917863771
   4.1497258413    7.0382959063    5.9402299623
  11.8363028537    1.6791060595   18.7271566817
   2.6231645017    4.0543315421   13.6337277960
  11.8411953638    0.0745027703   18.7797635378
  17.2507505707   14.7669172729    4.7320204541
   8.0430536583    6.5770026871   16.1416190231
   4.6918013451   13.3406709293    9.2917884405
   9.4217347608    7.8185336366    5.9260606669
   2.1691523028   19.0147209171    3.6856791508
   8.4330891633    8.0944296197   16.2806071854
  11.2169810261    7.3181860738    9.9679127212
   1.7653467796    6.7098359988    2.5078436499
  13.0783900180    2.3864882946   19.2157621449
   2.3959960785    4.7388022983   11.0949120814
   1.6867381101    4.1741329630   12.3893976862
  10.9810343023    5.3252218692    3.6151303537
  10.0160215533    5.8802119472    4.6924916922
  10.2020764154   16.5297381227   18.7496043316
  10.3843250712    7.7869189473   11.1966009296
  14.3693617404    8.0107354743    4.0619340723
   9.4123049165   18.1348932124   12.1459552361
   0.0610250414   14.1860515651    2.9929822074
  15.2562267260    4.5398209858    5.0884284247
   9.1725304101    8.5778482728   10.6000289946
  15.4081841107    9.0099774277    2.0285079154
  12.3575677794    6.1570015388    1.7528050501
   4.1216950516   14.6151767451    7.2430050382
  14.9817735431    7.0131247236    5.0231549641
  18.0901804813    6.6950249278    2.7494556864
   9.4068595261   17.9865581683   14.4532424358
  10.3313478067   14.1901784013   18.9475720426
  16.8305290490    7.4155306847   15.0603921167
  -0.8754965181    7.1896080568   13.8857526992
  17.5988072815    5.9693796650    1.4517971907
  15.4171639804    2.8923742320   12.0921610348
  10.8997725337   13.1068812608    0.0237982183
  16.0178538891    4.1066228927   11.3980967980
  10.8932631451   17.9115261270   14.6235079939
  15.6202872177    4.1743381188    9.8559624696
  -0.5539532256    8.3449859666   12.9937513138
  12.5284365742   18.6724560498    7.2071971921
   4.4833233760   11.3795297761   15.8897520515
  -1.0866717719   10.4538290722   19.4422081316
   1.8971370294   13.9753046062   16.4964605145
  16.8467364011   12.7648512987   19.4865171519
   5.4445273918   10.7047586042    6.3226499773
   6.4233267842    9.2188841091    3.9070793107
  11.0019352076   17.3829204320    5.1780330053
  10.3839638351   18.3527571302    6.2740696041
   2.8601632455   12.8625551154   16.8199317799
   1.1339749433   19.9408787074   13.4306832942
   0.5821488263    0.3456750209   13.1156094755
   2.7273003554   18.3226099224   12.8843776027
   1.0321282685    0.6870530262   10.6864011307
  11.5117229403   11.6899400947    1.5936210139
   3.2105295252   10.4899897766    6.7900950101
   6.7011554135    9.8151838392    6.2896554949
  12.8509113550   19.2032095859   14.3195682533
   0.3481442551    7.5158924536   18.9554451751
  17.3429433056    3.7036341275    0.7942932476
  -0.1268782306   13.0610651891   15.8903049355
   0.8076333589    9.4888082237    0.2249649860
  10.9365364645   18.4139324764    2.9815493226
   9.7135790462    5.8887086651   13.8179900473
   6.6767872776    2.1878000423   17.0046278837
   9.6957374673    4.5322870130   19.6270231839
   9.3647911714    3.4147677660   13.0577988151
   6.9033346638    1.7619943657   19.1658012647
   8.8909627837    3.8829411151    0.6394538044
   6.0005826437    3.6469445783   18.4945586259
   7.8239771158    5.6451088493   19.2880367703
   8.5523310721    1.6496153014   14.0154862516
  12.3729110903    2.9824937423   13.0537954718
  10.0497024842    1.4586229239   12.4296854900
  12.9197605212    3.0678446777   15.2722075479
   5.9766139794    7.3476295069   14.8743955112
   6.3692099012    5.1000008196   15.3861834143
  11.3863276644    4.4507347031   14.3405308238
   7.3897606324    6.1188512849   13.6814962251
   3.6812637235    3.2770836482   13.1910446471
   9.8109024640   19.9285618685   18.0952862079
   2.9090832619    5.3084552916   14.0198621649
  12.1609155080    6.3684381136   10.4093750427
   1.6434793507    5.5488219723   10.3738038309
   9.0055543050    8.5003534523   14.9914537122
   9.3061660096    8.2694541993   17.2592959342
   1.9503684883    3.4520144901   14.6325756611
  11.9643804946    8.3587987090    9.5163506638
  11.9055971068   19.6965754827    0.0670495861
  14.0796636840    1.9550746123   18.3157854416
  12.0652455161   19.7486782449   18.0773904048
   2.9412716773    3.7048723870   10.4231063711
  10.6047702413    6.6895765974    8.9616824963
   8.4630755830    9.2339290390   11.5217564606
  14.3033796683    1.9487503038    0.5696759819
  13.0557366523    3.7543843042   19.2395250564
   7.2864132474    8.8288701842   16.5305523121
   3.4791846894    5.5319502376   11.5018243364
   8.2157364358    7.8007122411    9.9776980377
  17.4775202673    8.0596472195   16.0977826335
   9.6023696283    9.5819921331    9.7784511662
  14.2382992242    2.5298860924   11.5410853795
  15.8199819518    8.1339107270   14.6133084048
  15.7857146280    2.9164244098    9.4127250117
  16.2607775429    1.8898282981   12.1613850692
  16.2989248232    5.0800252153    9.1762734862
  16.4141037453    6.2053100343   15.4503358705
   0.5228834057    7.9626209126   12.3144385696
  15.2723233474    3.2373290941   13.4205898305
  -0.2094460939    9.4152464152   13.8499554441
  14.3252422554    4.5884628397    9.6549206019
  17.0593696845    8.6186230421   12.1623715274
   0.7202054029   19.8922026576   19.4376187031
  16.1570434488   11.2968825873   16.5196375266
   1.1934060012    3.2048746207    2.6688033983
   7.0357651663    6.9352502702    0.6036870578
   6.5698876053   16.1984741108    8.3816217212
  10.8153944456   11.8015572950    8.1083717085
   4.9660128690    6.7565507550   19.0424617864
   4.3512348695    3.2950319234   16.8239465335
  18.0087453197    2.9374859217    6.2618590997
  17.5388448819   17.9532804052    1.2785083954
   2.1236380046   16.3884035635   18.6124316495
  17.5065478951   19.7619289102    0.5657502622
   9.5541924309   15.8257792875    7.6404953962
   0.1980781776    1.7472715002   18.4643506507
  15.6972175787   18.3728967340   19.6267870888
  14.9098263919   12.9914815569   12.5898501850
   2.7165646158   19.6358180963   17.9231844170
   8.9974444909   14.5886705714    6.2729885049
  14.9413004167   16.4163318401   15.0839793000
   4.8883513982   11.1681964025   19.1733565294
  16.5838849781   12.4674986678   12.5205740810
   3.6167847516    4.7809523837    1.0287604631
   2.6382235494    5.8583520727   19.4819627620
  12.9293728482   11.9809044682   15.4326703440
  13.0417638023   11.0235404784    5.7270797955
   1.7236046877    1.8580678610    3.6698273287
   0.7783350828    2.4261521880    6.2981364111
  12.3057735975   13.4598822273    7.8081088609
   2.6467569757    2.8295907835   16.7218505150
   6.3955978759   18.9351238670    8.4532693401
  14.4741445302   14.7265315192   15.8452202043
  14.1492445197   11.4747982309   14.2659922439
   3.4444832985   15.2214832805   18.4834564669
   3.6797514174   16.8369579249   17.7601866084
  13.3416168640   15.7728561524   15.0372281517
   7.8995215886   17.1487065776    8.0283564243
   1.4954918108    2.7386282302   18.0536269766
   4.1668936082   17.7737026171    1.6537747588
  17.7441835973    7.3522146329    6.9062162251
  14.8261303576   10.0932690155   16.2288458114
   2.1643282943    3.4791245679    4.2846655682
   8.2307610324   15.8979410490    9.2922282432
   9.7637575236   12.3398826116    6.9213837034
   6.3988192729   10.9729758298   19.7739811795
   9.5105974471   14.0719544502    7.9426520169
   6.1496974609   10.9203816703    1.0442549834
   3.8230399474    4.4738612189   19.6156379075
  16.2855929247   14.1012251858   13.0844864523
   4.1633551766    0.1304034478    0.1326409294
   3.9820011043    2.0466443778   15.6970625548
   0.4168579410    3.2780881238   19.4327061661
   2.3907787543    0.4104756799   17.0702432892
  17.1939964661   19.4065809155    2.8347175077
  17.4543366749    0.7226840707    2.0000363805
  12.5504955193   13.0571354293   16.8906977330
   5.1069811234    8.4528078712    1.4537811548
   3.6291489367    8.4262185441   19.6806365536
   0.6503170821    7.2709829854    6.1043906760
   1.5601176255    4.8750978554    6.1091359149
   2.8088688701   17.3904812046    0.3601240537
  12.7256691577   10.2763882986    7.3383574487
   5.9940049158   19.1694275835   11.1931609086
  12.3640546582    9.3917818232    5.8199845556
  12.1935271175   11.1232131402   16.7707760034
  12.1396471617   13.2910797766    5.9033023874
  15.7232322722   10.6084482659   14.1916805321
   5.2065561983   17.7079856361    8.6131676263
   9.8780430682   13.5039331655    4.0735641792
   0.5323543861    4.3234092777    7.4554240067
   0.3153486930    6.5426979438    7.7479120195
   7.6958761598   14.6331355250    3.0877884285
   5.3091596307    1.8212216485   11.3036472211
   2.8341024989   15.0598711393    0.9798822436
  14.3811044383   17.5362671800   18.4056113263
  15.7714123474   17.2142649107   17.2215134668
   7.2861485204   15.4363176390    0.8393761207
   1.1734785247   15.1968454686   11.9759722582
   9.2710811504   11.7561862488    3.9620424699
   4.2557389458    1.6471258808    9.8966518534
   4.2393970634   18.7153143259   10.6558470337
   5.8933813937   15.1941564291   18.4989642116
   1.3334355559   14.7557925514   10.1013415722
  15.4253144191    0.8041798531    3.2900775593
  16.8165014238    0.7492054743    4.3448905881
   7.4453902990   17.4953353714    5.2086291656
   6.6224661333    1.0117350526    5.2686631713
   6.0241129202   18.7135087200    2.4827778420
   2.5951860156   16.1727860143    2.4483056499
   7.1340447682    1.3857959981    3.6574222449
   4.0154592311    2.0092493242    2.7389919535
  -0.8339750262   16.9606224280   12.3792689177
   3.8528036865   15.0942302166    4.3764795379
   3.5122197856   13.5478726544    3.5509804552
   8.3374514337   13.0730977613    4.5101600177
  15.7237254127   14.8990763522   17.9211055558
   4.1692446292    0.5871047736   11.1268777674
  15.9960474077   15.7419695239   19.3251894759
   6.0746824895   13.4567120913   17.7115773579
  14.0105078295   14.9783422902    8.3782736390
  15.6685203987   16.5070579475   11.1604143263
   6.9355642554   13.1849229936    2.3173853886
   4.7244191615   14.9073046456   11.6909522685
   6.4375288358   16.6815675287    3.8963603722
   6.3693765426   14.8083201325   12.3926317578
  14.1960096404   14.0485639335    9.6705109701
   5.4191732982    2.8089122622    1.9742060583
   1.5002802882   16.4212805284   10.7844166007
   8.8526773103   14.6298730055    0.6754495322
   5.1062206566   14.0523766647    3.7932526101
   4.7155850421    1.1402271524    5.7098060672
   6.0209730338    0.7412283069    6.9279145347
   7.4834032259   14.3841689207   18.2394636522
   8.0021843988    4.2262337737   17.2826459674
  14.0910796411   18.0260953539   11.5638098356
   5.1739653272   15.4622637471   15.8227190951
   6.5652481502   15.6773997602   14.8410137552
  11.9934284739   15.8369887337    9.3104240407
   5.7598064860   16.4675528755   12.1527834283
   5.6289080724   17.0669326549    5.5505692011
   7.5366191229   19.3402107061    3.1760658090
  -0.2759880346   17.8561026882   10.9521542868
  16.2198804162   17.9890109629    5.2199690663
   7.5053256682    0.6670214010    2.0557583837
  15.5927363046   17.7919726935    3.6299122787
  14.7002574083   17.2658285215    5.1623786753
   5.3964935416    2.5772098152    3.7580338069
  15.5076106086   15.1611549165    9.1383022627
  16.2617212613   17.1351630715    9.6709885825
  12.1392567632   15.5984787396   12.5095634015
   2.1754109357   18.9233631456    9.8747260123
   1.8343271620   13.4161140988   12.6352795027
  15.4887431228   11.2248988859    6.6654233168
  14.5357573013   12.2696414062    5.5299516341
  14.5958318137   19.8986664666   11.6962165338
  13.7671705382   14.7563248000    0.5871935420
  15.5132214589   14.8924504548    1.1705342869
   2.7841390066   11.9603868765   12.6222112718
  14.1805519861   19.1845584372   10.2913257428
   3.5523461102   13.6084955673   13.2882590166
  14.6331912449   12.5765023545    7.3191303805
   3.8853379821    3.0791169305    5.9691393927
  12.2685724751   17.3140011106   10.4158363649
  -0.5014720124   13.4156511677    9.3559650945
  11.4080547253   12.2779593918   10.4339428467
   5.0422694503    3.7203623680    7.2418474403
  14.7600658522   16.2616898304    0.5263281772
   5.1017797607    5.1354414441    4.5972005780
   6.1198793197    5.2267057818    6.0774167068
  16.9162843700   11.4396616266    8.1093547172
   7.1658485351   19.8158061067   14.6992493271
   2.8303633156   19.0185547702    8.2349621898
   2.0787474701   17.4857207882    8.8033745699
  10.8428260146   15.3628307932   11.3407441780
   4.7966627236   17.4104950822   16.2433592731
   4.2881840712   17.7148108368   14.5398612502
   0.5480087267   12.7236671344    7.9638976459
   0.5065924090   11.1350965224    6.8114597903
  11.0275330311    1.1319796334   14.7736700572
  15.1796448267   14.0845039961    4.6826288883
   5.7323438805   19.7972386937   15.8670434840
  10.6508051298   13.8020197392    9.9615672152
  17.1985002537   11.2830668522    3.8978177995
   5.5032291472   19.7031432779   13.9410240945
   2.2074310380   19.2575502129    6.1916330236
   0.6195460689   20.0390343861    5.7106505726
  10.2840651274   13.1018849859   11.6625505083
   3.8380047082   11.5710904733   10.4073609838
   1.2940496224   12.7604900412    9.4822569307
  15.4012943585   15.0125268067    6.0175752134
   5.1825432572   12.6775377794   11.1319238547
   1.0218387745   17.3488883609    7.1441243934
  11.1480111701    1.9004779026   19.6092777704
  17.2277266044    9.9194328828    8.8607910706
  -0.5034642598   18.3064111546    6.9706100258
  -0.2301466293    9.8968909096    3.9953091539
   3.5768107671    7.6281210199    6.6761138638
   9.8076508789    8.8529147647    6.0198491222
   3.6263627394    7.1989031476    5.0249136673
   0.2645049529    9.3771003509    6.8781024730
  -0.4567278231   14.6830661043    5.2614500846
   2.2724392805    6.6009724121    3.5177548446
   0.1232759453   11.5099387419    4.4342809221
   2.6610094140   18.2482319288    3.1359446705
   2.8263108407   19.4696858851    4.2845677739
   5.0266916665   14.3793289199    9.5053714529
   1.6791232947    5.7208614278    2.0252249084
  17.2769825031   15.8303464517    4.4291058240
   5.7410766157   12.8651904812    9.0477313148
  11.8073543195    4.7465728781    4.0014736824
   7.4619501105    6.4932641979   17.0574505438
   5.1631416500    7.4167766563    5.8271149127
   2.5466127728    7.3073743621    1.8879632003
   8.5586799714    7.8230620293    5.2600419321
  10.9581966078   16.5134998604   17.8479849228
  10.2427988325    4.5824412450    3.0943843556
   9.0604502763    7.3747780251    6.9040548730
   1.3211143130    3.1112396723   12.1257602074
   8.9992776636   19.1086295318   12.3697123368
  14.7104263984    9.0240149787    4.4712352116
  10.3957493740   17.4844000746   19.4254285776
  15.4114609906    4.5526928838    6.1498946341
  13.2835261522    7.9488002537    4.1398393338
  10.6083697852   18.2011017907   12.0525298386
   1.7962980801   19.7689931131    2.8852420831
  16.5306938102    8.9428767652    2.0992515592
  13.4726037764    6.1045298779    1.9283479313
   9.0549649525    6.1995937821    4.2152390962
   0.7839252085   14.3698782535    3.8177608442
  15.2036783359    9.9712309416    2.6046008942
  12.0785183301    5.2042991763    1.2862103938
   9.0878533238   16.6366913514   18.4971471243
   9.8448142161    5.1065260662    5.3953561444
   9.0776435730   17.5918717962   11.2319962290
   4.9795548154   15.1469563541    7.6093316052
  -0.0593400640   14.9914089683    2.1842194338
  10.9329315537    8.5789992017   11.6817952559
  16.2889415532    4.5198225526    4.6158606418
   0.1153345828   13.4182497010    2.2676375230
  17.2167176639    7.3564105167    3.1377402868
   4.2100504266   14.2296380664    6.2779572470
  14.6602863563    3.7227111931    4.7111361885
   8.9949284247   18.9675537746   14.2133665879
  -0.3403741763    5.9278650628    3.5088005987
  14.4659513293    7.2651524269    6.0278690724
  14.8989938483    9.0963524919    1.0419227310
   3.1911275712   15.2561582786    7.3242851205
  16.0583874666    7.1268699757    5.1856147652
  12.2706938568    6.9727493705    1.0048351590
   9.7612487033   14.0523757839   18.0162276141
   0.0703479964    6.8803943701   14.2247840447
  10.0451580048   12.2174728988   19.3873097292
   8.9576900593   17.5337394939   15.3425662472
  11.3188519299   13.9474637315   18.5814052001
  16.4978804536    5.9411577515    1.6176577529
  11.2939928950   17.0291002923   14.0401439753
  17.8624989268    6.4961720325    0.6086322425
   9.8208507661   13.1445117955    0.4441697182
   5.3520220137   11.7957212240   16.4636024071
   1.3352882103   14.3054627155   17.4143736040
  12.1131861702   17.3469916951    5.1446592379
  12.5845033696   19.4737564122    6.4546830566
   5.3493832098   11.3051305587    7.2487512947
   6.5807277610    9.7588599028    2.9674724472
  13.1029102621   19.0298614935    8.1527455126
  16.6166719271    9.9691975719   19.2182417434
  -0.7531532563   10.7463017378   18.4090028927
  15.4735833044    4.9626766303   11.8323526531
  -1.1097257822   13.5151643555   19.5634112530
  16.6044387830   12.4371073555   18.3859405754
  -0.9675297776   19.6440404082   13.2203367380
   2.7623206945    0.5040779512   13.6621269601
   2.3165372454   17.8251560756   13.8573843492
  -0.1459020101   19.8308966550   10.5844275464
  11.3169046875   17.7966455510   15.6789769362
   5.6902874280   11.4183472520    5.5279887123
  -0.7247608421   12.9628558465   14.9860309219
  11.1254423675   17.9227938342    2.0565978133
   3.4506194623   10.8302432720    7.8283682725
   4.0487467805   10.4266851725   16.3221791244
  10.4464533861   19.3984957854    5.8625409943
  -0.6537029197    7.0623748720   18.6382729725
   2.5070961767   14.8542978964   16.2600307472
  12.0429708595   11.3214558137    2.4730073702
   2.7961166319   11.3823569841    6.2478277122
  13.9787349499    0.0156491164   14.0423693376
   6.9596138012    8.2161125810    3.7196235725
   3.6792403922   13.3854691936   17.5126709290
   3.6796791708   18.8656210581   13.1131278935
   2.0936070996    0.5504870357   10.5777527625
  10.5789251535   16.4128502900    5.4407534878
   0.1939347521   12.1403190503   16.2856326666
  16.3877426567    3.5862045912    1.2488404041
   4.9129636827   11.0422389889   14.9289726632
  16.8497590901   13.0549634263    0.1376355033
  13.0350218430   17.8374294947    6.8060546749
   5.3620949523    9.0043089263    4.0369671051
  11.9687210911   11.0421045104    0.8186349498
  16.1439767969    3.9428021988   19.6276353453
   7.5625965632   10.3191149405    6.7217373149
  13.1927614464   18.8907682559   15.3405466155
   1.6553139027    7.1147738861    0.0175825072
  10.3004866027   19.2224211753    2.7702870997
   1.1500357789    7.1114157947   18.2525991135
   0.9797239033   19.2542256673   14.2880206475
   0.3667242849    1.1977173871   13.8452055886
   2.8361309370   17.5358687849   12.0174438852
   0.6655944633    1.2064931659    9.8180600436
   0.2963773019    8.8777487896    0.9714018821
  17.9111358742    2.8197840854    0.7989466619
   1.4544193355   10.0674682032    0.9295482679
   2.2942924129   12.1472054711   17.3379232082
  13.4219296208   18.5393313158   13.6897812732
  11.7614365768   18.7936446913    3.5106320902
   2.5080699114    9.6065083067    6.9056695548
   9.3562581196   18.1470476092    6.6020568201
   6.4799061199    8.8266002015    6.7054217822
  10.4920712869   11.4124506590    1.7468053345
  -0.6109408786   13.6935441024   16.6431994845
   6.5149585894    9.1806585856    0.0160388960
  10.9953185889   14.6432423894    6.6284519249
  15.8908443253   12.6719921252   14.5075490473
   3.8825907793    1.5833486917   17.7817411661
   1.8945064448    1.7720927255   19.8324966267
  -0.3957947139    5.5709898381    6.1547136004
   5.1965823449    6.0640369483    0.9747051269
   0.0671397922    3.0329523215    4.3710815746
  10.9563793220   10.9565851181    6.2686873926
   6.8841846309   17.4720527933    9.8782479613
  15.8442697709   19.1279837414    1.4579999975
  14.2473910710   11.8998805676   17.0467018058
   3.7212038398   16.8149086888   19.8374003328
  13.8136353023   16.4474590504   16.7964143050
   5.7638065157    0.4054763792    9.7419678115
   4.4483894686   15.2824535964    2.3918211204
   8.7359203156   13.0221143388    2.5027382727
  14.6083284117   19.2623673994    4.4404626552
   6.2861084170   13.5992435291   19.7439063585
  -0.4975250944   15.7043752923   10.7564819355
   5.9884860356   18.7524762356    4.5766444265
   5.5156690630    0.7127302375    2.6640105663
  14.1121046697   14.8275110804   18.9964871139
   6.0029803016    2.7163043397    5.8379787230
  16.0462282926   18.5626017192   11.2137277663
  13.9642493106   16.0546641984   10.1805646354
   4.7429892871   15.5129786696   13.7153006919
   6.3781042530   18.0606299526   14.9287730755
  10.0411684217    2.7777845215   15.6848995073
   9.4071348129    2.8508469432   18.0259738002
   0.8642380247   19.0324881628    8.2710512903
  12.2366901694   13.9034119273   11.3871555345
  16.2933050278   13.2033038124    6.2451568041
   3.2299255206   13.4632852421   11.1293620976
  -0.0310786650   11.2836860763    9.2812154524
  17.4484301782   10.6241364054    5.8345849320
  11.5382456576    2.0573348321   17.4152417768
   4.1404367616    5.6119231696    6.3377701876
   1.2224792210   18.4062145248    4.6099041595
  10.5702504984    7.1163890691    5.4022058498
   9.1058875351    5.7573020190   15.8660197035
  17.5207590362   14.0083553799    3.5667216415
   3.8866836754   13.4267317405    8.1142907001
   9.9805923364    6.8341171838   12.0084940060
  14.5312494014    5.7043047063    4.5977034774
   0.5515361238    7.4372010358    2.4627068799
   0.6369671869    4.9253398801   12.9306879381
  10.2366312371   15.4312907312   19.6641712812
  11.3115343130    6.4224374920    2.7978793026
  14.7680784336    7.9063294513    2.6919412213
   9.1137321581   17.2472650820   13.2353595033
  17.3801680443    4.3527263591   11.6335222683
  17.2248981642    6.1437009526   13.0562747119
  18.2296241180    4.6849811457    1.3896610708
   3.5311625261   12.4837935835   15.6958687327
  11.4394541603   19.1008657459   14.1234883034
   7.1548613916    9.7474824449    4.9350630649
  11.1770797818   18.4402382209    7.4423426212
  11.7505519233   12.9324513943    1.1992227972
   0.4972367322    8.8772477801   18.9794601027
   1.5932534156   19.0633275063   12.4530835084
   0.4275519778    1.1643371464   11.9115252945
  -0.3425406924   11.6529629088    0.2175917783
  10.3553371549   17.4652887549    3.9125034658
   1.0695857081   13.7157578171   15.3322917040
   4.2715512676    9.9055163026    6.1089823647
