B2 C140 Ca1 F48 H298 O66 
1.0
1.7950601863391231e+01 -1.0168583751463611e-16 -3.2537368592741380e-17 
-2.3051049886858386e+00 1.9348463164695087e+01 1.1579171294568264e-16 
-6.5820141782826636e-01 5.0866766555242782e-01 1.9625165408724271e+01 
B C Ca F H O 
2 140 1 48 298 66 
Cartesian
  10.2135992882    2.7741718407   16.8927279601
  -0.8886397542    5.8739536046   12.1538450178
   0.2323856228    0.6491806294    1.7436600493
   7.4751804590   13.9471254054    6.8415867985
   5.2618822543    6.2855719351    1.3046979867
  12.6088624076   12.5365741146   12.7138346282
   4.0080627902    2.1510192892   15.9944406298
   1.9999280453    1.3948783922   18.8681699451
   1.6000644863    2.5637629778    5.3374131598
   2.4927337068    0.9392867255   17.4642816610
  -0.4877141643    3.5080631927    6.1785458002
   3.6794852283    5.6740151438   19.0044596467
   2.2577872467   15.6183063452   19.0521069697
   0.5229598100    3.2543860528   18.3158797813
  12.2206013571   15.3911939779   15.4316898320
   4.4837543853    9.7049090115    0.7795661304
   6.4684889578   16.7155648602    8.9816626774
  13.2840020425   11.7173665645   16.2252318188
   9.6214545855   11.5601025294    6.3338939928
   9.7267174540   13.1541150606    6.2104420590
  13.3834614729   11.5347547989   14.7004755783
   4.4254409437    7.5166519750    1.5888650505
  11.2034684509   10.5501085211   16.8215783327
  11.8529156199   11.1785927834    7.0221940492
   0.0008380701    4.6623263989    6.9535610705
   0.2300991525    6.9611901930    6.8067203971
   5.1224703298   18.5430844209    9.6513450538
   2.5879522282   16.0324520635    1.5404056722
  16.3922145347    1.6415391946    3.1616066064
   4.0639511785   18.9013525126   10.6255118692
   2.1492339490   14.6586685180    2.1089302494
  13.5094461056   16.3164633234   17.2409395755
   5.2985574231    1.7403858258   11.0723212670
   7.8856661812   13.2767593531    2.9220950881
  15.2091255968    1.0555702753    3.9121204941
   6.5123187351   14.1421841940    1.1227410202
   5.7563625122   14.4147004380   19.2092786316
  -1.5984137688   15.2312927032   12.3769449385
   3.0558835570   12.5732922593    2.6073906394
  13.1077362445   15.3650707187   18.4729412714
   5.9307824605   12.7204789767   17.6534608384
   5.6908719457   17.7707434908    3.7629192521
   7.1427863967    0.2817022443    2.5705756148
   6.1022354141    1.3028511803    2.7669708722
   3.9211311864    1.8932750268    2.3799784879
  -2.1231707179   17.0761554143   11.0632782025
   6.0058232003    1.1198771600    6.4574392820
  12.6147509237   14.9014632037    9.0423873084
  14.3526806031   17.1612538111   10.7371839317
   3.6122256364   15.2823919965   12.4176892262
  12.9794498843   18.0810867526    4.2761828047
   7.0749621981    2.2300022447   18.4620363748
   8.0429875536    4.3614058839   19.3855674005
   8.1395087160    3.4082569334   18.1926441489
   4.2928795040   15.0826238645   14.7359899069
  12.6333839163   17.8034621078   12.0585376251
  10.5097050138   14.6138518585   10.0676980358
   9.4209988709    2.5446503009   13.2255028175
  12.6669322842   16.1479534953    0.6741696058
  13.0894773147   12.6974571355    3.5789080684
   9.9463709825   13.8182117656   11.2530087005
   5.0293696886    3.1794081921    6.6775738103
   2.1314795076   12.4443291904   10.9368772999
   4.6941299257   16.4245554018   15.3756185221
   1.4258239153   18.4639017991    8.4474462458
  10.4487404438    2.7258564132   14.4674225994
  11.4889783225    3.8678809296   14.1299029210
   5.3343151043    4.5872228814    6.5722309568
   5.2377589708   18.4977854674   14.2802439115
   9.7082968263   11.7504845046   10.1199103221
  -0.9853183754   13.2447428077    8.3521717021
  15.7039904990   11.2072534767    8.4117123644
   0.2975042092   17.0749563562    6.6882476763
  -1.1588377715   10.1838334762    7.8853635421
   5.4974552274    6.5721013118   15.7369491187
  14.4321659166   14.6947273176    4.3319841075
  -0.8715240604   17.6635847142    5.7977432836
   3.7569322733   12.9340341354    9.2670645123
  16.2925136425   10.2096019532    5.5958018197
   3.9520861975    6.2449848954    5.5095518798
  11.8957475311    1.9236290609   18.5940761900
   2.2093237297    4.8256559633   13.3880871640
   9.8662552601   19.7687649432   18.7201280536
  15.7870613509   14.1184734299    4.6467396805
   6.8987825646    7.1056926872   16.0977213972
   3.8733385616   13.6465432081    7.9674881881
   7.9718536341    7.4368374161    4.5265825497
   0.4727211758   18.0164164642    3.7788589361
   7.2259769208    8.6506614134   15.9119602020
  10.1361579055    7.4924039937    9.6347589229
   0.7295608338    7.6723527061    2.9080528978
  13.1343737000    2.8311957019   18.9807854295
   2.0936188667    5.4262919322   10.8085118817
   1.4118253070    5.0578237649   12.1368494484
  10.7114078648    5.3719585436    3.2728682285
   9.3178041838    5.7187778649    3.7696950938
   8.9372190355   15.2197752324   17.5564336123
   9.1877934892    8.1232406652   10.7733259409
  12.5385600861    8.3351153343    4.2895218987
   9.0303177849   18.4495887407   11.7517868639
  -0.5177768206   12.9802176434    3.3782462889
  14.2231177511    6.2413813915    6.5331909426
   7.6909867181    8.4552492256   10.3626640380
  13.4701996890    9.4071845907    2.3306702857
  12.3012487448    5.4893201566    1.5846477903
   2.7658860535   14.0448823261    5.7910612038
  12.7719172556    7.8538306148    5.6483236601
  16.5002997434    7.2201116282    3.3118410054
   8.9982006141   17.6345930390   13.9367658844
   9.4047361173   12.9117150614   18.3275705279
  15.2269260024    7.8209356794   14.5631569116
  16.2890265826    7.7622739600   13.5267256697
  16.1186108043    6.3901010818    2.0479311614
  15.0336307600    2.9937074644   11.2448083563
   8.8485314667   11.9437538196   19.2637389906
  15.1948009332    4.5241022067   11.3259407707
   9.9049839721   18.4019030107   14.8392002873
  14.5246636245    5.1710607562   10.1102312348
  16.4386567854    9.0777559797   12.7024645147
  11.7354708940    0.3893986225    6.8915873770
   3.0455355455    9.6839055367   16.1317600498
  -0.6012819183   10.1218596295    0.2253393954
   1.3427609920   12.9537822244   15.7408754655
  15.9583209131   12.1706381905    0.4831640915
   4.9855733466   10.1861965190    7.3428359791
   5.4813935747    9.9979911587    4.4248962246
   9.7431792884   16.5035966155    5.8160219905
   8.5463979990   17.6435563954    6.2838489871
   1.9032601285   11.8017199363   16.5226420051
   0.2593215490   19.6650987713   12.5729534051
   1.3401116159    1.0359778636   11.9745101113
   1.2304120512   17.6167598889   12.6039346186
   0.6172674816    1.4034566875    9.7010028611
   9.9309389919   10.3347688356    1.7919908879
   2.5982669754    9.9192844189    7.4917563196
   6.2507761417    9.7208611321    6.6684964170
  13.6705230895    0.9291928651   15.0239553742
   0.0892803978    8.1468721218   18.6322563032
  16.5629840404    4.5358712872    0.6133814640
  -1.0937607336   12.9815910552   15.6005451161
   0.2787190006   10.3581967985   19.4663181206
   9.6221583270   16.6171844227    3.3627644454
   8.8366120686    6.1494968353   13.5653249713
   6.7936956236    1.6296000202   17.1864851812
   8.8713426755    5.3676013034   19.2707250206
   9.0658338719    3.8623811618   12.7988051281
   7.7463916673    1.3201968057   19.1294239594
   8.8389289052    3.3616773172    1.0321320136
   5.9281329812    2.5358573338   19.0804321626
   6.8147682627    4.9187104891   19.4070288954
   8.2357711518    2.0646939915   13.7310800098
  11.9836157423    3.8111238195   12.8954698570
   9.9171554007    1.7682900254   12.2277177286
  12.5307656007    3.8527707229   15.0387283188
   4.5452561435    7.1647988564   16.4895790605
   5.4495548509    5.2826931182   16.2822035875
  10.7710237277    5.0041879301   14.2653611280
   5.2190539133    6.3997452338   14.3525916839
   2.8456822650    3.6719079919   13.1725045600
   8.6820543275   19.2226287479   18.4202408473
   2.9262265256    5.7546492333   13.9405480432
  11.4516012659    7.5506693404   10.1009869548
   1.2344737006    5.3207052838    9.7364056296
   7.5278872938    8.8410827724   14.5517453835
   8.2693730429    8.8788820453   16.6374938052
   1.3358805123    4.6692476344   14.5371505179
  10.1212655118    8.2496347591    8.5452533181
  10.8356107535   18.9641784764    0.4235211251
  14.2807418857    2.5244246526   18.2209710444
  10.8865757213   19.3459219083   17.9358438277
   3.2170556581    4.7157667002   10.6148926178
   9.9958788029    6.1089572281    9.2912157758
   7.1174413099    8.9965633756   11.5021798169
  14.1261279924    2.0137640545    0.5891364265
  12.8433952165    4.1370765513   18.8229065651
   6.2530228179    9.4812624997   16.1612924317
   2.4354412670    6.7198324112   10.6903024135
   6.8167086094    7.4642414792    9.9733820500
  15.6127481159    8.8203474979   15.3726708094
   7.5991386615    9.3651744656    9.4198972405
  13.8052709857    2.5378852370   11.0474746917
  13.9337095924    8.0735508262   14.2633224162
  15.1511227793    4.4919742634    9.0098513673
  15.8065442102    2.3523033801   10.3536978790
  14.8508119588    6.4832611233   10.0247927359
  15.3624973418    6.6861759436   15.4374096401
  -0.8842855332    8.9012495953   11.4723650008
  15.4094309814    2.4618676429   12.4778695450
  -0.8315163834   10.0152029867   13.3806783649
  13.1922041387    5.1166742698   10.1327109966
  15.1705345663    9.7131375508   12.4672467765
   1.1404638849    0.8412727448   19.0852413973
  13.6114078437   12.7040574870   16.4181245106
   1.8918782475    2.3457840145    4.3263591493
   5.9266873653    6.0038020239    2.2004649351
   5.7711248956   16.0518462547    8.3911428434
   9.2817056009   11.2586349439    7.3459141662
   6.0401766161    6.5348155397    0.5874296479
   4.5215258884    3.0388554967   16.2870171923
  16.4313511216    3.7241893106    5.7914351695
   0.4531519314    1.6752093100    1.4842749748
   1.2054502912   15.5178312210   19.2096278867
   0.3383946135    0.1244488040    0.8215434179
   6.7817500604   14.3661422757    7.6383148835
   0.0751835144    2.4627270589   17.7556836081
   0.9834057950    0.3516044462    2.4719550162
  11.7239790471   11.9166569320   13.0043674198
   0.3699823555   19.0742412231   17.4471349683
   7.3109086364   14.4918813692    5.9286663481
  12.9665633857   15.1751681338   14.7331734775
   5.0609028461   10.4566996900    0.1350290222
  13.0740307764   12.0139831928   11.9119052896
   3.7032020097    4.6122810154   18.7290418424
   2.6769310310    5.9487509021   18.6478810830
  11.5594629147    9.9751756869   17.7414107899
  11.8260027863   10.2083202024    7.5801188429
   1.6530972623    1.6374601669    5.9285179447
  17.2714606007    2.6430402000    6.9442675750
  10.7035062884   13.6218685058    6.5910614033
   2.9936887961    2.2628094800   15.4396377944
   6.0343030722   19.2724165202    9.8202040255
  12.2608225936   14.5164094855   16.0781808953
  12.4063377908   10.9223630343   14.4821561547
   2.8006522064   14.7018921722   18.9801544110
   2.3125443787   16.1665445103   18.0580128665
  11.2753476771   15.5556444207   14.9096288070
   6.8481110022   17.4720180230    8.2460843309
   0.9158432446    4.0332337251   17.5197415498
   3.1833935221   16.5882134474    2.3964941160
  -0.8160193076    6.8187721684    7.1107372595
  13.7621517907   10.9280854340   16.8076956075
   2.2736240277    3.3932424122    5.7497930011
   7.2751852077   16.0654078359    9.2864837638
   8.8091454032   11.0548746388    5.5824038456
   4.0470134929   10.2759509685    1.5945951014
   6.9871606690   12.8850264986    6.6384357188
   3.7263838165    9.2904059504    0.1605663544
   4.4656026429    6.2020216369   18.3372495389
  12.5481494311   13.5540289485   12.4474633497
   3.3049658903    0.5161194327    0.0692213535
   4.6979106683    1.4803958763   15.3643775950
  -0.2775666927    3.7351269541   19.1273940962
   1.7021609289    1.2722832374   16.7663813696
  17.3550880977    1.7655408393    3.6844490227
  16.0960045082    2.6938293074    2.7181331905
  11.2839024031    9.8413263750   15.9039949344
   4.1408902062    7.6090560714    2.6783346563
   3.4990005154    7.5395619035    0.9263137138
   0.4359123736    7.6838881539    6.0715024127
   0.7715829859    4.2660410954    7.6151733248
   1.6607561095   16.4766900969    1.2917696714
  12.8398187653   11.2010465369    6.5582961187
   4.3774778487   19.0602362692   11.6978652789
  11.6410321705   11.9075188356    7.8549049800
  10.1648384611   10.8507059364   17.0251036869
   9.3888788196   13.5808420246    5.2930781165
  14.2042600139   10.7762492411   14.5786322288
   4.6167585336   18.6764905985    8.6711853952
   7.7651335694   14.1333315595    3.4711971122
  -0.7942792148    4.9577612338    7.6417546754
   0.8530081690    7.1920964963    7.6810179952
   6.5144215148   15.1603464444    1.4827181930
   6.2087628539    2.3763962750   11.0522528689
   1.3313736823   14.0590633196    1.6280708651
  13.7254383376   17.3233250304   17.5375796921
  14.4364810205   15.9796681106   16.7978973325
   4.8643999057   14.9470458855   18.7582000202
  15.2936227433   15.3435193262   12.7343771226
   8.9289483674   12.9092018775    3.1374654101
   4.5201437587    2.3866810878   10.6565083208
   3.3958992224   18.0245065495   10.4620965273
   5.9735524167   11.5816146449   17.5904493871
  -1.5005364601   14.1458557847   12.3313721483
  14.4981733626    0.8647911367    3.0120204182
  14.7001110863    1.8406908105    4.4644182234
   5.4231981659   16.7659407981    4.0797744160
   6.0585643688    0.6772859924    7.4668534177
   7.4290852181    0.1918407443    1.5269098331
   1.5574824839   14.9680842055    2.9576403037
   5.9773977302    1.5307178686    3.9101424827
   2.8317169553    1.6155540215    2.1076513184
  -2.0432607597   17.5233604706   11.9562161582
   2.5613738615   12.4374222698    3.6201573758
   2.4414951984   12.0352038145    1.6423018646
   7.1496505621   12.3468937468    3.1681326990
  12.8045244747   14.3867025212   18.1914642921
   5.1064045452    1.3409906943   12.0944922011
  14.0158038707   15.3038457967   19.1052520341
   6.8392987002   13.1138025960   17.1629984354
  12.3641439888   14.6034879650    8.0960171684
  13.7684048219   16.1913017680   10.8291860125
   5.7899403261   13.7371449377    1.8335316792
   2.7231531810   15.2643825076   11.7978179703
   6.0138648816   18.3770919523    4.6209901256
   4.1940385748   14.4727482256   12.1014877233
  13.6953893953   14.6341178910    9.1182391375
   4.2516544045    2.7903400386    1.8325023891
  -0.9330809906   15.7002131379   13.1152284852
   6.6296729080   14.8820829870   18.7537400395
   3.9722365447   11.8920335943    2.6124626609
   6.6700583752    0.4793191404    5.8739011703
   5.0159465327    1.1012907450    6.0013120595
   5.1519020671   13.1057793846   17.0687294107
   7.9916548013    3.9391289520   17.2531395271
  12.4033958423   18.4265606303   12.9585127389
   4.0502751661   14.3784503721   15.5064669978
   5.1235938508   14.6472336464   14.0692426187
   9.9393060021   14.4036560498    9.0462816730
   4.0524254595   16.2701655430   12.3307023636
   6.5637272425   17.6379904854    3.0464924148
   7.9828716190    0.7600120265    3.0793558275
  -1.4735533705   17.6233608951   10.4003508418
  14.0057523598   17.5550212859    4.0715320620
   6.2946279166    2.2146388090    2.1519043211
  12.3500042824   18.2553584477    3.3687039586
  12.4354328438   17.2590036205    4.7628287392
   3.8464094661    2.1676349287    3.4715691543
  12.4081981897   15.9549023572    9.2943122742
  14.3130630815   17.3925423950    9.6007174409
  10.5606412809   14.1224860798   12.0491768060
   1.3491350651   18.6924641277    9.5349933384
   2.8615292684   12.3744430469   11.6893350167
  12.4561127272   11.9518794308    4.0024623183
  14.0708777891   12.3016071747    3.3050686066
  11.7733257412   18.0883558703   11.2681216454
  11.6231290307   16.6247253618    0.8000297408
  12.9149158660   15.5609861812    1.5879289699
   1.1395763374   12.7564194928   11.2278692510
  12.5806382289   16.7344468299   12.3668398886
   2.0859636285   11.4524388190   10.4667862983
  12.5024346374   13.2690298589    2.7460385481
   4.3115425790    2.8484127263    5.9420320227
  10.3342144409   15.6380089352   10.3458456601
  -1.6504851143   13.7236735077    7.6749630513
  10.4098424221   10.9253630281    9.8537565952
   4.6627147289    2.7705685222    7.5930162590
  13.3840158452   16.9506653949    0.5047591119
   5.9278676443    4.6968784170    5.5458096001
   5.9967801357    4.9445004043    7.3875285936
  15.0325264899   11.4461536971    7.5182044618
   5.5777173071   18.9570417252   13.3408298093
   1.1627473253   19.4577527650    8.0080901115
   2.4674156199   18.1941067188    8.1184599276
   8.9234671517   13.9546293016   11.5337919104
   5.4196655677   16.3069914621   16.1379384843
   3.7740673558   17.0202996998   15.6995518244
  -0.0994712569   12.8118625525    7.8846956043
  -0.1908934407   10.5636540416    7.6113863740
  10.9168320692    1.7531789185   14.5058905432
  14.4811563465   15.0174491576    3.2684043822
   6.0063592634   18.8547425822   15.0236117557
   9.5957648451   12.4297716797    9.3310410801
  15.7666104595   11.1527577747    5.7188060431
   4.2244109019   18.7498098840   14.5436780128
  -0.9151612149   18.7362010800    5.9561868406
  -1.7010428226   17.1396386769    6.1475391694
   8.6573924322   11.2961250755   10.3913656069
   3.6235191337   11.8241507368    9.1950908925
  -0.6192183535   14.0858983550    8.9035313362
  14.3831157003   15.5270276047    5.0859637449
   4.5791923712   13.1717618798    9.9561592819
   1.2302859101   17.1873727108    6.1465667716
  11.0895757301    2.1567654411   19.3027310046
  15.2885043567   10.7078942210    9.3145713481
   0.1070201999   15.9605004665    6.8599587155
  15.8541891981    9.6093025746    4.7636729804
   3.1838952498    5.9269084468    4.8011322549
   7.9196530767    8.5135353318    4.7391820479
   4.8847576845    6.2553525156    4.9528564563
  -0.7992408927    9.4894706127    8.6819989375
  15.8095011547   13.5481316257    5.6310341438
   1.2472946429    7.0846044985    3.8234228691
  -0.6989023162   10.3969507053    5.2341680304
   0.3735637316   17.8988591488    2.6739693553
   1.4618857484   17.8934933411    4.3335752599
   3.9353369903   14.8136901644    8.1400361392
   0.8494923012    6.9744658238    2.0076562800
  -1.4799577380   14.9393007887    4.7905697877
   4.6284036370   13.2389844103    7.4225945989
  11.5648953848    5.6595685297    3.9744588484
   7.0300761426    6.6756182900   17.1764457567
   3.5817892419    7.1487916716    5.9925421702
   1.4067373475    8.5578887977    2.7325248813
   7.1451799418    7.2969050224    3.8420114465
   8.3842626320   16.1282086258   17.8745455236
  10.7549355203    4.2853830642    3.1554292719
   7.7364191205    6.7264381999    5.4426417153
   0.8248689939    4.0997327827   11.9415868467
   7.9874676381   18.3714587756   11.5053746485
  11.6035240900    8.9041137857    4.2840405487
   8.6182315952   14.7502754243   16.5558452838
  13.4229223460    5.5779908843    7.1604093311
  12.2693645084    7.5268410230    3.5499590637
   9.2819312649   19.5089288867   12.0798498104
   0.2885963162   19.0982265587    3.9677541918
  14.3315954176   10.0463269758    2.0553162206
  13.0367515590    5.8087923904    2.2877311508
   8.5424903207    5.5722635777    2.9657583439
  -0.0084006814   12.2815312142    4.0515218658
  12.5175813757    9.8302209405    2.2457883665
  12.3141115660    4.4305278589    1.6690529059
  10.0142735619   15.4178913918   17.7020443862
   8.9509996690    5.0757293023    4.6524682734
   9.6563935414   18.3738679236   10.7968299125
   2.1118300507   14.8817828960    5.7588535443
   0.0919028385   13.9435494333    3.5221184986
   9.7328066563    9.0778356963   10.8806747506
  14.4135891101    7.0252613642    7.2304095685
  -0.3447131919   12.5541081505    2.4152659881
  15.6540133012    7.6924508470    3.7849159216
   3.8463366949   14.1700198703    5.4697667569
  15.1168862726    5.6396036068    6.3959002468
   7.9610304071   17.9773893195   13.6999423335
  16.9242644583    6.3826935026    3.8692231817
  11.8222157826    7.6427424876    6.1566128459
  13.5120285831    8.4432650427    1.6925209844
   2.2978365269   13.2156557161    5.1879800785
  13.3544590312    8.7390524772    6.0820793037
  12.3748728237    5.7723888105    0.5064872774
   9.1461369689   12.7567538594   17.2224366741
  -0.7727398716    7.5430777541   14.2145138348
   8.6980483623   11.0266436705   18.7956359712
   8.8267474989   16.6944360598   14.4082899603
  10.5265482441   13.1631936641   18.3830883722
  15.1729404111    6.0043268588    2.3585217186
  10.8813082531   17.8954285593   14.5732725481
  16.1608229790    6.7813590060    1.0665232204
   8.5350398886   11.6789564302    0.0151833806
   2.3233341021    8.8740036916   16.4914159126
   1.0582577890   13.6837251459   16.5284762116
  10.6741499712   17.0161334562    5.7651892671
  11.2292144215    0.5733070611    5.8650700776
   5.1740982330   10.3133975476    8.4215969609
   5.0987557456   10.8166128460    3.8547641651
  11.6228966527    1.1493969428    7.6524669307
  -0.9686013913    9.3388843145    0.9187489682
  -1.7447445604   10.6236136104   18.7854607670
  14.5338828019    4.7576092073   12.1903829872
  16.0657769115   13.0988667026    0.9774308866
  15.1524946452   12.8024250417   19.0059583653
   0.4959380263    0.3712227847   11.8930244036
   3.2550951233    1.1016173751   12.6379338134
   0.7125709759   17.4606598373   13.5491728492
  -0.1394309436    0.6595737923    9.9902700130
   9.7413816689   18.1994186144   15.8557136535
   4.8159017967   11.2260213702    6.8908078094
  -1.8168406975   12.8477884935   14.8059878816
   8.8155683102   17.3611826473    3.2540927845
   2.2744916948    9.6922978408    8.5215989847
   3.5634390942    9.1954531672   15.2647253355
   8.1170575655   18.1524294337    5.3914440960
   0.8318280051    7.9374556365   19.5198573074
   2.1279472755   13.3342460279   15.0359610827
  10.6716398023   10.3816014274    2.5562635686
   2.4931064574   11.0305779187    7.1079002343
  12.0656517650   19.4239016042   15.1322784933
   5.6762712480    9.2010701425    3.7139054423
   2.6867547734   12.2277355619   17.2452019381
   2.3302743521   17.8116867773   12.8253102067
   1.0482959280    0.8916861352    8.7341413770
   9.6652524168   15.6562153480    6.6009686605
  -1.3262536644   12.3062401628   16.4820642556
  15.4752495791    4.4406948052    0.6142785393
   3.8324995485    9.8702938241   17.0224524356
  15.0309300615   11.6077972399    0.8911798736
  12.8693700344    0.3102867082    6.7722142820
   4.7011701502    9.4768144983    4.8675254924
   9.8129875139    9.2425340971    1.4204796190
  16.3012163346    5.5528859039   19.3888672269
   7.1427020458   10.0838166063    7.2076181595
  14.0202110813    1.6705650572   14.2716194827
   0.3877324874    7.5901062616   17.7933023185
  10.5832955065   17.0936755826    3.4052797369
  -0.9648104562    7.9232909685   18.8300625316
   0.1383882562   19.3099486461   13.5584321232
   1.1134223316    1.7746939907   12.7568462053
   1.1128977096   16.5994364128   12.0338399512
   0.1032457967    2.2763130639    9.3707090243
   1.4513818597    9.2321676980    0.7045604820
  16.9482840726    3.4926142398    0.6210252495
   0.7097375511   11.3681422459   19.2979664521
   1.2500481108   11.2292919693   17.1594386304
  13.5249218180    1.4837063323   15.9204210912
   9.5664303211   15.9204042953    2.4658562015
   1.8299331764    9.5758484439    6.7416612280
   7.6846024461   17.0532977539    6.6940847703
   6.2624509678    8.5895373410    6.5816964026
   8.9840018827   10.7064817449    2.1597444695
  -1.1353536017   13.9852961497   16.0524549659
   5.2239384060    8.6480395691    1.2867822436
   8.8649027558   13.8611428173    7.1778826766
  13.3831161447   12.7419665579   13.8946392450
   3.7413698791    1.6240602758   17.1862393919
   1.6497052076    2.8125397451   19.0730566728
   0.4901064882    5.7366569335    6.1347904619
   4.4695772888    5.1464237300    0.7683971384
   0.2832230211    3.1066423772    5.1155303000
  10.9715474893   10.9982613808    5.9002940498
   5.6315841786   17.2701331203   10.0130934728
  16.8170306904    0.6229644791    2.0902974063
  11.8288081939   11.7537840346   16.6768424581
   3.5387674508   15.8878114993    0.4440881936
  12.4531580024   16.5263908491   16.3134565681
   5.5698500932    0.6558671880   10.2433227741
   3.3427155864   13.9439403273    2.3952675017
   7.6757266399   13.3873154408    1.5727068144
  13.1221882601   19.3403215227    4.8952321001
   5.8008692355   13.0255617488   19.0350967242
  -1.5443488602   15.8204849402   11.0789244409
   4.5110743698   18.3947312153    3.1132143572
   4.8366720893    0.8059886721    2.2843674262
  11.9082082733   15.8225286029   19.1376068184
   6.2540373602    2.5181816421    6.3058302155
  13.8909874410   18.1809430340   11.5676024693
  11.8248657698   14.1685683776    9.9894079542
   3.2507489739   15.1774469857   13.7697572688
   5.3062341045   17.1206013781   14.2015912763
   9.7546395508    3.0902324529   15.6703475951
   9.4332440556    2.9221916233   18.0338700115
   0.4701754405   17.4726202259    8.1062879178
  10.2748947175   12.4338770501   11.2415553755
  13.3668933865   13.7753964385    4.6531233634
   2.5316699925   13.3614247406    9.8839935340
  16.1671562723   12.3930794733    9.1769508533
  16.1754541401    9.4033915675    6.8304645007
  11.4475701532    2.2785864762   17.2346769371
   4.1252086668    5.2368557895    6.5153616997
  -0.6775265703   17.4273347230    4.4156318556
   9.2746881088    7.1395379333    4.1139673259
   7.7975849388    6.5150311576   15.2900601151
  16.1228846914   13.2605008177    3.5968387293
   2.7235870991   13.4545699022    7.1557347650
   9.2610180607    7.4225968936   11.9658231966
  13.5240769239    6.6816307056    5.4018515028
  -0.5893962075    8.2221142631    3.0731581005
   0.4049475017    6.0966714448   12.3850511967
   8.6700139023   14.1386391032   18.5860206039
  10.9686399691    5.9271803756    1.9966348098
  13.6246733836    9.0422429151    3.6566064838
   9.4980953073   17.3881089342   12.5685421100
  16.6056426335    4.7804064879   11.4350767147
  16.0173433860    6.6817595793   12.6197491911
  17.0319888597    5.1378836593    1.7795736913
   2.3791764320   10.7988928830   15.5674614777
  12.3578449084    0.4844866244   14.5832201043
   6.4560857044   10.3431660854    5.3542818978
   8.8911684246   18.4944091277    7.3802717631
  10.4303446330   11.1930053062    0.7323698433
   0.2852647869    9.5141960780   18.2941220270
   0.6216057526   18.6232273976   11.7451405814
   1.6442907873    1.6284850727   10.7043997757
  -0.6822341025   11.4853020091    0.7069512966
   9.3621462490   15.9260595820    4.5612142613
   0.1895390209   12.7621905946   14.9707932506
   3.8613205397    9.3672807527    7.1039961870
