B2 C140 Ca1 F48 H298 O66 
1.0
1.8996120905947425e+01 5.3891097028093668e-16 -3.3332892646937559e-17 
-2.7627190570753997e+00 1.9774915736863630e+01 2.2336681708022382e-18 
-5.4385387580511713e-01 -1.5104742320288425e-01 1.9258154886438877e+01 
B C Ca F H O 
2 140 1 48 298 66 
Cartesian
  10.5392526767    2.0496900511   16.6027186163
  -0.9400959761    5.4287740664   11.7803106551
  18.7980016539    0.3292466956    1.0603776225
   8.1924755099   14.4881104293    7.1750032694
   5.7217458207    6.7260350846    0.7750281239
  14.5048698294   13.0398057686   12.4291506048
   4.0859941155    1.6056822352   15.9171603621
   2.5967223858   -0.1389585581   18.6663032738
   1.2059967558    2.7195283551    4.2211857518
   3.3445066654    0.0657137232   17.3207588365
  -0.3193451390    3.2236691757    5.9424195474
   4.2759415609    4.7485274841    0.6050994074
   2.6039723819   15.7672622727   17.6352090036
   1.4440516689    2.0742633454   18.3918693187
  12.6634999751   14.9778670886   15.5640921938
   4.6380847630   10.1521517517    0.2038538164
   6.3679077662   16.2681764992    9.0158750161
  14.2936753147   11.4978007221   15.8158034546
   9.4215949986   11.4642070034    6.6902036483
  10.0164042868   12.9466949840    6.6335022269
  14.1377722678   11.5274097681   14.2622779169
   4.5910725146    7.7582772585    0.6741408071
  12.2479845988   10.7588373636   16.8457962547
  11.4589043367   10.3117737091    6.6143253811
   0.2070912071    4.4185787083    6.7407204932
  -0.0603975180    6.7441995753    6.7151215214
   4.9113077826   18.1369845679    9.3420793615
   2.5880407500   16.2395879701    0.7864501881
  17.3901898849    0.7404032915    3.0026649604
   4.0637782318   18.7938052370   10.3534287788
   2.3930519309   15.1117403827    1.8163558577
  14.0232729177   16.1083133864   17.0824903232
   6.1635723123    1.1560735975   10.9899665429
   7.7259199238   12.9773860460    3.6368106144
  15.9414837867    0.6389837651    3.4104707145
   6.1924190689   13.6822308890    1.9879910550
   6.2365232130   14.1601759095    0.5984566467
  -0.9017708128   15.0384744803   11.4714192925
   3.4260360246   13.6879078299    3.3554628918
  14.2742068032   14.8624718621   18.0074434139
   5.6335982195   13.5190096197   17.5838212754
   4.6935086034   17.4766967469    4.2092615108
   4.7574966259   19.6487500381    3.3820314377
   6.8811440869    1.1652055088    3.4355111530
   5.0220485978    2.0270686689    2.3386686285
  -1.9960182263   17.0973084740   10.9272283343
   6.5240814252    0.8557384479    7.1116336899
  13.3130709167   14.2150712105    8.6211979163
  15.4808213318   17.2222330906   10.6096287598
   4.1300757741   15.3421395365   11.9626501483
  13.7333919357   18.1264021823    4.1344014311
   7.5420429074    2.3221723896   17.8699633760
   8.8525817563    4.3728753674   18.7294036218
   8.7256235271    3.3505272313   17.6303229336
   4.1909040560   15.4508196384   14.3454820550
  13.3566545720   17.9846229944   11.3635383328
  11.6741003194   15.3204120002    9.9436463862
   9.8042421698    2.3035576969   13.0041563639
  14.2056755178   15.7210243713    1.0221291887
  14.1055709439   12.7525739321    5.4290826102
  10.9980298559   14.6652348459   11.0641166290
   4.9054584918    2.6367588710    6.5473339555
   1.6149908047   12.5583875606   11.7079304122
   4.3314678513   16.9688176556   14.6701402522
   1.0558663164   18.0297666215    7.8757577325
  10.8775717447    2.2523463560   14.1413410076
  12.1913780282    3.0973734940   13.8895340849
   5.0039618523    4.0519422185    5.9876792291
   5.5060641602   18.8997549964   14.2012239703
  10.3337104764   12.6108415170   10.2875445459
  -0.6477533904   13.1576369783    8.4713463382
  17.0342809793   11.2996459467    7.8611975232
  -0.7961451739   17.1345734544    6.7261873440
  -0.9689169677   10.4324535104    7.0754060761
   6.2861106412    6.0178380295   14.6581559756
  15.2219398970   14.4492345046    4.3625694591
  -0.6955726253   18.2532504245    5.6283454282
   3.0191686240   12.5223304415    9.6344149208
  16.9098051140    9.8536706305    4.9826919063
   4.0720155133    6.2097921984    6.3206224923
  12.1521322654    1.0834817019   18.1622214741
   2.6063288591    4.6420347352   13.0722259187
  10.0485884655   19.4070105772   18.2764067025
  16.6633974034   14.4841390759    3.7421463556
   7.4909111597    6.3448057747   15.7104302406
   3.5218582435   13.5653237893    8.5798292043
   8.9821685952    7.4223397517    5.4427160680
   0.2653041629   18.6997528090    3.6137449280
   7.9696481828    7.8976533540   15.5489189500
  10.6505967880    7.2364959054    9.7792669680
   1.2164290643    6.1567001192    2.6117866097
  13.1270521312    2.2271930232   18.5011336649
   2.1479567844    4.8568221545   10.6431282241
   1.4438271259    4.5783326745   11.9784418337
  10.8733400118    4.9098222084    3.5039600301
   9.6592672463    5.6360610384    4.2182693751
   9.3241932754   15.4721020042   18.1623200502
   9.7040802270    7.8778478326   10.9208768122
  13.7621564475    8.0422119648    3.4205676479
   8.8431825880   17.8442353868   12.2226398839
  -0.6674593491   13.0682187175    3.0754629358
  14.7851556788    5.1508519069    5.4459662495
   8.3147627853    8.0236254735   10.5197897956
  14.7830950849    9.6860246185    2.0335387827
  12.4778729352    5.2819922178    1.7759989721
   2.6549721989   14.7056886893    6.7957032590
  13.8456978404    7.1823832335    4.6486920180
  17.8492859846    6.5319101464    2.7654475412
   9.0978438691   17.4418032835   14.5886790290
   9.4683480110   13.2283654894   17.9407234047
  16.2160370727    7.4937580472   14.2954039807
  17.4624317503    7.2670316065   13.3709429582
  17.1443132516    5.7104364092    1.6695068115
  15.6198043139    2.7399845488   11.2172129612
   9.2648840336   11.9095078967   18.6789071142
  16.1336356963    4.2975634395   10.9996953697
  10.6232569659   17.6881192846   14.5704117472
  15.6762034793    4.7104711145    9.5687659043
  -1.1172039630    8.5596194190   12.5518080028
  10.8258899914   18.8824092989    7.0192636095
   2.8412315507   10.1946309694   15.2259331825
  -1.4843145150   10.7549507006   18.9787551045
   0.9055656921   13.0894375350   15.1646218463
  16.8647770979   12.9429445600    0.0738835061
   4.8844736362   10.1541275967    6.5069198918
   6.1231171742    9.2335129589    3.7403493346
  10.0280512668   16.5640038772    4.7098447441
   9.2174192374   17.7139161190    5.5065093600
   1.7968089607   12.2477835049   16.0081534841
   2.7471326624    0.4779623672   12.9353857645
   1.3584673921    0.9954610336   12.7010630056
   1.1294228714   18.1535884916   12.5547932578
   0.6358449828    1.1698784197   10.3598272508
  10.1994708473   11.0079752546    1.5073100673
   2.5079243848    9.9838838159    6.3723920632
   6.1943325354    9.7041633308    6.0293319866
  12.3728669761   19.3581365507   14.6405227638
  -0.8618975137    8.1196081450   18.3883504072
  17.3446806971    4.0835378469    0.1135801656
  -1.1918553985   11.8908958781   15.0367443364
   0.3996400485   10.3181098014    0.1068601929
   9.7749576405   17.4527811273    2.4840729707
   9.7564269594    5.7502905034   13.5661500054
   7.3992535417    1.6293187957   16.7320123351
   9.9976560652    5.0252368807   18.5042946967
   9.4669421982    3.5481997105   12.6258405582
   7.8541556188    1.2972233563   18.8153839937
   9.3748647906    3.8907114441    0.7284598730
   6.4504709301    2.9824919738   18.2205077378
   7.8023301898    5.2787077235   18.4800616888
   8.7300853931    1.6263241208   13.4969570614
  12.5705487477    2.9774697574   12.6044156841
  10.2292727064    1.6177058471   11.8517624735
  13.1662525535    2.9087226336   14.7521341553
   5.1790646516    6.8721574753   14.6866562484
   6.0265034370    4.7583578759   14.7561355868
  11.8815980560    4.4680768713   14.1269277125
   6.8299449668    6.1565417422   13.3283439899
   3.5537618918    3.7470746513   12.8950376392
   9.1602069492   18.4808625235   17.9550505383
   3.0998421841    5.8720709730   13.3579628914
  11.7704568928    6.8017060043   10.3936734541
   1.3559919922    5.0456126650    9.4849755744
   8.6243604356    8.0214522142   14.2592672188
   9.0593771128    7.9911677526   16.3751276733
   2.0532953608    4.1961302401   14.2840891691
  11.0000304509    8.2336966325    8.9733328518
  11.0859984143   19.2516880608    0.2836899346
  14.2215781699    2.0193458953   17.7303596653
  11.1643246879   19.2997193413   17.4176620162
   2.9969027228    3.8026909596   10.4577784509
  10.1387222871    6.1950490560    9.0181361663
   7.5269276224    8.2717732090   11.5775102068
  13.9906546963    2.4446422669    0.5354947783
  12.6084898064    3.4810459315   18.2233365329
   7.0972483850    8.8999297640   15.6661008682
   2.9451194594    5.9090314238   10.6800056596
   7.7930283299    6.8098486963   10.0005634461
  16.3249815001    8.5995673267   15.0105457032
   8.0608354816    8.9990222735    9.6136900313
  14.3218626068    2.5749722334   10.9967462620
  14.9261545481    7.5367449040   13.5647764961
  16.2924281060    3.8061010738    8.8225902492
  16.2926977403    1.7791939859   10.6508918237
  16.0267412832    5.9670729732    9.1550349904
  16.0334391768    6.4082319006   15.1211235752
  -0.1243860976    8.2373800489   11.7227911511
  15.8106624263    2.5355629558   12.6145276433
  -0.7139251249    9.6969005697   13.2382626396
  14.3393540156    4.5610567699    9.4350704467
  16.9045434762    9.0168347879   11.6764958688
  -1.0522443752   18.9825626298   18.4745590915
  15.0624462142   12.3626882617   16.0611603429
   1.3860828185    2.9366362518    3.1511320377
   6.4385843320    7.0939714709    1.5411065115
   6.1243903386   16.2286056088    7.9369476429
   9.3292163451   10.9990540448    7.6562338661
   5.6872984531    6.4889798450   18.9179348368
   4.5424366215    2.5758821311   15.8263921889
  17.5678327866    3.1553351220    5.9636033143
   0.4970212289    0.9666350434    1.5865392984
   2.4058115979   16.8250364727   17.3199828776
  18.2916187936    0.8636372206    0.1816758284
   8.1751697529   15.5382142377    7.3394680961
   0.8135190935    1.4662173109   17.7180343319
  -2.3479495535   19.2275148766    0.7534777216
  13.5322439054   12.7350150822   11.9594341007
   1.3898511158   19.0860560180   17.2721599877
   7.8494122306   14.2186159695    6.1407224886
  13.6993795046   14.8619694746   15.1552389440
   4.9503572362   10.7973885008   19.1002883082
  15.3232762023   12.4448905762   12.0344691274
   4.1052214235    3.8396284540    1.1950478307
   3.3153670502    5.2902121438    0.5436546439
  12.8558137566    9.9347588451   17.2144516175
  12.3087382324    9.9893467845    5.9528228015
   1.3426490973    1.6292643460    4.5413930338
   0.0889303669    2.1856283920    6.2323306477
  11.1011984126   13.0556404094    6.8671482791
   3.1377708204    1.5595512259   15.2979363968
   5.7281219102   18.8117714266    9.1598084878
  12.1347799666   14.0477395818   15.9155161607
  13.1766930507   11.2757794091   13.9095243319
   1.6805841823   15.1982560172   17.4912007594
   3.3971963197   15.3057476110   17.0249599963
  12.0430322109   15.3535702949   14.7837781377
   7.3498201858   16.8220115755    9.1051828655
   2.2160326965    2.6240273763   17.9060524302
   2.8886561368   17.1834216782    1.2748452057
  -0.7477076995    7.4697477997    6.2931171932
  14.7418699701   10.5035968142   16.0340443099
   1.9627248000    3.3897393426    4.7081601540
   6.4942276041   15.2329394306    9.3549601420
   8.4543643932   11.5905147135    6.1466375259
   4.4636470793   10.5031189613    1.2205377341
   7.4855028340   13.9614732076    7.7873808548
   3.1301738727   10.2715238864   18.9954603174
   3.9384558398    4.2841973010   18.8440913578
  14.7022301103   14.1117043069   12.4202114761
   0.9268638243   19.3196873187    0.2671332330
   4.8485547071    0.7767690181   15.4184432824
   0.7668681481    2.6773640563   18.9081836270
   2.7053270576   -0.0891099212   16.4887651051
  17.9646496965    0.4234317002    3.9187590345
  17.6687371615    1.7837188257    2.9314367580
  11.6807709623   10.4035875486   15.8139668795
   4.2063771683    7.9468518518    1.7379066205
   3.8336213727    7.4222358693    0.0269871048
   0.7967780152    6.9520550193    6.0839465764
   1.2401411583    4.5646586578    6.4165075864
   1.5167522138   16.3403779543    0.3783047821
  11.7928237587   11.0467534504    7.3288101525
   4.5645674645   18.9133401497   11.2722666332
  11.2210563892    9.3934624333    7.2110180198
  11.6120304040   11.2547386021   17.5164001773
   9.8395869586   13.3106499517    5.5703880705
  14.9344511138   10.6807412081   13.9395102527
   4.4664636730   18.1151496522    8.3503754140
   7.9220545627   13.8384339515    4.2055017738
   0.1719257242    4.2035238744    7.8197249726
   0.0509588230    7.0567131022    7.7494589546
   6.2160951413   14.6247123368    2.5231080650
   7.0459507361    1.4701737794   11.4994255795
   1.9145956844   14.2078931024    1.1990288854
  13.9516357223   17.0599742546   17.6825866816
  14.8493595837   16.3059317992   16.2992122540
   5.3449926736   14.8095854932    0.5900381776
  -1.5454945818   14.8121441594   12.2618730940
   8.5016883483   12.2996960523    3.9038806493
   5.7461518189    2.1402701194   10.6945528000
   3.0825693754   18.2446450796   10.6186796301
   4.7245700287   14.2147845948   17.3935743355
  -0.5425344498   14.1382701705   11.0073531068
  15.1858817201    0.3298209019    2.7365284352
  15.4931008010    1.5495949422    4.0116709156
   5.7669284379   17.3211263166    4.1837714723
   6.3073096062    1.1164166512    8.1247632118
   4.4370868043   19.1311045605    2.4295197318
   1.6507881421   15.2896561375    2.5617479841
   7.0855106633    1.5299318906    4.4361689738
   3.9575305489    1.9157307746    2.1042758534
  -2.0879899832   17.0711236264   12.0359927841
   2.5819898375   13.7862612791    3.9922115015
   3.1249618639   12.8651435034    2.6607955599
   6.8619060667   12.5701083915    4.1519792764
  14.1324529563   13.9480412633   17.5316586812
   5.3651631281    0.8400758440   11.6256244442
  15.3433000856   14.7848067632   18.3647963477
   5.6575705362   12.6900893550   16.8728741263
  12.5135289453   14.0706559104    7.9125920290
  15.1816641998   16.1081760478   10.2882120400
   5.3095394304   13.0651656377    2.1278813694
   3.5887572525   14.9966656676   11.1237411932
   4.1600313718   17.1680227059    3.3420402555
   5.1588294764   14.9532479407   12.0606930745
  13.6772195597   13.1420313975    8.7428868038
   5.4115393597    1.9183371512    1.3113998103
  -0.0116613492   15.5705584952   11.8923175259
   7.1611638489   14.7667259537    0.4810323692
   4.3338697492   13.6818119991    4.0162651299
   7.4896973730    0.5482609029    6.8954377574
   5.8061825275   -0.0064811925    6.9757607304
   6.5158443765   14.1400929710   17.4395026799
   8.6518460950    3.8108452700   16.6435356359
  12.8904643789   18.5644234296   12.2409508981
   3.7233651882   14.8125296823   15.1242244535
   5.1756301899   14.9571305056   14.3243794213
  11.0151308202   15.0136284658    9.0713053510
   4.3083114315   16.4501618336   11.9060739286
   4.3131717661   16.9723854881    5.1275657425
   5.8539757823   19.6516911612    3.2683571869
  -1.3737976692   17.9239308149   10.6496039111
  14.5115404466   17.9408101133    4.9501221653
   7.3139929962    1.7401100198    2.5998981757
  14.3883798483   18.1814717194    3.1674871788
  13.0013595510   17.3265288745    4.0990314410
   5.1462238533    3.0706816025    2.5315985205
  13.9769582175   14.8717133701    8.0120047106
  15.3746001897   17.8325881340    9.6220515796
  11.5698712764   14.9315775502   11.9587307143
   0.9952628944   19.0308371948    8.3785211427
   1.1127371381   13.4702569331   12.1261512711
  14.1509231206   12.0697937442    6.2346756551
  14.0874119382   12.2192074586    4.4437555227
  13.2689299282   18.5887937172   10.4164021470
  13.5602092153   15.3030877188    1.7497546534
  15.2675990742   15.6397131432    1.1664096911
   0.8090126440   11.8624275671   11.3145140627
  12.8317511334   17.0845702434   11.2674037097
   2.4923041634   12.0705500143   12.2937321051
  13.1898150790   13.2491249148    5.4362786086
   4.1015618302    2.0383379555    6.2626977545
  11.6887739130   16.3935991711    9.9104300481
  -1.0483690684   14.1118884058    8.8820052673
  10.0866553771   11.5433993523   10.5285554373
   4.7153000537    2.6317917497    7.6821543149
  14.0252442256   16.7911013412    0.9275146792
   4.9848749380    4.1570508428    4.8836806106
   5.9298265072    4.3870208521    6.5607975923
  16.4477801262   11.9366125654    7.2699117120
   6.3572123687   19.1259721103   13.5417206803
   1.3363725683   18.2141232398    6.7956275930
   1.8917574805   17.3080057556    8.3220863476
  10.0113755179   15.0964103153   11.1329051990
   4.2234902884   17.0707258375   15.7544266226
   3.4737825526   17.4583013842   14.2055875719
  -0.6676859992   13.3088197269    7.3888643010
  -0.4424451232   11.1183407893    6.3698518161
  11.3012794959    1.2616727110   14.4096097958
  14.6388531932   13.9436075743    3.5742475940
   5.6771008517   19.2556525574   15.2792349383
  10.7250178663   12.4418650381    9.2280408550
  16.9840061569   10.9130573255    4.9081099625
   4.6002129715   19.4268552698   13.7538839595
   0.0835250307   18.9705996052    5.9037400236
  -1.6202484158   18.7909492939    5.4316747239
   9.3038648979   12.9499035574   10.1293343119
   2.4419702074   11.6981511831    9.1173782882
   0.3840333955   12.9644968305    8.6979547452
  14.8490111429   15.3933592192    4.5873407540
   3.9118407563   12.1201000686   10.1126251343
  -0.3489371333   16.1606573674    6.2991724370
  11.3653927930    0.9433646789   18.9277634323
  16.2573469029   10.7292479496    8.3779060878
  -1.7541457852   16.7993603115    6.9757539166
  15.7859339949    9.6412510698    4.9345011604
   3.4126242025    6.8301208016    7.0033755472
   9.4517297513    8.1304998266    6.0597176354
   3.6890524648    6.6257231679    5.3817500585
  -0.1655355018   10.0279877097    7.6701282725
  -1.5709037961   14.9302475110    4.4210261879
   1.5003903107    6.1127484730    3.7004850169
  17.3447484795    9.3309515916    4.0876672579
   0.1134382908   18.3570840758    2.5495747691
   1.2970720573   18.9045803764    3.7720835369
   3.5123002803   14.5959104278    8.8355188800
   1.2191682445    5.1660321175    2.1284697065
  16.6458046377   15.1457531303    2.8603382498
   4.5578922543   13.3134659118    8.3500712704
  11.6646037391    4.6948241575    4.3996847813
   7.0837107163    6.2923679554   16.7333137100
   5.1620624399    6.5015827309    6.4882019556
   2.0794808165    6.6639086221    2.1483164311
   8.1940746779    7.7640801402    4.8421811517
  10.2339797120   15.7896981437   18.8099794907
  10.5267381469    3.9465159478    2.9862316489
   8.5253766052    6.7684402982    6.1429457522
   1.0702217354    3.6096723302   12.0293132832
   9.0929130688   18.9579228436   12.2696807154
  13.1266751634    8.9624706955    3.7358393315
   8.5508557571   16.2616807584   18.3273413044
  13.8927745226    4.5790454832    5.7004023477
  13.1661969112    7.6911359322    2.5743392204
   9.7304443473   17.2422754991   11.8179725446
  -0.2371621655   19.6917547153    3.7054578683
  15.4214816247    9.4940675601    1.1096677102
  13.3864158300    5.5478754982    2.3593802940
   8.9760053583    5.9772556594    3.4199344824
  -0.0556468253   13.2997824545    3.9749047356
  14.9977964941   10.6942102952    2.4290132451
  12.3920895749    4.2244497207    1.5679170984
   9.6098828530   15.3748112783   17.1728270353
   9.2504803924    4.8404573710    4.8680615507
   7.9920758400   17.8004858222   11.4374047431
   2.4131528815   15.5673952060    7.5412929207
  -0.4119966613   13.7783475157    2.3140046677
  10.0876350848    8.8216163526   11.3676746844
  15.1602507168    5.7275682256    6.2198980716
  -0.3488154878   12.1483562182    2.5822642788
  17.2823824718    7.3962019626    3.0297944071
   3.6421373843   14.8572861038    6.3578996133
  15.5418797803    4.3749298914    5.1913446390
   8.5872605283   18.2152407155   15.2593678289
  18.0320262711    5.9415935005    3.7246996503
  12.8281360344    7.0423272373    5.0866781882
  13.7329895159    9.8251930964    1.6733127843
   2.0104313865   14.7097292363    5.9831820336
  14.3971995151    7.7955261473    5.4906582426
  12.4969422536    5.9287753521    0.8668877732
   9.2203744621   13.0931559114   16.8383403751
  -0.6994912443    7.0410333136   14.1481188097
   9.5979194924   11.1303119176   17.9063776210
   8.8671756133   16.4687932266   15.1012694021
  10.6156649774   13.4923968072   17.9662308775
  16.3493202694    5.0413618057    2.1096091082
  11.1268505273   16.9422476070   13.8665675214
  16.7561935284    6.3612238613    0.8119949961
   8.1463155604   11.6777888131   18.9567947095
   2.8406876320    9.8905537482   16.2267134556
   0.4101833198   13.9238628297   15.8651506891
  11.0820268548   16.7220324578    4.6071012666
  13.4101955063    0.1989534687    6.9413531219
   4.8640977914   10.2406476349    7.6172296173
   6.3281601752    9.6496848516    2.7406009320
  11.1342467057   18.4726822933    8.0345614942
  17.1676195660   10.4599954467    0.2620267732
  -1.7298561792   10.4191795175   17.9346133326
  15.5079435082    4.8574517752   11.6679296061
  -1.8158947797   14.0163092042    0.2499449753
  15.7843588206   12.6668944720   18.3616309390
   0.5512230437    0.0836713353   12.6896527950
   3.4782802795    1.3843898817   12.9190639689
   0.6025178487   17.6455030602   13.4320929634
  -0.4163530367    0.8054053231   10.6933714631
  11.1030811700   17.5098879937   15.5442569444
   4.7446458198   11.1508791363    5.9951576187
  -1.7771822294   11.5279564794   14.2764199148
   9.2591131214   17.1471938049    1.5454830185
   2.3580565167   10.2692127736    7.4532925041
   2.0887449818    9.6741876056   14.5584351893
   9.2931672578   18.5753289036    4.8510196361
  17.2581742531    8.3736442618   17.7841472373
   1.5863842783   13.5188822925   14.3406131596
  10.5669947948   11.1516979610    2.4758170511
   2.4046917406   10.9773078796    5.9106381793
  15.4745556579    0.3625632817   13.9747376856
   6.7463491556    8.3065628455    3.7959886254
   2.3309396985   12.9656124062   16.6603186222
   2.1672462928   18.4073303202   12.8546570346
   1.2240895198    0.4053831959    9.8727195820
   9.8913405839   15.6117067246    5.3047550801
  -0.9583095119   10.9344287582   15.6759426164
  16.7649301576    3.1104462468    0.4192271548
   3.8509273160    9.9166790353   14.8912521585
  16.3115188683   12.7317300199    0.9828503515
  11.6668999919   18.6259294044    6.2480718860
   4.9859142505    9.1549231104    3.6907308604
  10.5384064123   10.0481260831    1.1440064687
  15.9004998275    4.4437136589   18.9707816816
   7.0357029932   10.1163898396    6.5909551420
  15.1291376155   -0.0634592112   15.7178554256
  -0.6356015326    7.9927777840    0.1970455973
   9.3176110068   18.4310940586    2.6159494717
  -0.5265249576    7.3073324235   17.9099337866
   2.9569568016    0.0817567157   13.9311799001
   1.1132613464    1.6297952253   13.5454668980
   1.1883170051   17.3608794880   11.7825694756
   0.5117403804    1.9455029536    9.5893941624
   0.2970719530    9.9272422275    1.1091507390
  17.4731392209    3.7337211250   18.5241962650
   1.2594467043   10.9927891792    0.0152810005
   1.3286133532   11.4704871148   16.5756668763
  13.1240051969   18.4506655454   14.5199796911
  10.8650573431   17.7510218287    2.3481442159
   1.7282915035    9.2515843503    6.2064121149
   8.2961686855   17.2745577781    5.3801554658
   6.2921257795    8.5821037232    6.0508848830
   9.1252308299   10.9930382341    1.5301890663
  -1.7856166193   12.6035525642   15.6988049655
   5.1683207524    8.8663205917    0.0659113156
   9.5008108772   13.9801989879    7.4615860657
  14.4197998479   12.8391874311   13.8665033740
   3.8842637050    1.4397861138   17.2814208791
   2.7191385461    1.2597237618    0.0163291730
  -0.7305721287    5.4698191015    6.5988428245
   5.2750987287    5.4420518012    1.2869535387
  -0.1017609279    3.2823532299    4.4935697086
  10.3712798414   10.7435709861    5.8670683576
   5.3026605338   16.8406872777    9.7883651740
  14.8565355374   19.6815512468    1.8377620601
  13.1909773930   11.7914482337   16.6190533867
   3.0599650966   15.7371434130   19.0149368947
  12.6842206325   15.9641901084   16.5248822072
   6.4719874842    0.2860738663    9.9475443238
   3.4931894411   14.8821589145    2.5679133030
   7.3975654608   13.0465796788    2.2924972488
  12.9132147691   19.3415994849    4.3587827918
   5.5683044923   12.9372891762   18.8827850745
  -1.3992046514   15.8997575804   10.4315537495
   4.3883469356   18.8247554557    4.5440997984
   5.4118054409    1.1445579160    3.2780651101
  13.3999480100   14.8256848082   19.1403826711
   6.1398100450    2.0292509032    6.2198339156
  14.7668125119   17.7345499107   11.6779687712
  13.0750688271   14.9466092310    9.8417686981
   3.3777155912   15.0031935926   13.1773765687
   5.5038042849   17.4909106243   14.1877591574
  10.2897246986    2.5727276871   15.3147126442
   9.9914230139    2.7254184683   17.6854468550
  -0.1840703063   17.4907045034    7.9497122564
  11.0701695667   13.2500804485   11.2066294535
  15.1726692574   13.6353646455    5.6252199367
   2.2479798665   13.2060643200   10.5725288533
  -1.3706794998   12.0752937668    8.8916144327
  17.4153227160    9.5000791746    6.2488030181
  11.6079434814    1.1208080967   16.8366937500
   3.8480894278    4.8711028148    6.4954613083
  -0.2739291693   17.6883884162    4.4053441717
  10.1376446954    6.7927827858    4.8674102969
   8.5138540739    5.4594766850   15.4497731373
  17.0070294974   13.1812045572    3.3134675044
   2.6821851997   13.5264742380    7.4810206335
   9.6505516212    6.8855189069   11.9265576885
  14.4478571585    5.9584908856    4.3131705615
   0.1002644170    6.9692087866    2.3097197955
   0.4598520445    5.6284206844   12.1835267683
   8.7155104747   14.3171804300   18.5251293395
  11.3376854999    5.7396528752    2.5162094405
  14.9461176097    8.6027156899    2.9354146445
   8.3694743508   17.1774507247   13.4072989708
  17.5464565200    4.2821337583   11.1268501785
  17.1327291567    6.2806237536   12.3499844913
  18.0213682031    4.7685964154    1.1195943730
   2.8688360617   11.5962139939   15.1696365528
  11.0567356943   19.0700056281   14.1485508270
   6.5405807261   10.1306593381    4.7077723405
   9.5879352303   18.0448903161    6.8141844252
  10.6308844870   12.0263217631    0.5821747031
   0.2325903220    9.0816672471   18.4285754223
   0.3295078169   19.1918367015   12.0114597792
   1.3315473680    1.7496847950   11.4489287056
  -1.4180892249   12.1570357904   19.2467317907
   9.4645371737   16.3790540274    3.3861596647
  -0.1064880114   12.3887354619   14.4782854736
   3.7773473927    9.3130968416    6.1059221160
